Build from bt.06.h.cif

774 atoms
7 atom types
186 bonds
2 bond types
105 angles
2 angle types
0.0 20.205600  xlo xhi
0.0 18.628755  ylo yhi
0.0 27.987500  zlo zhi
-12.213593  0.000000  0.000000 xy xz yz

Masses

  1    28.085500  # st
  2    40.078000  # cah
  3    15.999400  # ob
  4    15.999400  # oh
  5     1.007940  # ho
  6    15.999400  # o*
  7     1.007940  # h*

Atoms

    1 105   1   2.1000  14.969978454130   2.321763778095   4.260679656941 # st
    2 106   1   2.1000  12.934379590919   5.426556208131  22.441359656941 # st
    3 107   1   2.1000  11.602378453457   2.321763778095  18.254429656941 # st
    4 108   1   2.1000   9.566779590246   5.426556208131   8.447609656941 # st
    5 109   1   2.1000  14.464666480521   4.582052667951   2.270768406941 # st
    6 110   1   2.1000  16.500265343732   1.477260237916  24.431270906941 # st
    7 111   1   2.1000  11.097066481868   4.582052667951  16.264518406941 # st
    8 112   1   2.1000  13.132665345079   1.477260237916  10.437520906941 # st
    9 113   1   2.1000  12.581893362172   5.892275072544   4.257880906941 # st
   10 114   1   2.1000  14.617492225383   2.787482642508  22.444158406941 # st
   11 115   1   2.1000   9.214293361499   5.892275072544  18.251630906941 # st
   12 116   1   2.1000  11.249892224710   2.787482642508   8.450408406941 # st
   13 117   2   1.0500  14.723644143505   2.563937587590   7.338744906941 # cah
   14 118   2   1.0500  12.688045280294   5.668730017626  19.362174906941 # cah
   15 119   2   1.0500  11.356044142832   2.563937587590  21.332494906941 # cah
   16 120   2   1.0500   9.320445279621   5.668730017626   5.368424906941 # cah
   17 121   2   1.0500  11.438123350328   2.582566342166   5.365626156941 # cah
   18 122   2   1.0500   9.402524487117   5.687358772202  21.335293656941 # cah
   19 123   2   1.0500  14.805723348981   2.582566342166  19.359376156941 # cah
   20 124   2   1.0500  12.770124485770   5.687358772202   7.341543656941 # cah
   21 125   2   1.0500  12.031122778504   2.993019902577  13.298962906941 # cah
   22 126   3  -1.0500  14.470744340117   3.104792430036   2.850949281941 # ob
   23 127   3  -1.0500   4.292750026505  18.628754576489  23.852769281941 # ob
   24 128   3  -1.0500  11.103144339443   3.104792430036  16.844699281941 # ob
   25 129   3  -1.0500   0.925150025832  18.628754576489   9.859019281941 # ob
   26 130   3  -1.0500  15.839622806569   1.099096520013   3.673781781941 # ob
   27 131   3  -1.0500  13.804023943358   4.203888950049  23.029936781941 # ob
   28 132   3  -1.0500  12.472022805895   1.099096520013  17.667531781941 # ob
   29 133   3  -1.0500  10.436423942684   4.203888950049   9.036186781941 # ob
   30 134   3  -1.0500  15.780824515641   3.365594994107   5.151521781941 # ob
   31 135   3  -1.0500  17.816423378852   0.260802564071  21.552196781941 # ob
   32 136   3  -1.0500  12.413224514968   3.365594994107  19.145271781941 # ob
   33 137   3  -1.0500  14.448823378179   0.260802564071   7.558446781941 # ob
   34 138   3  -1.0500  13.753056741708   1.794570023581   5.137528031941 # ob
   35 139   3  -1.0500  11.717457878497   4.899362453617  21.566190531941 # ob
   36 140   3  -1.0500  10.385456741034   1.794570023581  19.131278031941 # ob
   37 141   3  -1.0500   8.349857877823   4.899362453617   7.572440531941 # ob
   38 142   3  -1.0500  16.446650145040   1.477881195781  25.996611781941 # ob
   39 143   3  -1.0500  14.411051281829   4.582673625816   0.707106781941 # ob
   40 144   3  -1.0500  13.079050144367   1.477881195781  12.002861781941 # ob
   41 145   3  -1.0500  11.043451281156   4.582673625816  14.700856781941 # ob
   42 146   3  -1.0500  13.100706811567   5.266348918774   2.862424156941 # ob
   43 147   3  -1.0500  15.136305674777   2.161556488738  23.841854156941 # ob
   44 148   3  -1.0500   9.733106812914   5.266348918774  16.856174156941 # ob
   45 149   3  -1.0500  11.768705676124   2.161556488738   9.848104156941 # ob
   46 150   3  -1.0500  11.509995449054   5.042182905991   5.143125531941 # ob
   47 151   3  -1.0500  13.545594312265   1.937390475955  21.560593031941 # ob
   48 152   3  -1.0500   8.142395450401   5.042182905991  19.136875531941 # ob
   49 153   3  -1.0500  10.177994313612   1.937390475955   7.566843031941 # ob
   50 154   3  -1.0500  17.969536932398   0.131022239900   5.149282781941 # ob
   51 155   3  -1.0500  15.933938069187   3.235814669936  21.555555281941 # ob
   52 156   3  -1.0500  14.601936931725   0.131022239900  19.143032781941 # ob
   53 157   3  -1.0500  12.566338068514   3.235814669936   7.561805281941 # ob
   54   1   4  -0.9500  12.467836475022   5.439596336335  16.640950281941 # oh
   55   1   5   0.4250  12.850400031383   4.613905043964  16.226367246316 # ho
   56   2   4  -0.9500  14.503435338233   2.334803906299  10.063887781941 # oh
   57   2   5   0.4250  14.458790938605   1.508797974263   9.501997018066 # ho
   58  25   6  -0.8476  11.645322589220   2.688750243252   2.985849031941 # o*
   59  25   7   0.4238  12.226025538219   2.688750243252   3.799964545191 # h*
   60  25   7   0.4238  12.226025538219   2.688750243252   2.171733518691 # h*
   61  26   6  -0.8476   9.609723726009   5.793542673288  23.718989031941 # o*
   62  26   7   0.4238  10.190426675008   5.793542673288  24.533104545191 # h*
   63  26   7   0.4238  10.190426675008   5.793542673288  22.904873518691 # h*
   64  27   6  -0.8476  15.012922587873   2.688750243252  16.979599031941 # o*
   65  27   7   0.4238  15.593625538892   2.688750243252  17.793714545191 # h*
   66  27   7   0.4238  15.593625538892   2.688750243252  16.165483518691 # h*
   67  28   6  -0.8476  12.977323724662   5.793542673288   9.725239031941 # o*
   68  28   7   0.4238  13.558026675681   5.793542673288  10.539354545191 # h*
   69  28   7   0.4238  13.558026675681   5.793542673288   8.911123518691 # h*
   70  29   6  -0.8476  11.390275406171   4.701897655106  11.782880031941 # o*
   71  29   7   0.4238  11.970978355170   4.701897655106  12.596995545191 # h*
   72  29   7   0.4238  11.970978355170   4.701897655106  10.968764518691 # h*
   73  30   6  -0.8476  13.425874269382   1.597105225070  14.917480031941 # o*
   74  30   7   0.4238  14.006577218381   1.597105225070  15.731595545191 # h*
   75  30   7   0.4238  14.006577218381   1.597105225070  14.103364518691 # h*
   76  31   6  -0.8476  14.757600407745   4.814291140430  13.271535156941 # o*
   77  85   7   0.4238   8.603103357417   4.814291140430  14.085650670191 # h*
   78  85   7   0.4238   8.603103357417   4.814291140430  12.457419643691 # h*
   79  32   6  -0.8476  15.997896776396   1.238812179337  13.439460156941 # o*
   80  32   7   0.4238  16.578599727415   1.238812179337  14.253575670191 # h*
   81  32   7   0.4238  16.578599727415   1.238812179337  12.625344643691 # h*
   82  33   6  -0.8476   9.277611769894   5.696052191625  13.355497656941 # o*
   83  33   7   0.4238   9.858314718893   5.696052191625  14.169613170191 # h*
   84  33   7   0.4238   9.858314718893   5.696052191625  12.541382143691 # h*
   85 158   5   0.4250  17.153756927214   1.477881195781  26.703718563883 # ho
   86 159   5   0.4250  13.703944499656   4.582673625816   0.000000000000 # ho
   87 160   1   2.1000  10.898780727708   8.531348638167   4.260679656941 # st
   88 161   1   2.1000   8.863181865719  11.636141066340  22.441359656941 # st
   89 162   1   2.1000   7.531180727035   8.531348638167  18.254429656941 # st
   90 163   1   2.1000   5.495581865045  11.636141066340   8.447609656941 # st
   91 164   1   2.1000   7.025868756668  10.791637526160  16.264518406941 # st
   92 165   1   2.1000   9.061467619879   7.686845096124  10.437520906941 # st
   93 166   1   2.1000   8.510695636972  12.101859930752   4.257880906941 # st
   94 167   1   2.1000  10.546294498961   8.997067502579  22.444158406941 # st
   95 168   1   2.1000   5.143095636298  12.101859930752  18.251630906941 # st
   96 169   1   2.1000   7.178694498288   8.997067502579   8.450408406941 # st
   97 170   2   1.0500  10.652446417083   8.773522447662   7.338744906941 # cah
   98 171   2   1.0500   8.616847555094  11.878314875834  19.362174906941 # cah
   99 172   2   1.0500   7.284846416410   8.773522447662  21.332494906941 # cah
  100 173   2   1.0500   5.249247554420  11.878314875834   5.368424906941 # cah
  101 174   2   1.0500   7.366925623906   8.792151202238   5.365626156941 # cah
  102 175   2   1.0500   5.331326761917  11.896943630411  21.335293656941 # cah
  103 176   2   1.0500  10.734525622559   8.792151202238  19.359376156941 # cah
  104 177   2   1.0500   8.698926760570  11.896943630411   7.341543656941 # cah
  105 178   2   1.0500   7.959925053304   9.202604760786  13.298962906941 # cah
  106 179   3  -1.0500  10.399546614916   9.314377288245   2.850949281941 # ob
  107 180   3  -1.0500  12.435145478127   6.209584858209  23.852769281941 # ob
  108 181   3  -1.0500   7.031946614243   9.314377288245  16.844699281941 # ob
  109 182   3  -1.0500   9.067545477454   6.209584858209   9.859019281941 # ob
  110 183   3  -1.0500  11.768425081368   7.308681378222   3.673781781941 # ob
  111 184   3  -1.0500   9.732826218157  10.413473808258  23.029936781941 # ob
  112 185   3  -1.0500   8.400825080695   7.308681378222  17.667531781941 # ob
  113 186   3  -1.0500   6.365226217484  10.413473808258   9.036186781941 # ob
  114 187   3  -1.0500  11.709626790441   9.575179852315   5.151521781941 # ob
  115 188   3  -1.0500  13.745225653652   6.470387422280  21.552196781941 # ob
  116 189   3  -1.0500   8.342026789767   9.575179852315  19.145271781941 # ob
  117 190   3  -1.0500  10.377625652978   6.470387422280   7.558446781941 # ob
  118 191   3  -1.0500   9.681859015286   8.004154883653   5.137528031941 # ob
  119 192   3  -1.0500   7.646260153297  11.108947311825  21.566190531941 # ob
  120 193   3  -1.0500   6.314259014613   8.004154883653  19.131278031941 # ob
  121 194   3  -1.0500   4.278660152623  11.108947311825   7.572440531941 # ob
  122 195   3  -1.0500   9.007852417945   7.687466055852  12.002861781941 # ob
  123 196   3  -1.0500   6.972253555955  10.792258484025  14.700856781941 # ob
  124 197   3  -1.0500   9.029509086366  11.475933776982   2.862424156941 # ob
  125 198   3  -1.0500  11.065107948356   8.371141348809  23.841854156941 # ob
  126 199   3  -1.0500   5.661909087713  11.475933776982  16.856174156941 # ob
  127 200   3  -1.0500   7.697507949703   8.371141348809   9.848104156941 # ob
  128 201   3  -1.0500   7.438797723853  11.251767764200   5.143125531941 # ob
  129 202   3  -1.0500   9.474396587064   8.146975334164  21.560593031941 # ob
  130 203   3  -1.0500   4.071197725200  11.251767764200  19.136875531941 # ob
  131 204   3  -1.0500   6.106796588411   8.146975334164   7.566843031941 # ob
  132 205   3  -1.0500  13.898339205976   6.340607099972   5.149282781941 # ob
  133 206   3  -1.0500  11.862740343987   9.445399528145  21.555555281941 # ob
  134 207   3  -1.0500  10.530739205303   6.340607099972  19.143032781941 # ob
  135 208   3  -1.0500   8.495140343313   9.445399528145   7.561805281941 # ob
  136   3   4  -0.9500   8.396638749822  11.649181194544  16.640950281941 # oh
  137   3   5   0.4250   8.779202306183  10.823489902173  16.226367246316 # ho
  138   4   4  -0.9500  10.432237611811   8.544388766371  10.063887781941 # oh
  139   4   5   0.4250  10.387593213405   7.718382832472   9.501997018066 # ho
  140  34   6  -0.8476   7.574124862799   8.898335103324   2.985849031941 # o*
  141  34   7   0.4238   8.154827811797   8.898335103324   3.799964545191 # h*
  142  34   7   0.4238   8.154827811797   8.898335103324   2.171733518691 # h*
  143  35   6  -0.8476   5.538526000809  12.003127531497  23.718989031941 # o*
  144  35   7   0.4238   6.119228949808  12.003127531497  24.533104545191 # h*
  145  35   7   0.4238   6.119228949808  12.003127531497  22.904873518691 # h*
  146  36   6  -0.8476  10.941724861452   8.898335103324  16.979599031941 # o*
  147  36   7   0.4238  11.522427812471   8.898335103324  17.793714545191 # h*
  148  36   7   0.4238  11.522427812471   8.898335103324  16.165483518691 # h*
  149  37   6  -0.8476   8.906125999462  12.003127531497   9.725239031941 # o*
  150  37   7   0.4238   9.486828950481  12.003127531497  10.539354545191 # h*
  151  37   7   0.4238   9.486828950481  12.003127531497   8.911123518691 # h*
  152  38   6  -0.8476   7.319077680971  10.911482513315  11.782880031941 # o*
  153  38   7   0.4238   7.899780629969  10.911482513315  12.596995545191 # h*
  154  38   7   0.4238   7.899780629969  10.911482513315  10.968764518691 # h*
  155  39   6  -0.8476   9.354676542960   7.806690085142  14.917480031941 # o*
  156  39   7   0.4238   9.935379491959   7.806690085142  15.731595545191 # h*
  157  39   7   0.4238   9.935379491959   7.806690085142  14.103364518691 # h*
  158  40   6  -0.8476  10.686402681323  11.023876000501  13.271535156941 # o*
  159  94   7   0.4238   4.531905630995  11.023876000501  14.085650670191 # h*
  160  94   7   0.4238   4.531905630995  11.023876000501  12.457419643691 # h*
  161  41   6  -0.8476  11.926699051195   7.448397037545  13.439460156941 # o*
  162  41   7   0.4238  12.507402002214   7.448397037545  14.253575670191 # h*
  163  41   7   0.4238  12.507402002214   7.448397037545  12.625344643691 # h*
  164  42   6  -0.8476   5.206414044694  11.905637049834  13.355497656941 # o*
  165  42   7   0.4238   5.787116993692  11.905637049834  14.169613170191 # h*
  166  42   7   0.4238   5.787116993692  11.905637049834  12.541382143691 # h*
  167 209   1   2.1000   6.827583002508  14.740933496376   4.260679656941 # st
  168 210   1   2.1000   4.791984139297  17.845725926412  22.441359656941 # st
  169 211   1   2.1000   3.459983001835  14.740933496376  18.254429656941 # st
  170 212   1   2.1000   1.424384138624  17.845725926412   8.447609656941 # st
  171 213   1   2.1000   6.322271030120  17.001222384369   2.270768406941 # st
  172 214   1   2.1000   8.357869892110  13.896429956196  24.431270906941 # st
  173 215   1   2.1000   2.954671031468  17.001222384369  16.264518406941 # st
  174 216   1   2.1000   4.990269893457  13.896429956196  10.437520906941 # st
  175 217   1   2.1000   4.439497910550  18.311444790824   4.257880906941 # st
  176 218   1   2.1000   6.475096773761  15.206652360788  22.444158406941 # st
  177 219   1   2.1000   1.071897909877  18.311444790824  18.251630906941 # st
  178 220   1   2.1000   3.107496773087  15.206652360788   8.450408406941 # st
  179 221   2   1.0500   6.581248691883  14.983107305870   7.338744906941 # cah
  180 222   2   1.0500   4.545649828672  18.087899735906  19.362174906941 # cah
  181 223   2   1.0500   3.213648691209  14.983107305870  21.332494906941 # cah
  182 224   2   1.0500   1.178049827998  18.087899735906   5.368424906941 # cah
  183 225   2   1.0500   3.295727898706  15.001736060447   5.365626156941 # cah
  184 226   2   1.0500   1.260129035495  18.106528490483  21.335293656941 # cah
  185 227   2   1.0500   6.663327897359  15.001736060447  19.359376156941 # cah
  186 228   2   1.0500   4.627729034148  18.106528490483   7.341543656941 # cah
  187 229   2   1.0500   3.888727328103  15.412189618995  13.298962906941 # cah
  188 230   3  -1.0500   6.328348889716  15.523962146453   2.850949281941 # ob
  189 231   3  -1.0500   8.363947751706  12.419169718280  23.852769281941 # ob
  190 232   3  -1.0500   2.960748889043  15.523962146453  16.844699281941 # ob
  191 233   3  -1.0500   4.996347751032  12.419169718280   9.859019281941 # ob
  192 234   3  -1.0500   7.697227354947  13.518266238293   3.673781781941 # ob
  193 235   3  -1.0500   5.661628492957  16.623058666466  23.029936781941 # ob
  194 236   3  -1.0500   4.329627354273  13.518266238293  17.667531781941 # ob
  195 237   3  -1.0500   2.294028492283  16.623058666466   9.036186781941 # ob
  196 238   3  -1.0500   7.638429065241  15.784764710524   5.151521781941 # ob
  197 239   3  -1.0500   9.674027927230  12.679972282351  21.552196781941 # ob
  198 240   3  -1.0500   4.270829064567  15.784764710524  19.145271781941 # ob
  199 241   3  -1.0500   6.306427926557  12.679972282351   7.558446781941 # ob
  200 242   3  -1.0500   5.610661290086  14.213739741861   5.137528031941 # ob
  201 243   3  -1.0500   3.575062426875  17.318532171897  21.566190531941 # ob
  202 244   3  -1.0500   2.243061289412  14.213739741861  19.131278031941 # ob
  203 245   3  -1.0500   0.207462426201  17.318532171897   7.572440531941 # ob
  204 246   3  -1.0500   8.304254693418  13.897050914061  25.996611781941 # ob
  205 247   3  -1.0500   6.268655830207  17.001843344097   0.707106781941 # ob
  206 248   3  -1.0500   4.936654692745  13.897050914061  12.002861781941 # ob
  207 249   3  -1.0500   2.901055829534  17.001843344097  14.700856781941 # ob
  208 250   3  -1.0500   4.958311359944  17.685518637054   2.862424156941 # ob
  209 251   3  -1.0500   6.993910223155  14.580726207018  23.841854156941 # ob
  210 252   3  -1.0500   1.590711361291  17.685518637054  16.856174156941 # ob
  211 253   3  -1.0500   3.626310224502  14.580726207018   9.848104156941 # ob
  212 254   3  -1.0500   3.367599998653  17.461352622408   5.143125531941 # ob
  213 255   3  -1.0500   5.403198860642  14.356560194235  21.560593031941 # ob
  214 256   3  -1.0500   0.000000000000  17.461352622408  19.136875531941 # ob
  215 257   3  -1.0500   2.035598861990  14.356560194235   7.566843031941 # ob
  216 258   3  -1.0500   9.827141480776  12.550191958181   5.149282781941 # ob
  217 259   3  -1.0500   7.791542617565  15.654984388217  21.555555281941 # ob
  218 260   3  -1.0500   6.459541480102  12.550191958181  19.143032781941 # ob
  219 261   3  -1.0500   4.423942616891  15.654984388217   7.561805281941 # ob
  220   5   4  -0.9500   4.325441023400  17.858766054615  16.640950281941 # oh
  221   5   5   0.4250   4.708004580982  17.033074760382  16.226367246316 # ho
  222   6   4  -0.9500   6.361039886611  14.753973624580  10.063887781941 # oh
  223   6   5   0.4250   6.316395486983  13.927967692544   9.501997018066 # ho
  224  43   6  -0.8476   3.502927137598  15.107919961533   2.985849031941 # o*
  225  43   7   0.4238   4.083630086597  15.107919961533   3.799964545191 # h*
  226  43   7   0.4238   4.083630086597  15.107919961533   2.171733518691 # h*
  227  44   6  -0.8476   1.467328274387  18.212712391569  23.718989031941 # o*
  228  44   7   0.4238   2.048031223386  18.212712391569  24.533104545191 # h*
  229  44   7   0.4238   2.048031223386  18.212712391569  22.904873518691 # h*
  230  45   6  -0.8476   6.870527136251  15.107919961533  16.979599031941 # o*
  231  45   7   0.4238   7.451230087270  15.107919961533  17.793714545191 # h*
  232  45   7   0.4238   7.451230087270  15.107919961533  16.165483518691 # h*
  233  46   6  -0.8476   4.834928273040  18.212712391569   9.725239031941 # o*
  234  46   7   0.4238   5.415631224059  18.212712391569  10.539354545191 # h*
  235  46   7   0.4238   5.415631224059  18.212712391569   8.911123518691 # h*
  236  47   6  -0.8476   3.247879954549  17.121067373386  11.782880031941 # o*
  237  47   7   0.4238   3.828582903548  17.121067373386  12.596995545191 # h*
  238  47   7   0.4238   3.828582903548  17.121067373386  10.968764518691 # h*
  239  48   6  -0.8476   5.283478817760  14.016274943351  14.917480031941 # o*
  240  48   7   0.4238   5.864181766758  14.016274943351  15.731595545191 # h*
  241  48   7   0.4238   5.864181766758  14.016274943351  14.103364518691 # h*
  242  49   6  -0.8476   6.615204956123  17.233460858710  13.271535156941 # o*
  243 103   7   0.4238   0.460707905795  17.233460858710  14.085650670191 # h*
  244 103   7   0.4238   0.460707905795  17.233460858710  12.457419643691 # h*
  245  50   6  -0.8476   7.855501324773  13.657981897617  13.439460156941 # o*
  246  50   7   0.4238   8.436204275792  13.657981897617  14.253575670191 # h*
  247  50   7   0.4238   8.436204275792  13.657981897617  12.625344643691 # h*
  248  51   6  -0.8476   1.135216319494  18.115221908043  13.355497656941 # o*
  249  51   7   0.4238   1.715919268492  18.115221908043  14.169613170191 # h*
  250  51   7   0.4238   1.715919268492  18.115221908043  12.541382143691 # h*
  251 262   5   0.4250   9.011361475591  13.897050914061  26.703718563883 # ho
  252 263   5   0.4250   5.561549048034  17.001843344097   0.000000000000 # ho
  253 264   1   2.1000   1.499578453457   2.321763778095   4.260679656941 # st
  254 265   1   2.1000  -0.536020409754   5.426556208131  22.441359656941 # st
  255 266   1   2.1000  18.337578454804   2.321763778095  18.254429656941 # st
  256 267   1   2.1000  16.301979591593   5.426556208131   8.447609656941 # st
  257 268   1   2.1000   0.994266481868   4.582052667951   2.270768406941 # st
  258 269   1   2.1000   3.029865345079   1.477260237916  24.431270906941 # st
  259 270   1   2.1000  -2.373333518805   4.582052667951  16.264518406941 # st
  260 271   1   2.1000  -0.337734655594   1.477260237916  10.437520906941 # st
  261 272   1   2.1000  -0.888506638501   5.892275072544   4.257880906941 # st
  262 273   1   2.1000   1.147092224710   2.787482642508  22.444158406941 # st
  263 274   1   2.1000  15.949493360825   5.892275072544  18.251630906941 # st
  264 275   1   2.1000  17.985092224036   2.787482642508   8.450408406941 # st
  265 276   2   1.0500   1.253244142832   2.563937587590   7.338744906941 # cah
  266 277   2   1.0500  -0.782354720379   5.668730017626  19.362174906941 # cah
  267 278   2   1.0500  18.091244142158   2.563937587590  21.332494906941 # cah
  268 279   2   1.0500  16.055645278947   5.668730017626   5.368424906941 # cah
  269 280   2   1.0500  18.173323349655   2.582566342166   5.365626156941 # cah
  270 281   2   1.0500  16.137724486444   5.687358772202  21.335293656941 # cah
  271 282   2   1.0500   1.335323350328   2.582566342166  19.359376156941 # cah
  272 283   2   1.0500  -0.700275512883   5.687358772202   7.341543656941 # cah
  273 284   2   1.0500  -1.439277220149   2.993019902577  13.298962906941 # cah
  274 285   3  -1.0500   1.000344339443   3.104792430036   2.850949281941 # ob
  275 286   3  -1.0500  -9.177649974168  18.628754576489  23.852769281941 # ob
  276 287   3  -1.0500  17.838344340790   3.104792430036  16.844699281941 # ob
  277 288   3  -1.0500   7.660350027179  18.628754576489   9.859019281941 # ob
  278 289   3  -1.0500   2.369222805895   1.099096520013   3.673781781941 # ob
  279 290   3  -1.0500   0.333623942684   4.203888950049  23.029936781941 # ob
  280 291   3  -1.0500  19.207222805222   1.099096520013  17.667531781941 # ob
  281 292   3  -1.0500  17.171623942011   4.203888950049   9.036186781941 # ob
  282 293   3  -1.0500   2.310424514968   3.365594994107   5.151521781941 # ob
  283 294   3  -1.0500   4.346023378179   0.260802564071  21.552196781941 # ob
  284 295   3  -1.0500  -1.057175483685   3.365594994107  19.145271781941 # ob
  285 296   3  -1.0500   0.978423379526   0.260802564071   7.558446781941 # ob
  286 297   3  -1.0500   0.282656741034   1.794570023581   5.137528031941 # ob
  287 298   3  -1.0500  -1.752942122177   4.899362453617  21.566190531941 # ob
  288 299   3  -1.0500  17.120656740361   1.794570023581  19.131278031941 # ob
  289 300   3  -1.0500  15.085057877150   4.899362453617   7.572440531941 # ob
  290 301   3  -1.0500   2.976250144367   1.477881195781  25.996611781941 # ob
  291 302   3  -1.0500   0.940651281156   4.582673625816   0.707106781941 # ob
  292 303   3  -1.0500  -0.391349854286   1.477881195781  12.002861781941 # ob
  293 304   3  -1.0500  -2.426948717497   4.582673625816  14.700856781941 # ob
  294 305   3  -1.0500  -0.369693187086   5.266348918774   2.862424156941 # ob
  295 306   3  -1.0500   1.665905676124   2.161556488738  23.841854156941 # ob
  296 307   3  -1.0500  16.468306812240   5.266348918774  16.856174156941 # ob
  297 308   3  -1.0500  18.503905675451   2.161556488738   9.848104156941 # ob
  298 309   3  -1.0500  -1.960404549599   5.042182905991   5.143125531941 # ob
  299 310   3  -1.0500   0.075194313612   1.937390475955  21.560593031941 # ob
  300 311   3  -1.0500  14.877595449727   5.042182905991  19.136875531941 # ob
  301 312   3  -1.0500  16.913194312938   1.937390475955   7.566843031941 # ob
  302 313   3  -1.0500   4.499136931725   0.131022239900   5.149282781941 # ob
  303 314   3  -1.0500   2.463538068514   3.235814669936  21.555555281941 # ob
  304 315   3  -1.0500   1.131536931051   0.131022239900  19.143032781941 # ob
  305 316   3  -1.0500  -0.904061932160   3.235814669936   7.561805281941 # ob
  306   7   4  -0.9500  15.835436475696   5.439596336335   2.647200281941 # oh
  307   7   5   0.4250  16.218000030036   4.613905043964   2.232617246316 # ho
  308   8   4  -0.9500  17.871035338906   2.334803906299  24.057637781941 # oh
  309   8   5   0.4250  17.826390939279   1.508797974263  23.495747018066 # ho
  310   9   4  -0.9500  -1.002563523631   5.439596336335  16.640950281941 # oh
  311   9   5   0.4250  -0.619999969291   4.613905043964  16.226367246316 # ho
  312  10   4  -0.9500   1.033035339580   2.334803906299  10.063887781941 # oh
  313  10   5   0.4250   0.988390937932   1.508797974263   9.501997018066 # ho
  314  52   6  -0.8476  18.380522588547   2.688750243252   2.985849031941 # o*
  315  52   7   0.4238  -1.244374462455   2.688750243252   3.799964545191 # h*
  316  52   7   0.4238  -1.244374462455   2.688750243252   2.171733518691 # h*
  317  53   6  -0.8476  16.344923725336   5.793542673288  23.718989031941 # o*
  318  53   7   0.4238  -3.279973325666   5.793542673288  24.533104545191 # h*
  319  53   7   0.4238  -3.279973325666   5.793542673288  22.904873518691 # h*
  320  54   6  -0.8476   1.542522589220   2.688750243252  16.979599031941 # o*
  321  54   7   0.4238   2.123225538219   2.688750243252  17.793714545191 # h*
  322  54   7   0.4238   2.123225538219   2.688750243252  16.165483518691 # h*
  323  55   6  -0.8476  -0.493076273991   5.793542673288   9.725239031941 # o*
  324  55   7   0.4238   0.087626675008   5.793542673288  10.539354545191 # h*
  325  55   7   0.4238   0.087626675008   5.793542673288   8.911123518691 # h*
  326  56   6  -0.8476  -2.080124594502   4.701897655106  11.782880031941 # o*
  327  56   7   0.4238  -1.499421645504   4.701897655106  12.596995545191 # h*
  328  56   7   0.4238  -1.499421645504   4.701897655106  10.968764518691 # h*
  329  57   6  -0.8476  -0.044525731291   1.597105225070  14.917480031941 # o*
  330  57   7   0.4238   0.536177217707   1.597105225070  15.731595545191 # h*
  331  57   7   0.4238   0.536177217707   1.597105225070  14.103364518691 # h*
  332  58   6  -0.8476   1.287200407071   4.814291140430  13.271535156941 # o*
  333  31   7   0.4238  15.338303356743   4.814291140430  14.085650670191 # h*
  334  31   7   0.4238  15.338303356743   4.814291140430  12.457419643691 # h*
  335  59   6  -0.8476   2.527496777743   1.238812179337  13.439460156941 # o*
  336  59   7   0.4238   3.108199726741   1.238812179337  14.253575670191 # h*
  337  59   7   0.4238   3.108199726741   1.238812179337  12.625344643691 # h*
  338  60   6  -0.8476  16.012811769221   5.696052191625  13.355497656941 # o*
  339  60   7   0.4238  -3.612085281781   5.696052191625  14.169613170191 # h*
  340  60   7   0.4238  -3.612085281781   5.696052191625  12.541382143691 # h*
  341 317   5   0.4250   3.683356926540   1.477881195781  26.703718563883 # ho
  342 318   5   0.4250   0.233544501003   4.582673625816   0.000000000000 # ho
  343 319   1   2.1000  -2.571619272965   8.531348638167   4.260679656941 # st
  344 320   1   2.1000  -4.607218134955  11.636141066340  22.441359656941 # st
  345 321   1   2.1000  14.266380728382   8.531348638167  18.254429656941 # st
  346 322   1   2.1000  12.230781866392  11.636141066340   8.447609656941 # st
  347 323   1   2.1000  -6.444531244006  10.791637526160  16.264518406941 # st
  348 324   1   2.1000  -4.408932380795   7.686845096124  10.437520906941 # st
  349 325   1   2.1000  -4.959704363702  12.101859930752   4.257880906941 # st
  350  24   1   2.1000  -2.924105501712   8.997067502579  22.444158406941 # st
  351 326   1   2.1000  11.878295635625  12.101859930752  18.251630906941 # st
  352 327   1   2.1000  13.913894497614   8.997067502579   8.450408406941 # st
  353 328   2   1.0500  -2.817953583590   8.773522447662   7.338744906941 # cah
  354 329   2   1.0500  -4.853552445580  11.878314875834  19.362174906941 # cah
  355 330   2   1.0500  14.020046415736   8.773522447662  21.332494906941 # cah
  356 331   2   1.0500  11.984447553747  11.878314875834   5.368424906941 # cah
  357 332   2   1.0500  14.102125623233   8.792151202238   5.365626156941 # cah
  358 333   2   1.0500  12.066526761243  11.896943630411  21.335293656941 # cah
  359 334   2   1.0500  -2.735874376094   8.792151202238  19.359376156941 # cah
  360 335   2   1.0500  -4.771473238083  11.896943630411   7.341543656941 # cah
  361 336   2   1.0500  -5.510474945349   9.202604760786  13.298962906941 # cah
  362 337   3  -1.0500  -3.070853385757   9.314377288245   2.850949281941 # ob
  363 338   3  -1.0500  -1.035254522546   6.209584858209  23.852769281941 # ob
  364 339   3  -1.0500  13.767146615590   9.314377288245  16.844699281941 # ob
  365 340   3  -1.0500  15.802745478801   6.209584858209   9.859019281941 # ob
  366 341   3  -1.0500  -1.701974919305   7.308681378222   3.673781781941 # ob
  367 342   3  -1.0500  -3.737573782516  10.413473808258  23.029936781941 # ob
  368 343   3  -1.0500  15.136025080021   7.308681378222  17.667531781941 # ob
  369 344   3  -1.0500  13.100426216810  10.413473808258   9.036186781941 # ob
  370 345   3  -1.0500  -1.760773210233   9.575179852315   5.151521781941 # ob
  371 346   3  -1.0500   0.274825652978   6.470387422280  21.552196781941 # ob
  372 347   3  -1.0500  -5.128373208886   9.575179852315  19.145271781941 # ob
  373 348   3  -1.0500  -3.092774345675   6.470387422280   7.558446781941 # ob
  374 349   3  -1.0500  -3.788540985387   8.004154883653   5.137528031941 # ob
  375 350   3  -1.0500  -5.824139847377  11.108947311825  21.566190531941 # ob
  376 351   3  -1.0500  13.049459013939   8.004154883653  19.131278031941 # ob
  377 352   3  -1.0500  11.013860151949  11.108947311825   7.572440531941 # ob
  378 353   3  -1.0500  -4.462547580708   7.687466055852  12.002861781941 # ob
  379 354   3  -1.0500  -6.498146442697  10.792258484025  14.700856781941 # ob
  380 355   3  -1.0500  -4.440890912287  11.475933776982   2.862424156941 # ob
  381 356   3  -1.0500  -2.405292050297   8.371141348809  23.841854156941 # ob
  382 357   3  -1.0500  12.397109087040  11.475933776982  16.856174156941 # ob
  383 358   3  -1.0500  14.432707949029   8.371141348809   9.848104156941 # ob
  384 359   3  -1.0500  -6.031602274800  11.251767764200   5.143125531941 # ob
  385 360   3  -1.0500  -3.996003411589   8.146975334164  21.560593031941 # ob
  386 361   3  -1.0500  10.806397724527  11.251767764200  19.136875531941 # ob
  387 362   3  -1.0500  12.841996587738   8.146975334164   7.566843031941 # ob
  388 363   3  -1.0500   0.427939205303   6.340607099972   5.149282781941 # ob
  389 364   3  -1.0500  -1.607659656687   9.445399528145  21.555555281941 # ob
  390 365   3  -1.0500  -2.939660795371   6.340607099972  19.143032781941 # ob
  391 366   3  -1.0500  -4.975259657360   9.445399528145   7.561805281941 # ob
  392  11   4  -0.9500  -5.073761248831  11.649181194544  16.640950281941 # oh
  393  11   5   0.4250  -4.691197694491  10.823489902173  16.226367246316 # ho
  394  12   4  -0.9500  -3.038162386842   8.544388766371  10.063887781941 # oh
  395  12   5   0.4250  -3.082806787269   7.718382832472   9.501997018066 # ho
  396  61   6  -0.8476  14.309324862125   8.898335103324   2.985849031941 # o*
  397  61   7   0.4238  -5.315572188876   8.898335103324   3.799964545191 # h*
  398  61   7   0.4238  -5.315572188876   8.898335103324   2.171733518691 # h*
  399  62   6  -0.8476  12.273726000136  12.003127531497  23.718989031941 # o*
  400  62   7   0.4238  -7.351171050866  12.003127531497  24.533104545191 # h*
  401  62   7   0.4238  -7.351171050866  12.003127531497  22.904873518691 # h*
  402  63   6  -0.8476  -2.528675137201   8.898335103324  16.979599031941 # o*
  403  63   7   0.4238  -1.947972188203   8.898335103324  17.793714545191 # h*
  404  63   7   0.4238  -1.947972188203   8.898335103324  16.165483518691 # h*
  405  64   6  -0.8476  -4.564273999191  12.003127531497   9.725239031941 # o*
  406  64   7   0.4238  -3.983571050192  12.003127531497  10.539354545191 # h*
  407  64   7   0.4238  -3.983571050192  12.003127531497   8.911123518691 # h*
  408  65   6  -0.8476  -6.151322319703  10.911482513315  11.782880031941 # o*
  409  65   7   0.4238  -5.570619370704  10.911482513315  12.596995545191 # h*
  410  65   7   0.4238  -5.570619370704  10.911482513315  10.968764518691 # h*
  411  66   6  -0.8476  -4.115723457713   7.806690085142  14.917480031941 # o*
  412  66   7   0.4238  -3.535020508715   7.806690085142  15.731595545191 # h*
  413  66   7   0.4238  -3.535020508715   7.806690085142  14.103364518691 # h*
  414  67   6  -0.8476  -2.783997319350  11.023876000501  13.271535156941 # o*
  415  40   7   0.4238  11.267105630322  11.023876000501  14.085650670191 # h*
  416  40   7   0.4238  11.267105630322  11.023876000501  12.457419643691 # h*
  417  68   6  -0.8476  -1.543700947458   7.448397037545  13.439460156941 # o*
  418  68   7   0.4238  -0.962997998459   7.448397037545  14.253575670191 # h*
  419  68   7   0.4238  -0.962997998459   7.448397037545  12.625344643691 # h*
  420  69   6  -0.8476  11.941614044020  11.905637049834  13.355497656941 # o*
  421  69   7   0.4238  -7.683283006981  11.905637049834  14.169613170191 # h*
  422  69   7   0.4238  -7.683283006981  11.905637049834  12.541382143691 # h*
  423 367   1   2.1000  -6.642816998165  14.740933496376   4.260679656941 # st
  424 368   1   2.1000  -8.678415861376  17.845725926412  22.441359656941 # st
  425 369   1   2.1000  10.195183003182  14.740933496376  18.254429656941 # st
  426 370   1   2.1000   8.159584139971  17.845725926412   8.447609656941 # st
  427 371   1   2.1000 -10.515728969206  17.001222384369  16.264518406941 # st
  428 372   1   2.1000  -8.480130107216  13.896429956196  10.437520906941 # st
  429 373   1   2.1000  -9.030902090123  18.311444790824   4.257880906941 # st
  430 374   1   2.1000  -6.995303226913  15.206652360788  22.444158406941 # st
  431 375   1   2.1000   7.807097909203  18.311444790824  18.251630906941 # st
  432 376   1   2.1000   9.842696772414  15.206652360788   8.450408406941 # st
  433 377   2   1.0500  -6.889151308791  14.983107305870   7.338744906941 # cah
  434 378   2   1.0500  -8.924750172002  18.087899735906  19.362174906941 # cah
  435 379   2   1.0500   9.948848690536  14.983107305870  21.332494906941 # cah
  436 380   2   1.0500   7.913249827325  18.087899735906   5.368424906941 # cah
  437 381   2   1.0500  10.030927898033  15.001736060447   5.365626156941 # cah
  438 382   2   1.0500   7.995329034822  18.106528490483  21.335293656941 # cah
  439 383   2   1.0500  -6.807072101294  15.001736060447  19.359376156941 # cah
  440 384   2   1.0500  -8.842670964505  18.106528490483   7.341543656941 # cah
  441 385   2   1.0500  -9.581672670550  15.412189618995  13.298962906941 # cah
  442 386   3  -1.0500  -7.142051110957  15.523962146453   2.850949281941 # ob
  443 387   3  -1.0500  -5.106452248968  12.419169718280  23.852769281941 # ob
  444 388   3  -1.0500   9.695948890390  15.523962146453  16.844699281941 # ob
  445 389   3  -1.0500  11.731547752379  12.419169718280   9.859019281941 # ob
  446 390   3  -1.0500  -5.773172645727  13.518266238293   3.673781781941 # ob
  447 391   3  -1.0500  -7.808771507717  16.623058666466  23.029936781941 # ob
  448 392   3  -1.0500  11.064827353600  13.518266238293  17.667531781941 # ob
  449 393   3  -1.0500   9.029228491610  16.623058666466   9.036186781941 # ob
  450 394   3  -1.0500  -5.831970935433  15.784764710524   5.151521781941 # ob
  451 395   3  -1.0500  -3.796372073443  12.679972282351  21.552196781941 # ob
  452 396   3  -1.0500  -9.199570934086  15.784764710524  19.145271781941 # ob
  453 397   3  -1.0500  -7.163972072096  12.679972282351   7.558446781941 # ob
  454 398   3  -1.0500  -7.859738710588  14.213739741861   5.137528031941 # ob
  455 399   3  -1.0500  -9.895337573799  17.318532171897  21.566190531941 # ob
  456 400   3  -1.0500   8.978261288739  14.213739741861  19.131278031941 # ob
  457 401   3  -1.0500   6.942662425528  17.318532171897   7.572440531941 # ob
  458 402   3  -1.0500  -8.533745305908  13.897050914061  12.002861781941 # ob
  459 403   3  -1.0500 -10.569344169119  17.001843344097  14.700856781941 # ob
  460 404   3  -1.0500  -8.512088638709  17.685518637054   2.862424156941 # ob
  461 405   3  -1.0500  -6.476489775498  14.580726207018  23.841854156941 # ob
  462 406   3  -1.0500   8.325911360618  17.685518637054  16.856174156941 # ob
  463 407   3  -1.0500  10.361510223829  14.580726207018   9.848104156941 # ob
  464 408   3  -1.0500 -10.102800000000  17.461352622408   5.143125531941 # ob
  465 409   3  -1.0500  -8.067201138010  14.356560194235  21.560593031941 # ob
  466 410   3  -1.0500   6.735199999326  17.461352622408  19.136875531941 # ob
  467 411   3  -1.0500   8.770798861316  14.356560194235   7.566843031941 # ob
  468 412   3  -1.0500  -3.643258519898  12.550191958181   5.149282781941 # ob
  469 413   3  -1.0500  -5.678857383109  15.654984388217  21.555555281941 # ob
  470 414   3  -1.0500  -7.010858520571  12.550191958181  19.143032781941 # ob
  471 415   3  -1.0500  -9.046457383782  15.654984388217   7.561805281941 # ob
  472  13   4  -0.9500   7.693041024073  17.858766054615   2.647200281941 # oh
  473  13   5   0.4250   8.075604579635  17.033074760382   2.232617246316 # ho
  474  14   4  -0.9500   9.728639887284  14.753973624580  24.057637781941 # oh
  475  14   5   0.4250   9.683995487656  13.927967692544  23.495747018066 # ho
  476  15   4  -0.9500  -9.144958975253  17.858766054615  16.640950281941 # oh
  477  15   5   0.4250  -8.762395419691  17.033074760382  16.226367246316 # ho
  478  16   4  -0.9500  -7.109360112042  14.753973624580  10.063887781941 # oh
  479  16   5   0.4250  -7.154004513691  13.927967692544   9.501997018066 # ho
  480  70   6  -0.8476  10.238127136925  15.107919961533   2.985849031941 # o*
  481  70   7   0.4238  -9.386769914077  15.107919961533   3.799964545191 # h*
  482  70   7   0.4238  -9.386769914077  15.107919961533   2.171733518691 # h*
  483  71   6  -0.8476   8.202528273714  18.212712391569  23.718989031941 # o*
  484  71   7   0.4238 -11.422368777288  18.212712391569  24.533104545191 # h*
  485  71   7   0.4238 -11.422368777288  18.212712391569  22.904873518691 # h*
  486  72   6  -0.8476  -6.599872862402  15.107919961533  16.979599031941 # o*
  487  72   7   0.4238  -6.019169913403  15.107919961533  17.793714545191 # h*
  488  72   7   0.4238  -6.019169913403  15.107919961533  16.165483518691 # h*
  489  73   6  -0.8476  -8.635471725613  18.212712391569   9.725239031941 # o*
  490  73   7   0.4238  -8.054768776614  18.212712391569  10.539354545191 # h*
  491  73   7   0.4238  -8.054768776614  18.212712391569   8.911123518691 # h*
  492  74   6  -0.8476 -10.222520046124  17.121067373386  11.782880031941 # o*
  493  74   7   0.4238  -9.641817097126  17.121067373386  12.596995545191 # h*
  494  74   7   0.4238  -9.641817097126  17.121067373386  10.968764518691 # h*
  495  75   6  -0.8476  -8.186921182914  14.016274943351  14.917480031941 # o*
  496  75   7   0.4238  -7.606218233915  14.016274943351  15.731595545191 # h*
  497  75   7   0.4238  -7.606218233915  14.016274943351  14.103364518691 # h*
  498  76   6  -0.8476  -6.855195044551  17.233460858710  13.271535156941 # o*
  499  49   7   0.4238   7.195907905121  17.233460858710  14.085650670191 # h*
  500  49   7   0.4238   7.195907905121  17.233460858710  12.457419643691 # h*
  501  77   6  -0.8476  -5.614898673880  13.657981897617  13.439460156941 # o*
  502  77   7   0.4238  -5.034195724881  13.657981897617  14.253575670191 # h*
  503  77   7   0.4238  -5.034195724881  13.657981897617  12.625344643691 # h*
  504  78   6  -0.8476   7.870416318820  18.115221908043  13.355497656941 # o*
  505  78   7   0.4238 -11.754480732182  18.115221908043  14.169613170191 # h*
  506  78   7   0.4238 -11.754480732182  18.115221908043  12.541382143691 # h*
  507 416   1   2.1000   8.234778454804   2.321763778095   4.260679656941 # st
  508 417   1   2.1000   6.199179591593   5.426556208131  22.441359656941 # st
  509 418   1   2.1000   4.867178454130   2.321763778095  18.254429656941 # st
  510 419   1   2.1000   2.831579590919   5.426556208131   8.447609656941 # st
  511 420   1   2.1000   4.361866480521   4.582052667951  16.264518406941 # st
  512 421   1   2.1000   6.397465343732   1.477260237916  10.437520906941 # st
  513 422   1   2.1000   5.846693360825   5.892275072544   4.257880906941 # st
  514 423   1   2.1000   7.882292224036   2.787482642508  22.444158406941 # st
  515 424   1   2.1000   2.479093362172   5.892275072544  18.251630906941 # st
  516 425   1   2.1000   4.514692225383   2.787482642508   8.450408406941 # st
  517 426   2   1.0500   7.988444142158   2.563937587590   7.338744906941 # cah
  518 427   2   1.0500   5.952845278947   5.668730017626  19.362174906941 # cah
  519 428   2   1.0500   4.620844143505   2.563937587590  21.332494906941 # cah
  520 429   2   1.0500   2.585245280294   5.668730017626   5.368424906941 # cah
  521 430   2   1.0500   4.702923348981   2.582566342166   5.365626156941 # cah
  522 431   2   1.0500   2.667324485770   5.687358772202  21.335293656941 # cah
  523 432   2   1.0500   8.070523349655   2.582566342166  19.359376156941 # cah
  524 433   2   1.0500   6.034924486444   5.687358772202   7.341543656941 # cah
  525 434   2   1.0500   5.295922779178   2.993019902577  13.298962906941 # cah
  526 435   3  -1.0500   7.735544340790   3.104792430036   2.850949281941 # ob
  527 436   3  -1.0500  -2.442449972821  18.628754576489  23.852769281941 # ob
  528 437   3  -1.0500   4.367944340117   3.104792430036  16.844699281941 # ob
  529 438   3  -1.0500  -5.810049973495  18.628754576489   9.859019281941 # ob
  530 439   3  -1.0500   9.104422805222   1.099096520013   3.673781781941 # ob
  531 440   3  -1.0500   7.068823942011   4.203888950049  23.029936781941 # ob
  532 441   3  -1.0500   5.736822806569   1.099096520013  17.667531781941 # ob
  533 442   3  -1.0500   3.701223943358   4.203888950049   9.036186781941 # ob
  534 443   3  -1.0500   9.045624516315   3.365594994107   5.151521781941 # ob
  535 444   3  -1.0500  11.081223379526   0.260802564071  21.552196781941 # ob
  536 445   3  -1.0500   5.678024515641   3.365594994107  19.145271781941 # ob
  537 446   3  -1.0500   7.713623378852   0.260802564071   7.558446781941 # ob
  538 447   3  -1.0500   7.017856740361   1.794570023581   5.137528031941 # ob
  539 448   3  -1.0500   4.982257877150   4.899362453617  21.566190531941 # ob
  540 449   3  -1.0500   3.650256741708   1.794570023581  19.131278031941 # ob
  541 450   3  -1.0500   1.614657878497   4.899362453617   7.572440531941 # ob
  542 451   3  -1.0500   6.343850145040   1.477881195781  12.002861781941 # ob
  543 452   3  -1.0500   4.308251281829   4.582673625816  14.700856781941 # ob
  544 453   3  -1.0500   6.365506812240   5.266348918774   2.862424156941 # ob
  545 454   3  -1.0500   8.401105675451   2.161556488738  23.841854156941 # ob
  546 455   3  -1.0500   2.997906811567   5.266348918774  16.856174156941 # ob
  547 456   3  -1.0500   5.033505674777   2.161556488738   9.848104156941 # ob
  548 457   3  -1.0500   4.774795449727   5.042182905991   5.143125531941 # ob
  549 458   3  -1.0500   6.810394312938   1.937390475955  21.560593031941 # ob
  550 459   3  -1.0500   1.407195449054   5.042182905991  19.136875531941 # ob
  551 460   3  -1.0500   3.442794312265   1.937390475955   7.566843031941 # ob
  552 461   3  -1.0500  11.234336931051   0.131022239900   5.149282781941 # ob
  553 462   3  -1.0500   9.198738067840   3.235814669936  21.555555281941 # ob
  554 463   3  -1.0500   7.866736932398   0.131022239900  19.143032781941 # ob
  555 464   3  -1.0500   5.831138069187   3.235814669936   7.561805281941 # ob
  556  17   4  -0.9500   2.365036475022   5.439596336335   2.647200281941 # oh
  557  17   5   0.4250   2.747600031383   4.613905043964   2.232617246316 # ho
  558  18   4  -0.9500   4.400635338233   2.334803906299  24.057637781941 # oh
  559  18   5   0.4250   4.355990938605   1.508797974263  23.495747018066 # ho
  560  19   4  -0.9500   5.732636475696   5.439596336335  16.640950281941 # oh
  561  19   5   0.4250   6.115200030036   4.613905043964  16.226367246316 # ho
  562  20   4  -0.9500   7.768235338906   2.334803906299  10.063887781941 # oh
  563  20   5   0.4250   7.723590939279   1.508797974263   9.501997018066 # ho
  564  79   6  -0.8476   4.910122587873   2.688750243252   2.985849031941 # o*
  565  79   7   0.4238   5.490825538892   2.688750243252   3.799964545191 # h*
  566  79   7   0.4238   5.490825538892   2.688750243252   2.171733518691 # h*
  567  80   6  -0.8476   2.874523724662   5.793542673288  23.718989031941 # o*
  568  80   7   0.4238   3.455226675681   5.793542673288  24.533104545191 # h*
  569  80   7   0.4238   3.455226675681   5.793542673288  22.904873518691 # h*
  570  81   6  -0.8476   8.277722588547   2.688750243252  16.979599031941 # o*
  571  81   7   0.4238   8.858425537545   2.688750243252  17.793714545191 # h*
  572  81   7   0.4238   8.858425537545   2.688750243252  16.165483518691 # h*
  573  82   6  -0.8476   6.242123725336   5.793542673288   9.725239031941 # o*
  574  82   7   0.4238   6.822826674334   5.793542673288  10.539354545191 # h*
  575  82   7   0.4238   6.822826674334   5.793542673288   8.911123518691 # h*
  576  83   6  -0.8476   4.655075404824   4.701897655106  11.782880031941 # o*
  577  83   7   0.4238   5.235778355843   4.701897655106  12.596995545191 # h*
  578  83   7   0.4238   5.235778355843   4.701897655106  10.968764518691 # h*
  579  84   6  -0.8476   6.690674268035   1.597105225070  14.917480031941 # o*
  580  84   7   0.4238   7.271377219054   1.597105225070  15.731595545191 # h*
  581  84   7   0.4238   7.271377219054   1.597105225070  14.103364518691 # h*
  582  85   6  -0.8476   8.022400406398   4.814291140430  13.271535156941 # o*
  583  58   7   0.4238   1.867903356070   4.814291140430  14.085650670191 # h*
  584  58   7   0.4238   1.867903356070   4.814291140430  12.457419643691 # h*
  585  86   6  -0.8476   9.262696777069   1.238812179337  13.439460156941 # o*
  586  86   7   0.4238   9.843399726068   1.238812179337  14.253575670191 # h*
  587  86   7   0.4238   9.843399726068   1.238812179337  12.625344643691 # h*
  588  87   6  -0.8476   2.542411768547   5.696052191625  13.355497656941 # o*
  589  87   7   0.4238   3.123114719566   5.696052191625  14.169613170191 # h*
  590  87   7   0.4238   3.123114719566   5.696052191625  12.541382143691 # h*
  591 465   1   2.1000   4.163580728382   8.531348638167   4.260679656941 # st
  592 466   1   2.1000   2.127981866392  11.636141066340  22.441359656941 # st
  593 467   1   2.1000   0.795980727708   8.531348638167  18.254429656941 # st
  594 468   1   2.1000  -1.239618134281  11.636141066340   8.447609656941 # st
  595 469   1   2.1000   0.290668755321  10.791637526160  16.264518406941 # st
  596 470   1   2.1000   2.326267618532   7.686845096124  10.437520906941 # st
  597 471   1   2.1000   1.775495635625  12.101859930752   4.257880906941 # st
  598 472   1   2.1000   3.811094497614   8.997067502579  22.444158406941 # st
  599 473   1   2.1000  -1.592104363028  12.101859930752  18.251630906941 # st
  600 474   1   2.1000   0.443494498961   8.997067502579   8.450408406941 # st
  601 475   2   1.0500   3.917246415736   8.773522447662   7.338744906941 # cah
  602 476   2   1.0500   1.881647553747  11.878314875834  19.362174906941 # cah
  603 477   2   1.0500   0.549646417083   8.773522447662  21.332494906941 # cah
  604 478   2   1.0500  -1.485952444906  11.878314875834   5.368424906941 # cah
  605 479   2   1.0500   0.631725622559   8.792151202238   5.365626156941 # cah
  606 480   2   1.0500  -1.403873239430  11.896943630411  21.335293656941 # cah
  607 481   2   1.0500   3.999325623233   8.792151202238  19.359376156941 # cah
  608 482   2   1.0500   1.963726761243  11.896943630411   7.341543656941 # cah
  609 483   2   1.0500   1.224725053977   9.202604760786  13.298962906941 # cah
  610 484   3  -1.0500   3.664346615590   9.314377288245   2.850949281941 # ob
  611 485   3  -1.0500   5.699945478801   6.209584858209  23.852769281941 # ob
  612 486   3  -1.0500   0.296746614916   9.314377288245  16.844699281941 # ob
  613 487   3  -1.0500   2.332345478127   6.209584858209   9.859019281941 # ob
  614 488   3  -1.0500   5.033225080021   7.308681378222   3.673781781941 # ob
  615 489   3  -1.0500   2.997626216810  10.413473808258  23.029936781941 # ob
  616 490   3  -1.0500   1.665625081368   7.308681378222  17.667531781941 # ob
  617 491   3  -1.0500  -0.369973781843  10.413473808258   9.036186781941 # ob
  618 492   3  -1.0500   4.974426791114   9.575179852315   5.151521781941 # ob
  619 493   3  -1.0500   7.010025654325   6.470387422280  21.552196781941 # ob
  620 494   3  -1.0500   1.606826790441   9.575179852315  19.145271781941 # ob
  621 495   3  -1.0500   3.642425653652   6.470387422280   7.558446781941 # ob
  622 496   3  -1.0500   2.946659013939   8.004154883653   5.137528031941 # ob
  623 497   3  -1.0500   0.911060151949  11.108947311825  21.566190531941 # ob
  624 498   3  -1.0500  -0.420940984714   8.004154883653  19.131278031941 # ob
  625 499   3  -1.0500  -2.456539846703  11.108947311825   7.572440531941 # ob
  626 500   3  -1.0500   2.272652418619   7.687466055852  12.002861781941 # ob
  627 501   3  -1.0500   0.237053556629  10.792258484025  14.700856781941 # ob
  628 502   3  -1.0500   2.294309087040  11.475933776982   2.862424156941 # ob
  629 503   3  -1.0500   4.329907949029   8.371141348809  23.841854156941 # ob
  630 504   3  -1.0500  -1.073290913634  11.475933776982  16.856174156941 # ob
  631 505   3  -1.0500   0.962307948356   8.371141348809   9.848104156941 # ob
  632 506   3  -1.0500   0.703597724527  11.251767764200   5.143125531941 # ob
  633 507   3  -1.0500   2.739196587738   8.146975334164  21.560593031941 # ob
  634 508   3  -1.0500  -2.664002276147  11.251767764200  19.136875531941 # ob
  635 509   3  -1.0500  -0.628403412936   8.146975334164   7.566843031941 # ob
  636 510   3  -1.0500   7.163139204629   6.340607099972   5.149282781941 # ob
  637 511   3  -1.0500   5.127540342640   9.445399528145  21.555555281941 # ob
  638 512   3  -1.0500   3.795539205976   6.340607099972  19.143032781941 # ob
  639 513   3  -1.0500   1.759940343987   9.445399528145   7.561805281941 # ob
  640  21   4  -0.9500   1.661438750495  11.649181194544  16.640950281941 # oh
  641  21   5   0.4250   2.044002304836  10.823489902173  16.226367246316 # ho
  642  22   4  -0.9500   3.697037612485   8.544388766371  10.063887781941 # oh
  643  22   5   0.4250   3.652393214078   7.718382832472   9.501997018066 # ho
  644  88   6  -0.8476   0.838924861452   8.898335103324   2.985849031941 # o*
  645  88   7   0.4238   1.419627812471   8.898335103324   3.799964545191 # h*
  646  88   7   0.4238   1.419627812471   8.898335103324   2.171733518691 # h*
  647  89   6  -0.8476  -1.196674000538  12.003127531497  23.718989031941 # o*
  648  89   7   0.4238  -0.615971049519  12.003127531497  24.533104545191 # h*
  649  89   7   0.4238  -0.615971049519  12.003127531497  22.904873518691 # h*
  650  90   6  -0.8476   4.206524862125   8.898335103324  16.979599031941 # o*
  651  90   7   0.4238   4.787227811124   8.898335103324  17.793714545191 # h*
  652  90   7   0.4238   4.787227811124   8.898335103324  16.165483518691 # h*
  653  91   6  -0.8476   2.170926000136  12.003127531497   9.725239031941 # o*
  654  91   7   0.4238   2.751628949134  12.003127531497  10.539354545191 # h*
  655  91   7   0.4238   2.751628949134  12.003127531497   8.911123518691 # h*
  656  92   6  -0.8476   0.583877679624  10.911482513315  11.782880031941 # o*
  657  92   7   0.4238   1.164580630643  10.911482513315  12.596995545191 # h*
  658  92   7   0.4238   1.164580630643  10.911482513315  10.968764518691 # h*
  659  93   6  -0.8476   2.619476541613   7.806690085142  14.917480031941 # o*
  660  93   7   0.4238   3.200179492632   7.806690085142  15.731595545191 # h*
  661  93   7   0.4238   3.200179492632   7.806690085142  14.103364518691 # h*
  662  94   6  -0.8476   3.951202679976  11.023876000501  13.271535156941 # o*
  663  67   7   0.4238  -2.203294370352  11.023876000501  14.085650670191 # h*
  664  67   7   0.4238  -2.203294370352  11.023876000501  12.457419643691 # h*
  665  95   6  -0.8476   5.191499051869   7.448397037545  13.439460156941 # o*
  666  95   7   0.4238   5.772202000867   7.448397037545  14.253575670191 # h*
  667  95   7   0.4238   5.772202000867   7.448397037545  12.625344643691 # h*
  668  96   6  -0.8476  -1.528785956653  11.905637049834  13.355497656941 # o*
  669  96   7   0.4238  -0.948083005634  11.905637049834  14.169613170191 # h*
  670  96   7   0.4238  -0.948083005634  11.905637049834  12.541382143691 # h*
  671 514   1   2.1000   0.092383003182  14.740933496376   4.260679656941 # st
  672 515   1   2.1000  -1.943215860029  17.845725926412  22.441359656941 # st
  673 516   1   2.1000  -3.275216997492  14.740933496376  18.254429656941 # st
  674 517   1   2.1000  -5.310815860703  17.845725926412   8.447609656941 # st
  675 518   1   2.1000  -3.780528969880  17.001222384369  16.264518406941 # st
  676 519   1   2.1000  -1.744930107890  13.896429956196  10.437520906941 # st
  677 520   1   2.1000  -2.295702090797  18.311444790824   4.257880906941 # st
  678 521   1   2.1000  -0.260103227586  15.206652360788  22.444158406941 # st
  679 522   1   2.1000  -5.663302089450  18.311444790824  18.251630906941 # st
  680 523   1   2.1000  -3.627703226239  15.206652360788   8.450408406941 # st
  681 524   2   1.0500  -0.153951309464  14.983107305870   7.338744906941 # cah
  682 525   2   1.0500  -2.189550172675  18.087899735906  19.362174906941 # cah
  683 526   2   1.0500  -3.521551308117  14.983107305870  21.332494906941 # cah
  684 527   2   1.0500  -5.557150171328  18.087899735906   5.368424906941 # cah
  685 528   2   1.0500  -3.439472102641  15.001736060447   5.365626156941 # cah
  686 529   2   1.0500  -5.475070965852  18.106528490483  21.335293656941 # cah
  687 530   2   1.0500  -0.071872101967  15.001736060447  19.359376156941 # cah
  688 531   2   1.0500  -2.107470965178  18.106528490483   7.341543656941 # cah
  689 532   2   1.0500  -2.846472671223  15.412189618995  13.298962906941 # cah
  690 533   3  -1.0500  -0.406851109610  15.523962146453   2.850949281941 # ob
  691 534   3  -1.0500   1.628747752379  12.419169718280  23.852769281941 # ob
  692 535   3  -1.0500  -3.774451110284  15.523962146453  16.844699281941 # ob
  693 536   3  -1.0500  -1.738852248294  12.419169718280   9.859019281941 # ob
  694 537   3  -1.0500   0.962027353600  13.518266238293   3.673781781941 # ob
  695 538   3  -1.0500  -1.073571508390  16.623058666466  23.029936781941 # ob
  696 539   3  -1.0500  -2.405572645053  13.518266238293  17.667531781941 # ob
  697 540   3  -1.0500  -4.441171507043  16.623058666466   9.036186781941 # ob
  698 541   3  -1.0500   0.903229065914  15.784764710524   5.151521781941 # ob
  699 542   3  -1.0500   2.938827927904  12.679972282351  21.552196781941 # ob
  700 543   3  -1.0500  -2.464370934759  15.784764710524  19.145271781941 # ob
  701 544   3  -1.0500  -0.428772072770  12.679972282351   7.558446781941 # ob
  702 545   3  -1.0500  -1.124538711261  14.213739741861   5.137528031941 # ob
  703 546   3  -1.0500  -3.160137574472  17.318532171897  21.566190531941 # ob
  704 547   3  -1.0500  -4.492138709914  14.213739741861  19.131278031941 # ob
  705 548   3  -1.0500  -6.527737573125  17.318532171897   7.572440531941 # ob
  706 549   3  -1.0500  -1.798545306582  13.897050914061  12.002861781941 # ob
  707 550   3  -1.0500  -3.834144169793  17.001843344097  14.700856781941 # ob
  708 551   3  -1.0500  -1.776888639382  17.685518637054   2.862424156941 # ob
  709 552   3  -1.0500   0.258710223829  14.580726207018  23.841854156941 # ob
  710 553   3  -1.0500  -5.144488640056  17.685518637054  16.856174156941 # ob
  711 554   3  -1.0500  -3.108889776845  14.580726207018   9.848104156941 # ob
  712 555   3  -1.0500  -3.367600000674  17.461352622408   5.143125531941 # ob
  713 556   3  -1.0500  -1.332001138684  14.356560194235  21.560593031941 # ob
  714 557   3  -1.0500  -6.735200001347  17.461352622408  19.136875531941 # ob
  715 558   3  -1.0500  -4.699601139358  14.356560194235   7.566843031941 # ob
  716 559   3  -1.0500   3.091941479429  12.550191958181   5.149282781941 # ob
  717 560   3  -1.0500   1.056342616218  15.654984388217  21.555555281941 # ob
  718 561   3  -1.0500  -0.275658519224  12.550191958181  19.143032781941 # ob
  719 562   3  -1.0500  -2.311257382435  15.654984388217   7.561805281941 # ob
  720  23   4  -0.9500  -2.409758975927  17.858766054615  16.640950281941 # oh
  721  23   5   0.4250  -2.027195420365  17.033074760382  16.226367246316 # ho
  722  24   4  -0.9500  -0.374160112716  14.753973624580  10.063887781941 # oh
  723  24   5   0.4250  -0.418804512344  13.927967692544   9.501997018066 # ho
  724  97   6  -0.8476  -3.232272863749  15.107919961533   2.985849031941 # o*
  725  97   7   0.4238  -2.651569912730  15.107919961533   3.799964545191 # h*
  726  97   7   0.4238  -2.651569912730  15.107919961533   2.171733518691 # h*
  727  98   6  -0.8476  -5.267871726960  18.212712391569  23.718989031941 # o*
  728  98   7   0.4238  -4.687168775941  18.212712391569  24.533104545191 # h*
  729  98   7   0.4238  -4.687168775941  18.212712391569  22.904873518691 # h*
  730  99   6  -0.8476   0.135327136925  15.107919961533  16.979599031941 # o*
  731  99   7   0.4238   0.716030085923  15.107919961533  17.793714545191 # h*
  732  99   7   0.4238   0.716030085923  15.107919961533  16.165483518691 # h*
  733 100   6  -0.8476  -1.900271726286  18.212712391569   9.725239031941 # o*
  734 100   7   0.4238  -1.319568777288  18.212712391569  10.539354545191 # h*
  735 100   7   0.4238  -1.319568777288  18.212712391569   8.911123518691 # h*
  736 101   6  -0.8476  -3.487320046798  17.121067373386  11.782880031941 # o*
  737 101   7   0.4238  -2.906617095779  17.121067373386  12.596995545191 # h*
  738 101   7   0.4238  -2.906617095779  17.121067373386  10.968764518691 # h*
  739 102   6  -0.8476  -1.451721183587  14.016274943351  14.917480031941 # o*
  740 102   7   0.4238  -0.871018232568  14.016274943351  15.731595545191 # h*
  741 102   7   0.4238  -0.871018232568  14.016274943351  14.103364518691 # h*
  742 103   6  -0.8476  -0.119995045224  17.233460858710  13.271535156941 # o*
  743  76   7   0.4238  -6.274492095552  17.233460858710  14.085650670191 # h*
  744  76   7   0.4238  -6.274492095552  17.233460858710  12.457419643691 # h*
  745 104   6  -0.8476   1.120301325447  13.657981897617  13.439460156941 # o*
  746 104   7   0.4238   1.701004274445  13.657981897617  14.253575670191 # h*
  747 104   7   0.4238   1.701004274445  13.657981897617  12.625344643691 # h*
  748 105   6  -0.8476  -5.599983681854  18.115221908043  13.355497656941 # o*
  749 105   7   0.4238  -5.019280730834  18.115221908043  14.169613170191 # h*
  750 105   7   0.4238  -5.019280730834  18.115221908043  12.541382143691 # h*
  751 563   5   0.4250  13.142252260301   6.209584858209  24.559876063883 # ho
  752 564   5   0.4250  11.772214730529   8.371141348809  24.548960938882 # ho
  753 565   5   0.4250  -0.328147740373   6.209584858209  24.559876063883 # ho
  754 566   5   0.4250  -1.698185268124   8.371141348809  24.548960938882 # ho
  755 567   5   0.4250  -4.399345466795  12.419169718280  24.559876063883 # ho
  756 568   5   0.4250  -5.769382993325  14.580726207018  24.548960938882 # ho
  757 569   5   0.4250  -1.735343190648  18.628754576489  24.559876063883 # ho
  758 570   5   0.4250   9.108212457624   2.161556488738  24.548960938882 # ho
  759 571   5   0.4250   6.407052260974   6.209584858209  24.559876063883 # ho
  760 572   5   0.4250   5.037014731202   8.371141348809  24.548960938882 # ho
  761 573   5   0.4250   2.335854534552  12.419169718280  24.559876063883 # ho
  762 574   5   0.4250   0.965817006002  14.580726207018  24.548960938882 # ho
  763 575   5   0.4250   9.692439832743   9.314377288245   2.143842500000 # ho
  764 576   5   0.4250   8.322402304193  11.475933776982   2.155317375000 # ho
  765 577   5   0.4250  -3.777960167930   9.314377288245   2.143842500000 # ho
  766 578   5   0.4250  -5.147997694460  11.475933776982   2.155317375000 # ho
  767 579   5   0.4250  -7.849157893131  15.523962146453   2.143842500000 # ho
  768 580   5   0.4250  -9.219195420882  17.685518637054   2.155317375000 # ho
  769 581   5   0.4250   7.028437558617   3.104792430036   2.143842500000 # ho
  770 582   5   0.4250   5.658400030067   5.266348918774   2.155317375000 # ho
  771 583   5   0.4250   2.957239833417   9.314377288245   2.143842500000 # ho
  772 584   5   0.4250   1.587202304866  11.475933776982   2.155317375000 # ho
  773 585   5   0.4250  -1.113957891784  15.523962146453   2.143842500000 # ho
  774 586   5   0.4250  -2.483995421555  17.685518637054   2.155317375000 # ho

Bonds

    1   1    54    55 # oh-ho
    2   1    56    57 # oh-ho
    3   1   136   137 # oh-ho
    4   1   138   139 # oh-ho
    5   1   220   221 # oh-ho
    6   1   222   223 # oh-ho
    7   1   306   307 # oh-ho
    8   1   308   309 # oh-ho
    9   1   310   311 # oh-ho
   10   1   312   313 # oh-ho
   11   1   392   393 # oh-ho
   12   1   394   395 # oh-ho
   13   1   472   473 # oh-ho
   14   1   474   475 # oh-ho
   15   1   476   477 # oh-ho
   16   1   478   479 # oh-ho
   17   1   556   557 # oh-ho
   18   1   558   559 # oh-ho
   19   1   560   561 # oh-ho
   20   1   562   563 # oh-ho
   21   1   640   641 # oh-ho
   22   1   642   643 # oh-ho
   23   1   720   721 # oh-ho
   24   1   722   723 # oh-ho
   25   2    58    59 # o*-h*
   26   2    58    60 # o*-h*
   27   2    61    62 # o*-h*
   28   2    61    63 # o*-h*
   29   2    64    65 # o*-h*
   30   2    64    66 # o*-h*
   31   2    67    68 # o*-h*
   32   2    67    69 # o*-h*
   33   2    70    71 # o*-h*
   34   2    70    72 # o*-h*
   35   2    73    74 # o*-h*
   36   2    73    75 # o*-h*
   37   2    76   333 # o*-h*
   38   2    76   334 # o*-h*
   39   2    79    80 # o*-h*
   40   2    79    81 # o*-h*
   41   2    82    83 # o*-h*
   42   2    82    84 # o*-h*
   43   2   140   141 # o*-h*
   44   2   140   142 # o*-h*
   45   2   143   144 # o*-h*
   46   2   143   145 # o*-h*
   47   2   146   147 # o*-h*
   48   2   146   148 # o*-h*
   49   2   149   150 # o*-h*
   50   2   149   151 # o*-h*
   51   2   152   153 # o*-h*
   52   2   152   154 # o*-h*
   53   2   155   156 # o*-h*
   54   2   155   157 # o*-h*
   55   2   158   415 # o*-h*
   56   2   158   416 # o*-h*
   57   2   161   162 # o*-h*
   58   2   161   163 # o*-h*
   59   2   164   165 # o*-h*
   60   2   164   166 # o*-h*
   61   2   224   225 # o*-h*
   62   2   224   226 # o*-h*
   63   2   227   228 # o*-h*
   64   2   227   229 # o*-h*
   65   2   230   231 # o*-h*
   66   2   230   232 # o*-h*
   67   2   233   234 # o*-h*
   68   2   233   235 # o*-h*
   69   2   236   237 # o*-h*
   70   2   236   238 # o*-h*
   71   2   239   240 # o*-h*
   72   2   239   241 # o*-h*
   73   2   242   499 # o*-h*
   74   2   242   500 # o*-h*
   75   2   245   246 # o*-h*
   76   2   245   247 # o*-h*
   77   2   248   249 # o*-h*
   78   2   248   250 # o*-h*
   79   2   314   315 # o*-h*
   80   2   314   316 # o*-h*
   81   2   317   318 # o*-h*
   82   2   317   319 # o*-h*
   83   2   320   321 # o*-h*
   84   2   320   322 # o*-h*
   85   2   323   324 # o*-h*
   86   2   323   325 # o*-h*
   87   2   326   327 # o*-h*
   88   2   326   328 # o*-h*
   89   2   329   330 # o*-h*
   90   2   329   331 # o*-h*
   91   2   332   583 # o*-h*
   92   2   332   584 # o*-h*
   93   2   335   336 # o*-h*
   94   2   335   337 # o*-h*
   95   2   338   339 # o*-h*
   96   2   338   340 # o*-h*
   97   2   396   397 # o*-h*
   98   2   396   398 # o*-h*
   99   2   399   400 # o*-h*
  100   2   399   401 # o*-h*
  101   2   402   403 # o*-h*
  102   2   402   404 # o*-h*
  103   2   405   406 # o*-h*
  104   2   405   407 # o*-h*
  105   2   408   409 # o*-h*
  106   2   408   410 # o*-h*
  107   2   411   412 # o*-h*
  108   2   411   413 # o*-h*
  109   2   414   663 # o*-h*
  110   2   414   664 # o*-h*
  111   2   417   418 # o*-h*
  112   2   417   419 # o*-h*
  113   2   420   421 # o*-h*
  114   2   420   422 # o*-h*
  115   2   480   481 # o*-h*
  116   2   480   482 # o*-h*
  117   2   483   484 # o*-h*
  118   2   483   485 # o*-h*
  119   2   486   487 # o*-h*
  120   2   486   488 # o*-h*
  121   2   489   490 # o*-h*
  122   2   489   491 # o*-h*
  123   2   492   493 # o*-h*
  124   2   492   494 # o*-h*
  125   2   495   496 # o*-h*
  126   2   495   497 # o*-h*
  127   2   498   743 # o*-h*
  128   2   498   744 # o*-h*
  129   2   501   502 # o*-h*
  130   2   501   503 # o*-h*
  131   2   504   505 # o*-h*
  132   2   504   506 # o*-h*
  133   2   564   565 # o*-h*
  134   2   564   566 # o*-h*
  135   2   567   568 # o*-h*
  136   2   567   569 # o*-h*
  137   2   570   571 # o*-h*
  138   2   570   572 # o*-h*
  139   2   573   574 # o*-h*
  140   2   573   575 # o*-h*
  141   2   576   577 # o*-h*
  142   2   576   578 # o*-h*
  143   2   579   580 # o*-h*
  144   2   579   581 # o*-h*
  145   2   582    77 # o*-h*
  146   2   582    78 # o*-h*
  147   2   585   586 # o*-h*
  148   2   585   587 # o*-h*
  149   2   588   589 # o*-h*
  150   2   588   590 # o*-h*
  151   2   644   645 # o*-h*
  152   2   644   646 # o*-h*
  153   2   647   648 # o*-h*
  154   2   647   649 # o*-h*
  155   2   650   651 # o*-h*
  156   2   650   652 # o*-h*
  157   2   653   654 # o*-h*
  158   2   653   655 # o*-h*
  159   2   656   657 # o*-h*
  160   2   656   658 # o*-h*
  161   2   659   660 # o*-h*
  162   2   659   661 # o*-h*
  163   2   662   159 # o*-h*
  164   2   662   160 # o*-h*
  165   2   665   666 # o*-h*
  166   2   665   667 # o*-h*
  167   2   668   669 # o*-h*
  168   2   668   670 # o*-h*
  169   2   724   725 # o*-h*
  170   2   724   726 # o*-h*
  171   2   727   728 # o*-h*
  172   2   727   729 # o*-h*
  173   2   730   731 # o*-h*
  174   2   730   732 # o*-h*
  175   2   733   734 # o*-h*
  176   2   733   735 # o*-h*
  177   2   736   737 # o*-h*
  178   2   736   738 # o*-h*
  179   2   739   740 # o*-h*
  180   2   739   741 # o*-h*
  181   2   742   243 # o*-h*
  182   2   742   244 # o*-h*
  183   2   745   746 # o*-h*
  184   2   745   747 # o*-h*
  185   2   748   749 # o*-h*
  186   2   748   750 # o*-h*

Angles

    1   1   350    54    55 # st-oh-ho
    2   1   350    56    57 # st-oh-ho
    3   1   350   136   137 # st-oh-ho
    4   1   350   138   139 # st-oh-ho
    5   1   350   220   221 # st-oh-ho
    6   1   350   222   223 # st-oh-ho
    7   1   350   306   307 # st-oh-ho
    8   1   350   308   309 # st-oh-ho
    9   1   350   310   311 # st-oh-ho
   10   1   350   312   313 # st-oh-ho
   11   1   350   392   393 # st-oh-ho
   12   1   350   394   395 # st-oh-ho
   13   1   350   472   473 # st-oh-ho
   14   1   350   474   475 # st-oh-ho
   15   1   350   476   477 # st-oh-ho
   16   1   350   478   479 # st-oh-ho
   17   1   350   556   557 # st-oh-ho
   18   1   350   558   559 # st-oh-ho
   19   1   350   560   561 # st-oh-ho
   20   1   350   562   563 # st-oh-ho
   21   1   350   640   641 # st-oh-ho
   22   1   350   642   643 # st-oh-ho
   23   1   350   720   721 # st-oh-ho
   24   1   350   722   723 # st-oh-ho
   25   2    60    58    59 # h*-o*-h*
   26   2    63    61    62 # h*-o*-h*
   27   2    66    64    65 # h*-o*-h*
   28   2    69    67    68 # h*-o*-h*
   29   2    72    70    71 # h*-o*-h*
   30   2    75    73    74 # h*-o*-h*
   31   2   334    76   333 # h*-o*-h*
   32   2    80    79    81 # h*-o*-h*
   33   2    84    82    83 # h*-o*-h*
   34   2   142   140   141 # h*-o*-h*
   35   2   145   143   144 # h*-o*-h*
   36   2   148   146   147 # h*-o*-h*
   37   2   151   149   150 # h*-o*-h*
   38   2   153   152   154 # h*-o*-h*
   39   2   156   155   157 # h*-o*-h*
   40   2   416   158   415 # h*-o*-h*
   41   2   163   161   162 # h*-o*-h*
   42   2   165   164   166 # h*-o*-h*
   43   2   226   224   225 # h*-o*-h*
   44   2   229   227   228 # h*-o*-h*
   45   2   232   230   231 # h*-o*-h*
   46   2   234   233   235 # h*-o*-h*
   47   2   237   236   238 # h*-o*-h*
   48   2   240   239   241 # h*-o*-h*
   49   2   500   242   499 # h*-o*-h*
   50   2   246   245   247 # h*-o*-h*
   51   2   250   248   249 # h*-o*-h*
   52   2   316   314   315 # h*-o*-h*
   53   2   319   317   318 # h*-o*-h*
   54   2   321   320   322 # h*-o*-h*
   55   2   324   323   325 # h*-o*-h*
   56   2   327   326   328 # h*-o*-h*
   57   2   331   329   330 # h*-o*-h*
   58   2   584   332   583 # h*-o*-h*
   59   2   336   335   337 # h*-o*-h*
   60   2   340   338   339 # h*-o*-h*
   61   2   398   396   397 # h*-o*-h*
   62   2   401   399   400 # h*-o*-h*
   63   2   403   402   404 # h*-o*-h*
   64   2   406   405   407 # h*-o*-h*
   65   2   409   408   410 # h*-o*-h*
   66   2   413   411   412 # h*-o*-h*
   67   2   664   414   663 # h*-o*-h*
   68   2   419   417   418 # h*-o*-h*
   69   2   421   420   422 # h*-o*-h*
   70   2   482   480   481 # h*-o*-h*
   71   2   485   483   484 # h*-o*-h*
   72   2   487   486   488 # h*-o*-h*
   73   2   490   489   491 # h*-o*-h*
   74   2   493   492   494 # h*-o*-h*
   75   2   497   495   496 # h*-o*-h*
   76   2   744   498   743 # h*-o*-h*
   77   2   502   501   503 # h*-o*-h*
   78   2   505   504   506 # h*-o*-h*
   79   2   566   564   565 # h*-o*-h*
   80   2   569   567   568 # h*-o*-h*
   81   2   571   570   572 # h*-o*-h*
   82   2   574   573   575 # h*-o*-h*
   83   2   577   576   578 # h*-o*-h*
   84   2   581   579   580 # h*-o*-h*
   85   2    78   582    77 # h*-o*-h*
   86   2   586   585   587 # h*-o*-h*
   87   2   590   588   589 # h*-o*-h*
   88   2   646   644   645 # h*-o*-h*
   89   2   649   647   648 # h*-o*-h*
   90   2   651   650   652 # h*-o*-h*
   91   2   654   653   655 # h*-o*-h*
   92   2   657   656   658 # h*-o*-h*
   93   2   660   659   661 # h*-o*-h*
   94   2   160   662   159 # h*-o*-h*
   95   2   666   665   667 # h*-o*-h*
   96   2   670   668   669 # h*-o*-h*
   97   2   726   724   725 # h*-o*-h*
   98   2   729   727   728 # h*-o*-h*
   99   2   731   730   732 # h*-o*-h*
  100   2   734   733   735 # h*-o*-h*
  101   2   737   736   738 # h*-o*-h*
  102   2   741   739   740 # h*-o*-h*
  103   2   244   742   243 # h*-o*-h*
  104   2   747   745   746 # h*-o*-h*
  105   2   750   748   749 # h*-o*-h*
