LAMMPS data file via write_data, version 2 Aug 2023, timestep = 8000, units = metal

2008 atoms
9 atom types

-0.12431375532701594 20.661527755327022 xlo xhi
0.11464043106955657 18.468054568930455 ylo yhi
0.4303040485416183 57.49330095145858 zlo zhi
7.973720407338117 0.9765760412305918 -1.90037043909886 xy xz yz

Masses

1 40.08
2 12.01
3 1.0078
4 1.0078
5 16
6 16
7 16
8 16
9 28.086

Atoms # atomic

304 6 1.554914453948503 2.898856328077382 1.3718010246006869 0 0 0
496 6 4.961438806328834 0.4609536106062505 4.6294534734946255 0 1 0
1615 3 2.938188445638642 -0.1361802747449079 57.34902957832763 0 0 0
1617 5 1.8357916323614176 -1.5113549821666674 57.42436386837318 0 0 0
602 5 8.203003414839744 0.06693224580353965 3.7016792184403338 0 0 0
459 9 14.281444136371789 18.25611755240319 4.985286355624067 0 0 0
603 3 15.01339857068552 18.225999633667982 3.7184644277295225 0 -1 0
296 6 15.74760002304595 17.760411169642623 4.849477361850965 0 -1 0
62 5 12.904317333692866 2.6187767000025195 3.164286009300928 0 0 0
1326 5 12.685138120088297 0.9987801414749233 2.6913694973750113 0 0 0
1166 3 13.599090463103805 1.855095914815519 2.4928469426500004 0 0 1
1324 3 11.69217605081087 0.8786884652212293 1.9106555656888735 0 0 0
1022 3 12.576133456916487 2.289269439536854 0.780680026481699 0 0 1
1023 5 11.62948734963067 1.6695507320042517 1.0445564888661045 0 0 1
1165 3 12.999905397492064 1.012898517472085 1.337106040839736 0 0 1
1325 3 12.258086145219428 2.1262724766252696 2.2649786783873114 0 0 1
969 5 13.616823894912102 2.0513681415003218 1.2471538954933439 0 0 1
967 3 14.948200403390713 2.7912129886903934 2.752966963416779 0 0 0
1704 5 11.0209758690229 0.4743563648318803 0.9394667252943311 0 1 1
1 9 18.335475196578447 3.0598616215533885 3.287546310797545 0 0 0
895 3 18.72822122178917 0.2770066044602786 57.467476173078666 0 1 0
33 6 19.435887390250116 2.6121414875933815 2.876099706083522 0 1 0
323 6 18.144980385128225 2.3204207057008603 2.2699136107978397 0 0 0
50 6 19.864300498271806 1.912247337459534 1.6459240715679502 0 1 0
334 3 0.596757094760598 1.7236952500010947 1.089701288164975 1 0 1
896 3 20.37099818044222 0.6692637645991774 0.7464775748610635 -1 1 1
275 9 2.9261740242945815 5.18412835112047 2.19495120858413 0 0 0
312 6 3.5149379463996997 6.0912146229037125 1.531610447803353 1 0 0
594 8 3.553427494721263 6.449932542916414 3.0145194690074586 0 0 0
1123 3 2.8525074814156914 5.008005016481445 0.8172709859862115 0 0 1
300 6 3.5874896301800367 6.663159075031608 4.869016768565097 0 0 0
309 8 22.505238592913155 4.33535492810063 1.3613324642057256 -1 0 1
694 3 3.2386985603190275 7.476599335520254 1.8470545250002424 0 0 0
692 5 5.681644565606451 7.036751378964613 3.664903758028056 1 0 0
693 3 4.774234478335337 6.02864774145653 4.122081487111364 1 0 0
586 6 6.4001904520434945 6.9681947569222835 4.459442923515959 0 0 0
549 9 8.72804714505566 5.8622886183849445 1.613981077789077 0 0 0
631 9 7.345312390688703 6.055026310609429 4.245598971775445 0 0 0
656 6 8.410246996001481 5.658012564519366 3.8860182837514192 0 0 0
1759 3 4.710086548889802 7.604013241309475 4.157258949104243 0 0 1
680 6 8.704961769272202 5.177768432416079 2.608096830281714 0 0 0
124 6 9.339094438620863 4.633547051139459 3.892420346714711 0 0 0
91 9 9.889477553660548 5.635916588756363 4.538487891597775 0 0 0
577 6 6.052954998417654 5.586145161318037 4.570854662304279 0 0 0
582 6 9.907192867564799 5.859043370047682 1.6649603603388539 0 0 0
1982 3 9.80924733890759 5.7931807589006405 3.3286735149360407 0 0 0
672 6 5.765288727658033 8.128596210249958 4.434130056632554 1 0 0
42 6 13.711897704999128 3.4392252830026244 3.1629641226557577 0 0 0
64 3 13.348578988470312 3.1224891694932793 1.8335637836691976 0 0 0
590 6 12.216859662930494 3.649337963548235 2.6825924343522267 0 1 0
54 8 10.003142196443227 4.510673841389608 2.562071979994716 0 0 0
9 9 14.434668512844569 3.337544840975753 4.169951785367786 0 0 0
545 9 10.890370216948952 4.254056742518328 2.0445301720157136 0 0 0
562 6 11.692930891138976 3.438096516925105 1.407987415365083 0 0 0
579 8 10.482302229506917 4.882206455100758 0.7457292547859735 0 0 0
1422 5 12.084090134989076 3.531706078921753 56.70422596629429 0 0 0
773 6 17.23610610706138 3.3162689939907484 2.647584534255835 0 1 0
324 8 15.413936578505888 3.8759053584549963 3.7079506939343583 0 0 0
26 6 18.137903551703996 4.333177603788963 3.6365779904025235 0 0 0
30 6 19.01821717714247 3.732057742685455 2.340517122184335 0 0 0
63 3 17.40228867591418 4.970457660996215 2.3826399304241326 0 0 0
5 9 16.612416935985127 5.163172275816775 3.3577002797367492 0 0 0
22 6 17.93025335336683 3.6676353706476115 1.273401107013921 0 0 0
39 8 15.93954332231927 4.470290061841789 2.602451051450886 0 0 1
968 3 19.03071502726515 5.578808109102745 3.7056890267779674 0 0 1
116 6 16.754756517137196 4.043251574824764 3.8568466477064303 0 0 0
325 4 16.68996630956304 6.145154270950249 2.525518561190086 0 0 0
422 5 17.186002291346732 6.953876054538163 0.9020898473059196 0 0 0
423 3 17.639508550150993 7.121012810663319 1.7545913283454382 0 0 0
450 4 18.691620849682238 7.03231718353532 3.229702539225354 0 0 0
90 4 17.647348264175363 5.899316385886139 3.8563426689469056 0 0 1
279 9 18.59871246717603 6.596687569536908 4.5986133077454925 0 0 0
386 6 19.333279934536165 8.248993313612424 3.0270442532511312 0 0 0
402 6 17.994302689714633 8.422959003418956 1.148758468746185 0 0 0
287 1 20.80919505097369 3.2399801439870513 1.7544976323546393 0 0 0
720 4 5.1482431684316206 9.74226592863633 1.9417817730520261 1 0 1
746 6 4.851830065360832 9.013251293241268 5.224803185806452 1 0 0
144 8 5.495792936784958 9.329322053070477 3.4497201852344705 0 0 0
652 6 6.651920125652 9.686163774600605 2.728588618673156 0 0 0
635 9 6.668612546835247 8.639958627092753 3.6841855298814616 0 0 0
136 6 9.280941902780071 10.60642711755641 3.4412157150219302 0 0 0
513 3 8.561340682667689 12.192652621991373 3.5099088770253983 0 0 0
106 1 8.208896616936336 10.494672325682467 2.4485939452576444 0 0 0
1044 5 7.568234935738779 9.469603793515143 57.068999534158834 1 0 0
1894 3 5.884096382216999 11.527496878027064 0.5830564708157376 1 0 1
145 4 6.550498506472207 10.852071297757588 1.9519606864642929 0 0 0
202 6 6.681441164057652 12.376067611112644 1.6390408071769325 0 0 0
214 6 7.747015285163215 13.189282122365919 2.6018999662959574 0 0 0
180 4 9.32489066197803 13.059083306636666 2.8062910895720354 0 0 1
152 5 10.06817591092564 11.617109749672336 1.5295930392370127 0 0 0
153 3 9.873894588057096 11.443130250520243 2.376629427213529 0 0 0
112 6 12.372726870918664 5.748520867023066 57.123081907651084 0 0 -1
154 3 9.93761487172202 9.953038859059596 2.230045188387897 0 0 0
95 9 11.120647490139062 9.49847371306857 2.344880517614894 0 0 0
129 8 11.352509828317139 10.749709695457625 2.0580291700848194 0 0 0
132 6 10.350248032911644 11.967922304758824 3.72368579790776 0 0 0
414 8 10.855252330121287 10.465490474873288 3.185721992863948 0 0 0
1491 5 12.209430046130821 11.876624405992645 0.6847809130056655 0 0 1
1756 3 11.828604555089651 12.172057900371884 1.5446369431638403 0 0 1
415 4 11.523415419182326 11.846606999998619 3.1146584169475457 0 0 0
1490 3 12.433802053124642 13.398333221193509 1.1933535323412778 0 0 1
512 5 13.11626368834249 13.33542190650462 1.8629847934971155 0 0 0
99 9 11.262460467464107 11.450153831091665 4.410990870365223 0 0 0
827 3 19.069349954218254 9.477063697889855 2.0388985253813594 0 0 1
476 6 20.117843999449036 13.082819375483203 2.0232552554736825 0 0 0
500 6 19.71391835214147 11.61056105336127 1.7673860230082377 0 0 0
1555 3 18.238156564748092 9.985252231291016 0.6125665702604627 0 0 1
1895 3 19.003829524033648 12.82738072995362 0.8196505871621169 0 0 1
684 8 18.57963247505729 11.469379014354013 0.43553064114352097 0 0 0
1426 3 23.401764530849714 8.939223764826039 1.961680551374612 0 0 1
399 8 20.40856034513767 10.736114392515363 2.4316731065564943 0 0 1
394 6 20.70353346535297 8.921505191312932 2.8721793124071224 0 0 0
361 9 21.653693829974102 9.105584543627412 3.9680294868471297 0 0 0
382 6 22.210364986068132 9.052092012777642 2.5750390973610333 0 0 0
390 6 21.999228482276298 8.542238264678 4.96707174417534 0 0 0
365 9 20.474326731294205 12.20785136125605 2.924884365812581 0 0 0
685 4 21.595003734728262 10.269966780157922 3.0076271926493705 0 0 0
1427 3 3.7789942422037335 8.990398161745942 1.1488718947250258 1 0 1
880 3 4.489143737140438 10.10128172430171 0.46107826393914764 1 0 1
206 6 6.997238246852818 14.020302091549787 1.5106505293089683 0 0 0
181 9 8.493816924851906 13.404267282969824 3.859124626109192 0 0 0
219 8 7.038993233541901 11.718634533371013 57.32924371751122 0 0 -1
504 8 6.963888697054562 15.334924315719197 1.0538137380164008 0 0 0
505 4 9.00316136216823 15.683965889378273 57.44865415017918 0 0 -1
210 6 8.354550097608355 14.012152932060639 4.900257675780323 0 0 0
922 3 10.337520995331182 15.583818266808256 57.14934143094868 0 0 0
540 4 14.42112468316813 17.11384472714765 2.460599254380143 0 0 1
1489 3 13.643235543223959 15.999047323571356 1.0411020552397674 0 0 1
514 3 12.945958168393622 14.671397808836394 0.6704463954172984 0 0 0
503 6 14.069058049967333 17.404681185145744 4.181528310023262 0 0 0
492 6 15.331568935845697 16.84332194909626 3.92803608135008 0 0 0
924 5 10.56562159439339 17.510404660031018 0.5694276979036089 0 0 1
466 1 12.486562977545091 17.68519280228928 5.6546330209081646 0 0 0
489 8 14.907493984098693 15.944662474890029 1.5751815459379177 0 0 0
1235 3 15.953415918835518 17.615581928005792 2.7832667164812883 0 0 1
604 3 16.640389466966504 17.338452614282808 3.8463359059574094 0 -1 0
455 9 15.6563448700069 16.926487555818774 1.7562253933138146 0 0 0
736 1 16.45206632321203 16.093429712476876 4.520282504038912 0 0 0
774 8 15.878905986533098 16.126022759998307 2.834493158075716 0 0 0
775 4 18.419788621183788 14.119322999166936 57.48489043627751 0 0 -1
1234 3 16.47283873832291 15.8039382541122 1.652120759293808 0 -1 1
759 8 18.872995676274513 15.287485380928587 2.2979796618724837 0 0 1
757 6 15.627793252273584 14.457588624531093 5.593363615647481 0 0 0
235 4 19.08705512485814 16.7070827811681 2.2773323597291313 0 0 1
1354 3 17.95234110386203 14.774288933153755 1.1231647052762188 0 0 0
819 5 17.19365050271006 14.24634248915584 0.6280133273625671 0 0 1
817 3 18.271056589028536 17.144931535776447 0.5752766853853 0 0 1
480 6 20.695902238677267 13.595416002479654 3.1734261080533464 0 0 0
766 6 20.85995180540583 14.903698599796945 3.586948925296165 0 0 0
721 9 21.944471964985357 15.66615911551313 4.328577385494524 0 0 0
234 8 21.423013869187248 16.08352936603238 1.7468514228310787 0 0 0
725 9 21.52647517263402 14.885849460173334 0.9126841822390701 0 0 0
750 6 20.15010971847668 16.153176167512804 3.1586246384404735 0 0 0
762 6 21.18862674613478 14.642858834131344 2.129134540464445 0 0 0
676 6 21.557915063451457 15.894434311119005 3.064869553080292 0 0 0
650 1 23.514427027434063 15.951282592549923 4.330754854422979 0 0 0
646 1 20.568255587768604 16.390075669789457 4.438439694013788 0 0 0
667 6 22.004671531001595 16.934341339016605 4.498799641410948 0 0 0
566 6 20.002506095370517 17.942612719069956 1.1363771862963645 0 -1 0
1090 3 21.915509110073295 14.017408536241303 57.431464060499565 0 0 -1
185 9 26.619196996984655 14.678195863772189 1.1479029492525408 -1 0 0
222 6 28.541591051606083 14.737484376701444 57.379431042033275 0 0 -1
270 4 28.058416044049075 16.220013613128828 57.18647346875969 -1 0 0
283 1 4.186097147981828 2.753205583704851 6.064661054061781 0 0 0
467 1 5.4251955453030245 0.8514628196864416 6.198656001814282 0 1 0
303 6 3.994715535318976 1.3915169148636903 7.080115775516685 0 1 0
470 1 3.776489861898117 0.6681926144565977 5.74326456885337 0 1 0
589 6 3.75709628221794 4.69625276817915 7.516543593723822 0 0 0
320 6 5.734998914345256 2.0710905102814863 5.922957250398163 0 1 0
569 6 6.063313965174994 1.5863913606782483 9.866754761708227 0 0 0
557 1 5.562775446909835 3.1963415432467586 7.041383735182088 0 0 0
552 9 4.622472841625575 1.2218642175628767 9.183142643738424 0 0 0
593 6 5.28924321709535 0.44346856004378327 9.734070316014126 0 0 0
544 9 5.259393125816792 2.1273329408689605 9.259008701408536 0 0 0
560 1 5.917485692632571 1.2074887861968262 8.230191819231937 0 0 0
574 6 9.41534266029309 0.3239916859977041 6.743087392713648 0 0 0
17 1 14.046668783886062 2.1538016653829493 6.447001613471925 0 0 0
570 6 9.365932249579497 0.7118738310701529 5.536665122279535 0 0 0
8 9 14.197917911595578 1.48433030418368 8.249166733086888 0 0 0
40 6 13.473461233531683 1.4013208964672452 9.372039372757836 0 1 0
34 6 8.800036255972408 1.5308207157499838 6.5579819836262425 0 0 0
25 6 14.440924618705232 0.3569861170069116 9.272431710556821 0 0 0
49 6 14.72590993334697 1.8783821586552643 9.182986519233491 0 0 0
20 1 12.307408432653553 3.3231848586392485 6.3704957138873795 0 0 0
53 6 14.984254512346649 3.122436363428893 7.072968075879129 0 0 0
189 9 17.421776085773825 1.7467348329845396 6.9449907972468585 0 1 0
319 6 16.56075134452873 2.1026514933176754 7.764638708098293 0 0 0
274 9 18.098740107848787 0.8203122434083299 6.786090745802606 0 0 0
282 9 18.54589615237502 1.8089403016974033 7.019581515926765 0 0 0
200 1 16.04782648612832 2.512783386372605 6.239530754310883 0 1 0
226 6 17.871981248420745 2.6569773484196695 6.254888669814207 0 1 0
315 6 18.468619190809115 1.5428817152536625 5.750458715195895 0 0 0
299 6 19.265572372339918 0.4755573559196403 7.357621057467823 0 0 0
13 1 19.752245658636017 1.0460435504306391 6.175000228560795 0 0 0
196 1 17.25017955513964 3.249242626629679 7.3483386780273925 0 1 0
83 5 15.552228113675906 1.2745038876228285 9.840111785609666 0 0 0
278 9 20.72345435385442 0.012785306184669915 9.899679656622538 -1 0 0
556 1 4.492195968610384 5.539441879939506 5.66999851408292 0 0 0
271 9 4.206767833844414 3.8582511571896676 6.694590000194068 0 0 0
669 8 3.852773777435084 6.995758380176578 6.265983569454152 0 0 0
664 6 6.907315674652727 6.21732543101097 5.477683824285462 0 0 0
292 6 5.07650323631547 3.9982789191680874 5.871137553813505 0 0 0
770 6 5.37654317852228 6.732384440414243 5.351628527080081 1 0 0
139 6 8.460378952388004 7.327691511547226 7.291803494354189 0 0 0
135 6 8.673231833521484 7.267267917911219 9.633525697798982 0 0 0
102 9 8.283492544526132 7.991253756983553 8.274305261391714 0 0 0
172 3 8.422059700388658 8.522567469322158 9.621764683880155 0 0 0
107 1 9.781119027950373 7.710387849121024 6.108363142376627 0 0 0
740 1 14.243019386419062 3.7933970726921933 6.053569623917706 0 1 0
46 6 11.883360814072581 4.874274778771204 6.661434009752508 0 0 0
729 9 12.910246884921161 5.587253150714721 7.319569553818401 0 1 0
16 1 12.408995654207043 6.305502354585092 6.2285196644316025 0 0 0
12 9 12.841539417026084 4.551501506791542 7.362571125131589 0 0 0
120 6 10.432414846975034 6.208637793887105 5.481637860646379 0 0 0
29 6 11.117551883447767 7.795397318766096 9.090146614231944 0 0 0
613 3 10.150220579972085 6.848242669175135 10.094193961531298 0 0 0
4 9 10.983248330025203 6.517393437720409 9.284705320883933 0 0 0
123 6 13.39349858558854 3.4835601325247145 7.389791492570311 0 0 0
140 6 12.202944996805225 6.572956422905928 7.660805018310241 0 0 0
143 6 10.685412023456673 8.512694331011984 7.258431789257582 0 0 0
316 6 18.851837682409176 7.083835527582375 5.693880821001269 0 0 0
421 4 19.160262701112398 6.981570138168419 9.557804526726274 0 0 0
290 1 19.142888655541636 7.389775729505711 7.254996719244546 0 0 0
410 6 24.08698998227876 7.8321898575581805 7.227913944587543 0 0 0
638 9 21.53008428922185 6.217075200328349 8.891250451317344 -1 0 0
690 8 21.571180084732674 7.618307902788432 8.260369500779046 -1 0 0
670 6 20.473282432082257 6.261646762247933 9.57628342785798 -1 0 0
433 3 20.479772912038474 6.817791219185162 8.112811204163872 0 0 0
647 1 23.151273797640627 8.378701832941008 6.033801106233498 0 0 0
663 6 4.265005067819048 8.784158150412692 6.412400027518061 0 0 0
702 3 5.096275972217441 10.277873789451245 8.565362565682378 0 0 0
643 1 5.522519086664451 9.282662019335257 7.26990866768512 0 0 0
94 9 8.212059743835786 10.372032413343193 7.704726413984119 0 0 0
119 6 7.449958557728532 9.271660316486761 8.304288061749102 0 0 0
127 6 6.652220281365193 10.23663285519758 7.86975155520216 0 0 0
205 6 7.648252409089254 10.588402566393812 8.803834301506875 0 0 0
213 6 9.221604705031275 10.754125722598523 7.121615063048856 0 0 0
703 3 6.17352185823243 11.167567106403721 8.895987433511484 0 0 0
171 3 6.552794791146083 9.934814907461929 9.35511276398465 0 0 0
701 5 6.752630302659567 11.972715170374121 8.899375984187074 1 0 0
660 6 9.917734080044209 9.01735528895244 4.885353864045182 0 0 0
110 1 10.42582300322112 9.885353571956632 6.29248092012257 0 0 0
409 6 14.15637267057273 9.35132614277392 9.125928239389928 0 0 0
230 6 11.507154820036531 11.046702950437977 5.463930552919482 0 0 0
163 3 13.154354277362817 11.645438579406175 9.448396688251938 0 0 0
711 3 13.415957619880842 13.124938119293226 8.993478824546289 0 0 0
364 9 13.924930173581107 11.834986570115861 8.5652166315829 0 0 0
389 6 14.289386231744203 10.7379331019949 9.114787757340027 0 0 0
406 6 13.997942900358485 12.923253679227082 5.727929779664221 0 0 0
377 1 13.882514163884188 11.332190276387248 5.70325489114209 0 0 0
103 1 12.514975469330203 8.701904918757783 9.812692619097929 0 0 0
393 6 18.161285898592965 7.694274293733365 8.962563045941183 0 0 0
307 6 16.875022154915737 8.393819077273582 9.743518071184239 0 0 0
405 6 15.754916016549535 9.553946057404417 9.413827695198835 0 0 0
372 9 14.948153614933489 9.991956214586217 8.376976410799896 0 0 0
346 3 17.87552841851451 9.257937518201576 8.851323322967842 0 0 0
380 1 15.437397299878482 12.086278822225513 5.35079329585807 0 0 0
413 6 15.470506166337 10.943065151764145 6.5965463734957375 0 0 0
420 8 19.218042428278395 9.726176406400885 8.724917100580015 0 0 0
431 5 19.345013251340173 10.695833450332563 8.895896328104163 0 0 0
627 3 22.905730113540343 8.264873556327787 7.882173452100254 -1 0 0
675 6 19.900312544109735 8.259620430380753 8.487013446817537 0 0 0
705 3 20.694492541133645 9.938818180165148 8.728990550399766 0 0 0
659 6 24.56828782780396 11.319465675940194 8.774105436828691 0 0 0
683 6 23.270930414020217 10.19503112074699 8.57607371847081 0 0 0
754 6 21.730711489324054 11.924187512586167 9.072033841420282 0 0 0
432 3 21.965481916090805 9.465170188472387 8.495655447272545 0 0 0
704 5 22.07186377151834 10.67713916613497 8.955316123496718 0 0 0
765 6 22.954048535407775 12.881707643877588 9.0248758511451 0 0 0
745 6 24.79642115605675 13.67015882752227 8.995234638069547 0 0 0
691 4 24.581838005815673 9.42650868670441 7.9255379381472535 -1 0 0
642 9 25.727718584884883 11.591943756664591 9.18990676699028 0 0 0
753 6 25.620404351486656 12.787171955535143 9.283569421326717 0 0 0
462 9 9.001416822691862 15.009988238752836 9.084024180568969 0 0 0
193 1 8.763645307739788 14.967634346313087 6.110133730816129 0 0 0
165 3 7.962749266216084 17.306224486154704 9.138481086815931 0 0 0
240 8 8.096391712563696 16.02319919072437 6.97145707507472 0 0 0
499 6 9.264951807081033 15.138570940538791 7.615101205166865 0 0 0
479 6 9.624448446062528 16.249244785038698 6.753073751290496 0 0 0
354 3 9.029361611706513 16.742589396797268 7.819434447756852 0 0 0
256 3 8.089102725084485 15.73737072292823 8.462449059569678 1 0 0
487 6 11.147440738426425 17.35610275392946 5.992764548585428 0 0 0
454 9 10.36831949070075 17.202266186626918 7.3449471552047605 0 0 0
458 9 11.532445814048764 14.176252325090509 9.502743093809768 0 0 0
495 6 10.063797448960756 15.28218445512974 8.73685314947772 0 0 0
166 3 10.662675432878228 16.116443279927754 7.889193547018522 0 0 0
483 6 14.289756668701525 12.678637846097557 9.955031255219998 0 0 0
440 5 14.744851542578813 14.440203273238785 9.876429846252297 0 0 0
522 3 11.281114063226036 15.390014943318107 9.085321257043919 0 0 0
712 3 12.573976444291114 14.581305150260318 8.86057912320071 0 0 0
463 1 14.712950601615834 12.256201724354268 6.872218307804906 0 0 0
565 6 14.609600635674358 16.682601265637803 9.85032466532979 0 0 0
585 6 7.1278398939041985 -0.07823992518985765 8.042577620564163 0 0 0
548 9 14.635102254982705 17.78008147262413 9.045259288290602 0 -1 0
732 9 19.67230610897141 14.70546005777539 6.581852155385538 0 0 0
541 9 20.542907984160014 17.986415774481088 5.434073058484135 0 -1 0
484 6 17.814848941154242 13.467435578068535 6.105934121348105 0 0 0
724 9 18.449091413425563 13.704580223733524 7.609498811665746 0 0 0
369 9 18.18784737809958 14.375358004305099 6.772369473336173 0 0 0
376 1 16.29239957218734 13.169484581403442 6.315524396366216 0 0 0
451 9 17.554246993352855 13.311422958713498 7.3505916333427415 0 0 0
737 1 17.02275507371649 14.555667666529017 5.263640751927844 0 0 0
769 6 16.939267261410407 14.232242123619464 7.249052554896113 0 0 0
553 1 10.858704045272667 0.07497543415754046 5.599727910169851 0 0 0
573 6 10.309282605100615 1.2999782921291956 6.35838227735321 0 1 0
634 9 22.32661945287299 16.027280535588204 5.219692090489915 0 0 0
233 6 23.301105616476676 16.457459569436693 5.682692247922995 0 0 0
217 6 24.502073837981197 17.246667272046253 5.773632959404817 0 0 0
791 5 22.38443292005179 15.258801122540596 8.728080267648608 0 0 0
733 1 22.178878296183434 17.480737895486136 6.047604389947856 0 0 0
373 1 24.080621386554427 17.112433886729505 7.151659891044704 0 0 0
184 9 21.78110666591112 17.397711753864314 9.459589741354057 0 0 0
192 9 24.51968395050856 14.802185978426566 9.312818300668567 0 0 0
254 5 20.978101693367286 14.095158926451269 9.479840845827427 0 0 0
197 1 24.731297274340534 15.744503940464922 5.986524434120225 0 0 0
164 5 7.684683984187597 17.1759611951388 7.692212902451868 0 0 0
639 9 25.53320827534232 16.897487628333767 6.401855994624766 0 0 0
679 6 27.81069567301271 16.2477521431254 7.756346891561262 0 0 0
220 6 27.6974275372218 17.02797095025303 8.76685429546439 -1 0 0
188 9 26.802596375532477 16.787773804639535 7.96236516464272 -1 0 0
255 3 26.85066113585715 15.562059012894428 8.764934617218406 0 0 0
330 8 0.9824773887477181 1.103133026947829 10.461265549437012 0 0 0
713 5 2.052633432711621 2.886620881896819 10.018070323579307 0 0 0
615 3 1.2678886751330918 2.495033813576499 10.469461593353621 0 0 0
355 3 1.195553023808104 0.5416316947149349 11.752438306744695 0 0 0
614 5 1.99793125563543 1.3242896065568481 11.13125730287286 0 0 0
580 6 6.4854927231027 -0.21128349505216454 10.380283985847873 0 0 0
82 3 7.911999227629362 1.6711929482132213 12.565145833776032 0 0 0
561 1 6.7517031395416955 1.3814515599137467 11.486056335074782 0 0 0
600 8 7.872996433762104 0.29823466926521564 11.78182396493735 0 0 0
601 4 9.068778547142465 0.6368419057671724 12.490206968989646 0 0 0
598 8 7.306097720230073 2.351471865916542 13.9294824357595 0 0 0
81 3 6.5461185770583805 2.7358142465879594 12.499763128325533 0 0 0
599 4 6.451212418491002 3.1731172062070496 13.915632847772871 0 0 0
714 3 7.909698422081872 3.3788031949189623 12.820670397851282 0 0 0
620 5 6.003752995564234 3.7949215089307953 12.815863385796487 0 0 0
45 6 13.473978496434414 1.677126828595764 10.840827743299045 0 0 0
86 5 10.587635807505917 0.992201913696948 13.749299149439121 0 0 0
88 3 11.370179105652511 0.6294468939245904 13.196767856558647 0 0 0
41 6 13.624225088568584 2.3277171310276827 13.398082418897038 0 0 0
617 5 11.962321861539769 2.307474973921665 14.458686910420631 0 0 0
618 3 12.366391420018621 1.6302053870391242 13.836539490896126 0 0 0
80 5 13.968598883502372 2.4498319033641214 9.952730354902126 0 0 0
209 6 13.436574136472489 0.2067383720186477 10.279938398668254 0 1 0
21 1 12.917572205942406 0.5429500895170842 11.748967057967006 0 1 0
352 3 14.448042359512387 2.52179971452182 12.062105278060777 0 0 0
85 3 14.664775717684842 1.0727968951995006 10.508838975702506 0 1 0
84 3 15.03152625520831 2.2942493526673253 10.533073992696721 0 0 0
341 5 20.964146275676065 3.029457081940106 10.212808373260462 0 0 0
331 4 1.2237917332116688 1.924770385692749 11.768722398909633 0 0 0
622 3 20.79886733897024 2.107197326640271 11.156853125592807 0 0 0
310 6 20.699482881270207 0.5338013190508895 11.057112139874032 -1 0 0
353 5 20.95503410129758 1.1453835086428032 12.073210839614646 -1 0 0
350 5 21.009558534649955 3.0178369177466933 12.045414328865414 0 0 0
626 5 2.0647019394382804 3.8279596744010838 11.91419859689415 0 0 0
115 6 9.323764080591987 6.287601066738574 10.998974999591795 0 0 0
98 9 8.393352264602276 7.106299409987963 10.994143890938778 0 0 0
715 3 7.029174345300697 4.132401793644725 12.066550235051674 0 0 0
111 1 8.407739592272756 4.661761015959229 11.881877393791184 0 0 0
176 5 6.525673947733171 5.876551610503791 12.60232376604013 0 0 0
177 3 7.3813440430096735 5.466398835358459 12.539434283371065 0 0 0
168 3 6.779147769927422 4.334141708242857 13.422283844038565 0 0 0
178 3 9.09971353179224 8.115802069268282 10.844688332058206 0 0 0
442 3 7.973772429071737 6.062498624186546 11.62774728725003 0 0 0
167 5 7.478153630995136 3.7237526751060543 14.121400344076308 0 0 0
169 3 8.208659664104868 4.777725102493704 13.199876579551427 0 0 0
160 3 8.256496695534517 6.4478620851288495 13.162332485775984 0 0 0
265 3 9.091881110877157 5.646311316790416 12.52898345959211 0 0 0
130 6 8.903921212229818 7.284859302711672 12.10220054408359 0 0 0
97 9 8.712938092963576 6.412989978003188 14.221425453428242 0 0 0
441 3 8.334684769643104 7.664275736036549 14.907074867425065 0 0 0
150 8 10.97191141739275 8.41629383339465 10.340467393195814 0 0 0
37 6 11.63093912172735 7.176034428781542 10.19796628971802 0 0 0
611 5 10.716937918499344 6.944505700225396 12.149029725034618 0 0 0
612 3 10.481520833146169 7.49028538091057 11.415705544274322 0 0 0
434 5 14.596454123940307 6.304998125900536 12.903984889847969 0 0 0
368 9 14.836411291029654 8.353037011611171 11.288008562510212 0 0 0
60 8 14.875399454450632 3.443759791292763 13.161617569676734 0 0 0
61 4 15.804553412184838 3.3977249992892924 14.492230571618853 0 0 0
286 1 17.805403048870275 7.132701452898166 10.58883099527455 0 0 0
385 6 16.018644013901785 8.332417235596568 10.857622958689992 0 0 0
71 5 16.148163993767888 5.016481669240993 12.055159899323614 0 0 0
72 3 15.605066223954339 4.652601564334331 13.198808346601613 0 0 0
73 3 15.565278735773484 6.986600062673534 11.506389998672278 0 0 0
74 5 16.868381573048303 5.072084360610753 13.924654298721155 0 0 0
76 3 16.764533730405223 6.130289514061506 11.85454041028544 0 0 0
344 5 17.263562160564422 6.581479061149526 12.881566118315355 0 0 0
345 3 16.138065163695543 6.841300049845579 13.19654830089614 0 0 0
75 3 16.63813263357854 5.595318297237105 13.112968811146795 0 0 0
400 6 16.8681743825192 7.530204184466676 12.217136805834 0 0 0
435 3 15.485638204274588 8.006248474559698 12.408245703576744 0 0 0
436 3 15.31212571760668 5.906279087618239 12.429011296856263 0 0 0
628 3 22.061592481443874 3.444913079394417 11.475704412705792 -1 0 0
616 3 21.81468767266628 4.037908099624961 10.16889556440385 -1 0 0
621 3 20.733560683456602 3.7227939891965836 11.105347474516378 0 0 0
655 6 21.68908851928234 5.572215398618378 9.99140965698476 -1 0 0
338 5 22.969725163881783 5.997418869981469 14.371493030896472 -1 0 0
342 3 21.50908002528042 5.0232244920684215 11.363156161765211 0 0 0
343 3 20.46460235834028 4.827671469746392 10.161713428217793 0 0 0
651 1 20.119329421628255 4.934727082180093 11.685267320336377 0 0 0
709 3 21.275687597308064 4.279132668807547 12.43832041033132 0 0 0
329 4 22.990019628490888 7.023927094688998 13.696698793806823 -1 0 0
277 9 21.21232586669425 4.992531427566387 13.73031191091986 0 0 0
328 8 21.73921981582883 6.036916762833098 13.774287633732905 0 0 0
707 5 23.731631215950443 7.268020031255052 14.469377255190617 0 0 0
671 6 22.363982760539148 8.152259151808954 14.517075264572817 0 0 0
439 3 22.068048392774283 5.20508313099006 14.92809799133055 0 0 0
710 5 7.114100592991407 9.834465400161246 10.150931897594756 0 0 0
263 5 9.405647588229124 9.140610211881677 14.54519208998085 0 0 0
201 1 6.944576352823751 9.478807869187458 14.885128231028062 0 0 0
475 6 12.902752828138027 13.727379347052404 10.106468251887849 0 0 0
397 6 13.149837387026412 10.081257307793337 9.866822601976128 0 0 0
162 3 13.96752284658515 8.98825294535124 10.513909054958654 0 0 0
151 4 14.536801246945544 10.323037621706204 10.288050239817535 0 0 0
161 5 14.666278987879654 10.847861218271293 11.055625490683441 0 0 0
381 1 16.316250181932855 8.545096534194746 13.679266893062557 0 0 0
717 3 17.36551100983394 9.562378751783031 14.139420326015626 0 0 0
448 3 15.89367204097725 9.923555409834469 14.239285769426521 0 0 0
446 5 16.443802481722503 11.534535509101426 13.808924940250742 0 0 0
716 5 18.03210266949233 10.579062712536052 13.96058294233525 0 0 0
447 3 17.01911328586131 10.951157927888156 14.29543813763795 0 0 0
706 3 22.89282677037791 11.504880933189392 9.723728379752353 0 0 0
780 8 24.291344447025004 12.47247663494152 9.968960215699227 0 0 0
792 3 21.875298115676426 13.222512240966664 10.125208253361984 0 0 0
728 9 23.079734000824473 12.63577307992558 10.240939979320256 0 0 0
803 5 24.68296088217382 11.526510610360486 14.105098545172709 0 0 0
760 6 21.24734174565975 13.96401424334321 10.83648695127881 0 0 0
699 3 23.806407685806402 8.70551970360131 14.397280616530312 -1 0 0
797 5 22.81488491270459 12.455332805651018 14.52960981235825 0 0 0
674 6 24.54536142077181 9.880492800212654 14.573630219016517 0 0 0
251 5 8.931731527333978 17.62563566498813 13.044496381705207 0 0 0
252 3 9.148515634579079 16.35478986203931 14.145250745790666 0 0 0
253 3 8.410643986746537 17.61014425840074 12.201646247417093 0 0 0
538 3 8.09747244341787 16.480610094263252 13.113797729501133 0 0 0
510 8 13.772738679844265 15.07279573289967 9.832580792676545 0 0 0
526 3 14.485030438742143 15.751844753476211 11.258888970503781 0 0 0
521 5 13.275735062716603 16.0815898333773 10.458526884948828 0 0 0
524 5 13.356702301433112 15.153424647114983 11.148022236915264 0 0 0
801 3 15.069541782725205 16.879310967850174 11.40808329358641 0 0 0
490 6 12.31608813569021 15.153877208097498 10.061227079650212 0 0 0
525 3 14.16703757557811 15.492456239974565 10.300788497946032 0 0 0
511 4 14.32684731034241 14.309677758325186 10.931417149917909 0 0 0
794 5 14.778759640732481 15.23076749396846 12.21068498389095 0 0 0
625 3 10.314865490136643 0.14495503806373922 12.331950646906234 0 1 0
802 3 15.417384043775936 15.448372953270436 10.751970790667901 0 0 0
806 5 19.789951055501692 14.387535966583233 11.40505192401237 0 0 0
523 3 16.11459021079381 17.772194313611994 10.521781338380855 0 0 0
530 5 16.444299500375706 15.880641387975986 10.611779015665352 0 0 0
623 5 10.012399473978885 -0.21123578813864557 11.427989000977272 0 0 0
793 3 19.63740768942529 17.69249125341482 12.209817734712407 0 0 0
87 3 19.79862028764799 17.250759870618307 13.718771946859823 0 -1 0
229 6 23.203463245003025 15.293233463426061 9.67433110482923 0 0 0
261 3 23.54008911738309 13.798708694498714 9.957848303439306 0 0 0
749 6 22.215503432562482 14.296360659446648 9.521996626622709 0 0 0
268 3 22.267194814387658 16.29087766407256 9.282885206589619 0 0 0
624 3 21.776202364650352 14.912747333554202 9.662744511656586 0 0 0
807 3 20.51670272845035 14.93161385376357 11.940957807830443 0 0 0
796 3 20.4071823025553 14.48276319432023 13.270786374667283 0 0 0
795 3 20.60810187637608 15.183352053835945 10.28641035367529 0 0 0
808 3 20.01708392894683 15.881705268289533 14.092608458774002 0 0 0
262 3 20.46476691939512 16.543230522216763 11.518485385733646 0 0 0
781 4 21.124846523935776 16.492652018653775 9.973752419229347 0 0 0
800 5 22.44999152764547 14.513386666481468 10.576984003700849 0 0 0
225 6 25.885762295081793 14.41128240584985 9.817498423803757 0 0 0
295 6 28.141245374474554 17.117778030335547 10.624512369701106 -1 0 0
241 4 27.886721799660194 16.1591358613213 11.90096318818242 -1 0 0
532 3 26.972371709826543 14.874070485659082 12.016283318888794 -1 0 0
77 5 26.36317773412351 13.780423410714768 13.21062479360192 0 0 0
79 3 26.84309489957955 15.235568148502319 10.493716220791132 0 0 0
238 8 26.992319800171767 14.556002777430063 13.438874757059702 0 0 0
588 6 4.696504552113301 1.4351646766241197 16.450471247301824 0 0 0
547 9 6.149621065120109 2.55792176722533 14.990938678480568 0 0 0
340 3 6.132825433954865 0.6307855735761055 17.003515604590167 0 0 0
543 9 7.283977807174788 0.7725670980081779 16.694184230473702 0 0 0
581 6 5.497317871323261 1.6729898766533937 15.457391927444768 0 0 0
584 6 6.7041469595244205 1.755870403221784 15.951264074632482 0 0 0
658 6 5.638403906710985 2.442933055695427 16.8184140642869 0 0 0
568 6 8.255762222632972 0.21503996153897476 17.616868422824407 0 1 0
619 3 9.71136747813445 -0.261309828433622 17.951194202646597 0 1 0
610 3 11.99593410847884 0.10753722656292725 14.847875867193972 0 0 0
32 6 13.59432731467356 1.873822064269189 14.858746422711103 0 0 0
24 6 12.879154833547805 1.165543507392693 16.11129078301682 0 0 0
174 3 14.266489311483717 1.9462272806109406 16.20184879163257 0 0 0
572 6 8.880811587747688 0.635205099577305 19.969587171212986 0 0 0
36 6 11.925293689780165 0.15185914011502288 16.658415002455317 0 0 0
550 9 8.525227470467707 1.2309765890721889 20.910169876458088 0 0 0
7 9 14.881574702830505 2.142652472785618 19.413298635453742 0 0 0
351 3 15.669724224260726 2.715147595156731 15.925161416111145 0 0 0
291 1 16.684339054288255 2.735155249228223 16.9381948564131 0 0 0
44 6 15.548793235097403 2.7503535736314753 18.454724326162577 0 0 0
58 8 17.182110168800595 1.689379232710116 18.155003999274353 0 0 0
59 4 15.430760846842446 2.0957974678271354 17.165864403265584 0 0 0
51 6 15.850957672961723 1.5364384855218383 18.881619417234557 0 0 0
70 3 19.262052992298074 3.1220536882589136 16.870662181256048 0 0 0
302 6 18.354988712602765 2.1986701278892467 18.001016725401513 -1 0 0
294 6 18.012594667880528 2.8411739868227706 15.718451059385213 0 0 0
142 6 15.937248039129884 2.522939210845077 20.012970770787437 0 0 0
645 1 4.177111779292988 6.385695861350826 19.77407079458267 0 0 0
677 6 3.144019672137449 5.393914776082461 19.230151500437593 0 0 0
662 6 4.339136624656023 4.392564774558785 18.104474540251946 0 0 0
649 1 4.560753833211638 5.777068601756915 18.266866938191637 0 0 0
131 6 9.839080240376306 7.417462714260066 14.819984350558139 0 0 0
551 9 5.368591373300813 3.4660715121038614 17.63961899961195 0 0 0
633 9 5.688252413858684 4.412647785633712 17.807103897129313 0 0 0
567 6 9.472199585072396 8.137506225153793 18.935624853297696 0 0 0
682 6 6.157645640395473 5.397611763225303 18.296983982533998 0 0 0
681 6 9.558260498785913 6.757405730791706 18.913013824876817 0 0 0
126 6 8.806825895539372 6.459612995857645 15.709158552845395 0 0 0
575 6 9.101506488961364 6.367692456419277 17.270460878356772 0 0 0
640 9 8.515647486718962 6.058998361218248 18.349899760914237 0 0 0
673 6 7.7802801056357165 6.7016084300654954 17.39203479163449 0 0 0
661 6 8.32073274371818 7.279777927016024 18.686196644149444 0 0 0
558 1 5.285308083411257 4.445196290108423 19.4073352134839 0 0 0
657 6 7.520178294453126 8.479220629301777 17.31029718024744 0 0 0
118 6 10.691089532977278 7.171806504937888 17.906416153157956 0 0 0
158 5 11.764844049104353 7.946143593122751 17.860748810303548 0 0 0
159 3 11.041551001082475 7.911536719888476 16.844853001583218 0 0 0
122 6 11.034445837449212 5.576605070227549 19.16262450608414 0 0 0
11 9 11.295416654981697 4.630841989338556 19.808755654358134 0 0 0
141 6 12.51237035538235 4.182968752533832 19.56329427789434 0 0 0
105 1 12.329425404701933 5.845976860845036 19.357960648815926 0 0 0
93 9 10.561309661664826 7.605396246677199 19.213780337954784 0 0 0
384 6 14.037297406960862 6.921685201538645 18.68864023221627 0 0 0
170 5 11.331136806886251 8.525909766212026 14.779134089865408 0 0 0
114 6 10.91945910315474 8.454213415914992 18.31847048836645 0 0 0
149 4 10.777947111241302 8.468436769111202 15.532511846877926 0 0 0
357 3 18.350126102988856 4.01419524485012 17.93013442276742 0 0 0
396 6 17.79222480839214 3.1156431027053992 19.338040301014352 0 0 0
175 3 18.57341671151872 4.41945742576881 16.289947138437896 0 0 0
356 5 18.896106501552243 4.9075091573518295 17.315066961014264 0 0 0
358 3 16.829663191995163 3.490893492859584 15.58089161946661 0 0 0
109 1 13.732834446203457 5.217915548225143 19.791310724613275 0 0 0
438 3 21.957949618329334 6.551279460505529 14.963050501370525 0 0 0
311 6 19.669830857455597 3.6524742330053965 15.645336162765144 0 0 0
68 5 20.4738443664203 3.4868565212229 16.75894875376229 0 0 0
318 6 19.48933889713065 3.8481028247284557 17.24681486423009 0 0 0
388 6 19.959268908171307 4.662948402167147 16.832208662518408 0 0 0
173 5 19.46809114569946 4.87302776375233 15.795613142595744 0 0 0
708 3 22.672362288071135 6.834321779077365 14.992027198793304 0 0 0
281 9 20.883782715899883 5.268993913366524 17.413224231582113 0 0 0
314 6 20.98974721395057 4.589397531197114 16.256847849252267 0 0 0
412 6 20.699037687979093 5.1201949825474 15.010422113107238 0 0 0
428 5 22.034728982861843 7.481514128447421 15.643905497709643 0 0 0
430 3 21.3643400721647 6.001884140998424 16.084198130323106 0 0 0
437 5 22.554436093217475 6.014771861635574 15.81817899196257 0 0 0
654 6 23.394011789917023 7.766587069257155 15.452805733318527 -1 0 0
288 1 20.421532230571547 6.6908643345652665 19.39470856378597 0 0 0
370 9 23.128513013421564 6.326247614464106 19.39326620009131 0 0 0
272 9 22.355008747443552 5.549977549071812 18.985652319411347 -1 0 0
259 3 9.962092020177833 9.258375707793233 16.633680135002347 0 0 0
264 3 9.312798895011102 8.850015424077563 15.413812964013559 0 0 0
698 5 7.906243562141981 9.924924504334815 17.140992658800155 0 0 0
700 3 6.718278210176717 9.649163046545327 16.61670506156401 0 0 0
134 6 8.622764318730681 9.222575275722631 16.761714658140438 0 0 0
689 4 5.625408332915288 10.819261563911095 16.53241814076786 0 0 0
138 6 7.601837555966676 10.41528433469722 15.852470293592894 0 0 0
208 6 6.27889479578142 10.440825413802147 15.699956339285736 0 0 0
257 5 8.865170281443474 10.099564560837612 16.127310227032865 0 0 0
258 3 8.065403502755046 9.206030013521001 15.938275794211126 0 0 0
788 5 6.762743064461055 10.926130305832139 16.627474618238157 1 0 0
216 6 8.055294848622033 12.152341201692405 19.01219037243392 1 0 0
101 9 8.630745541100321 13.226351808250453 18.580246917199915 0 0 0
195 1 6.740665623039298 13.191172500992007 18.646974548734715 0 0 0
148 8 11.508156790565508 9.120081013944453 17.54866849631592 0 0 0
408 6 11.474398361956071 9.492927376292988 16.32462984902775 0 0 0
453 9 13.919671814816871 11.731116772228836 19.08167601946804 0 0 0
474 6 12.24565719133101 12.889794647255473 17.802222143329256 0 0 0
478 6 13.17212693324185 11.589950364571262 18.089620556767876 0 0 0
527 5 13.340919740283882 12.750516097636734 16.032517748508965 0 0 0
528 3 13.379914865226455 12.64552035531669 16.905952633479515 0 0 0
371 9 12.168586790015292 10.325091604144149 16.762024537253605 0 0 0
404 6 13.571402769688516 11.045909015867858 16.71802974549296 0 0 0
534 3 12.264107734351182 11.565614242394426 16.993601580488598 0 0 0
535 3 14.45439078129982 11.727632917767068 17.457551225271313 0 0 0
482 6 13.69907625394601 12.909046289349625 18.294819887175063 0 0 0
367 9 14.952128730637778 11.033645160590577 16.61846022405458 0 0 0
518 5 14.411400111816608 13.465378886512376 18.00053190439602 0 0 0
718 3 18.21408185917561 10.390868834467668 15.099458882376602 0 0 0
445 3 18.2544606776084 11.763499159429772 14.670008676485608 0 0 0
741 1 19.67944621574794 11.54933342323375 15.30980172499285 0 0 0
401 6 16.779207240005615 9.938083572306166 15.510224975672168 0 0 0
419 4 17.091523738479193 11.392629188165348 15.639379599040142 0 0 0
533 5 16.829031982615884 12.238345207983814 15.855962898847165 0 0 0
444 3 18.401050137320585 11.423574476094425 16.10687061305498 0 0 0
529 3 15.668512807860951 10.923617409725992 15.29298404442995 0 0 0
443 5 17.588802416751143 10.324062288660432 16.284353974770383 0 0 0
418 8 16.18554184813455 10.819499222634965 16.60926344852846 0 0 0
756 6 20.108124869387336 11.299022393849151 19.188998988107457 0 0 0
469 1 19.020120813512225 10.610538601472461 18.239597264978606 0 0 0
497 6 18.86840676241062 9.429730058499135 19.141351295787093 0 0 0
805 3 24.593707057197406 11.438762606151759 15.034011332351511 0 0 0
772 6 23.109882454353173 12.08138124004049 15.367165624661379 0 0 0
363 9 22.064467814418045 6.53081362986053 19.092282826321693 0 0 0
429 3 22.844612797160416 9.102658767403199 15.726252831239222 0 0 0
266 5 24.384730170020788 12.392929108891767 15.995484731188505 0 0 0
267 3 23.986690042284266 10.651228036859386 16.18492999613337 0 0 0
804 3 23.106394276169603 10.30983779093483 15.041260760395469 0 0 0
637 9 24.042198475353164 9.350625888568459 15.473013731412522 0 0 0
723 9 21.511750238628128 11.24209135355044 17.088813845825626 0 0 0
748 6 20.998489535078896 11.8650814002125 16.120358564359385 0 0 0
789 3 23.816420457229924 12.16762831527297 17.029674448408702 0 0 0
798 3 22.534499435342298 11.05022357154085 16.53052987940107 0 0 0
799 3 21.019444044707992 12.452509225679634 15.020915861097189 0 0 0
752 6 22.127018193266956 12.509157644977698 16.556483623304434 0 0 0
641 9 20.842497393328895 10.493325168526178 18.415192472951368 0 0 0
374 1 20.253445724065152 9.870927301348683 19.18934967410006 0 0 0
790 3 26.186198813746742 11.815383165581602 15.360098442532308 0 0 0
688 8 25.491038863795325 10.205828877398833 15.498945561742534 -1 0 0
221 6 25.67073192366304 13.054024356488995 14.844297702369982 0 0 0
78 3 25.312800720198975 11.609222537838747 16.731955853271312 0 0 0
28 6 25.024791480230203 12.80331705028951 17.63991663182804 0 0 0
260 5 8.876311420456128 15.164040541804432 14.795918111924404 0 0 0
249 3 8.447894338089238 15.129884559297754 16.08260698159125 0 0 0
471 1 9.288240534996225 14.311893573702065 17.088266191670943 0 0 0
348 3 9.451475025514924 15.789512102861863 17.003088047079483 0 0 0
531 3 8.018258285464562 16.194286197111904 15.058709989676958 0 0 0
248 5 8.526233458299854 16.462947905453117 16.370415953835973 0 0 0
250 3 9.283680511566546 16.015475481281854 15.351559086869987 0 0 0
347 5 8.951883509036698 17.192723310949383 15.238293970375135 0 0 0
349 3 9.550049023229372 16.50438870213168 15.893973685363777 0 0 0
212 6 7.638457691591608 14.094472447779454 18.278794275313903 0 0 0
239 4 7.127517537364847 15.087551301907105 14.556702862912887 1 0 0
498 6 28.095894566670502 16.049558453657077 18.496758709255474 -1 0 0
339 3 4.395877846414174 -0.06295151015949935 16.800900902853336 0 0 0
537 3 10.01795427071616 15.00477356884593 15.862047767715342 0 0 0
536 5 10.334081603977774 15.877313696710921 14.922728251651069 0 0 0
457 9 11.615950536008985 14.015408418186166 17.389024517276816 0 0 0
508 8 13.080137603414089 14.241426374038864 17.63185570237427 0 0 0
491 6 10.649120132650774 14.725513355666312 17.00948760712741 0 0 0
322 6 12.077406465510299 15.379093079985536 17.22981322410618 0 0 0
494 6 10.705855444568945 16.38185838204856 16.118649813167753 0 0 0
520 3 11.814334707190234 17.01223525096364 17.001968030690154 0 0 0
509 4 13.74168577488687 15.616868973032682 17.62326555317763 0 0 0
464 1 14.72441984727378 16.872761393074047 18.782262468922884 0 0 0
576 6 13.640201392893852 17.266607194809993 17.395897411489745 0 -1 0
564 6 7.1417299550117 -0.39758989722375904 17.503038693564548 0 0 0
519 3 15.029366713992214 16.416092865202955 17.381241914452392 0 0 0
731 9 17.7025539606504 16.936082764234314 18.768960168601232 0 0 0
764 6 18.184860315321007 16.90416002357874 17.350850505769895 0 0 0
768 6 16.652711770619888 16.900040771386767 17.823970414369146 0 0 0
609 3 19.49209231896551 17.1924549221541 16.246387194883763 0 0 0
779 4 19.232071992852713 15.75028531725261 16.7422782326496 0 0 0
608 5 19.935930955351477 17.024734448921844 14.96615774450561 0 0 0
744 6 20.876695325281684 13.365961048655263 15.926151013721626 0 0 0
778 8 19.892821491240692 15.624848658053892 15.535291071838035 0 0 0
727 9 20.10098117310679 14.396665228393744 16.190324961628843 0 0 0
761 6 20.466983588596367 14.23566474464921 14.857490357660838 0 0 0
69 3 26.76110453979569 14.03420754102834 14.808031459090788 0 0 0
224 6 25.660810401426037 13.218569686475465 16.504716218275348 0 0 0
204 6 25.74110813438562 14.6900390123484 18.040981443139845 0 0 0
187 9 25.986213243406855 13.33874310404949 18.012982501844622 0 0 0
194 1 26.869450394854503 16.566862684280856 18.34032178424165 -1 0 0
199 1 26.791331971511937 15.172220599615136 19.248889950026086 -1 0 0
280 9 2.215365650361056 0.9820496770366909 23.49711630350772 0 0 0
297 6 3.3504827782954654 1.9715218464954258 23.86007329868726 0 0 0
317 6 1.1727470224043588 0.3621206312038936 23.216798407421 0 0 0
306 6 28.84890076546751 17.69318252170805 21.76203707125089 0 0 0
605 5 6.947727958818665 2.9861036318292853 23.689283368391685 0 0 0
276 9 6.20028659093831 -0.01652603973326716 23.345877879535134 0 1 0
293 6 6.473552022876371 -0.417780899254228 22.281877949976586 0 1 0
554 1 9.652996685345602 1.6184463218225837 21.125950888298096 0 0 0
555 1 11.410032404711794 2.3823745824416265 21.035734891795954 0 0 0
18 1 9.513063442729473 -0.20300183667654653 21.071989465412397 0 0 0
559 1 11.115140597206963 1.0903074935702672 21.868611051083594 0 0 0
587 6 10.72462562385824 0.8455671636313979 20.593078746472592 0 0 0
563 6 10.327712558700593 2.440415047144847 22.164233399938603 0 1 0
3 9 12.204840355347143 0.7610482084504887 21.596917628124373 0 0 0
14 1 18.573237758095765 1.7088912065886723 19.53847793528652 0 0 0
2 9 16.23451681869204 2.4486869036149366 21.37414107689939 0 0 0
10 9 23.254483266432793 16.705137542620218 22.86361774613411 0 -1 0
35 6 15.301062088365148 1.533800688759176 23.52408219174541 0 0 0
113 6 15.654002550403384 2.35055730125759 22.42266133682357 0 0 0
121 6 17.062120379365503 1.742639403935295 19.890868865371644 0 0 0
27 6 15.489232887644363 2.9087401693973893 23.645845426777583 0 0 0
335 5 16.427450393275027 1.9900410982926235 23.224514971126677 0 0 0
1487 3 16.862031702666204 2.9591175460766 24.10622748590877 0 0 0
298 6 19.566906682042504 0.09643003793862881 20.19184249118804 -1 1 0
321 6 19.723918119775764 1.8141934796223826 21.229154608640506 -1 0 0
468 1 20.708633596019798 0.7205507305610219 20.760886588692824 -1 1 0
289 1 19.641649965447392 0.13671511915615653 22.09920537560158 -1 0 0
285 1 20.836813056608104 1.0664906582291573 22.431959997140833 -1 0 0
542 9 11.956593027841448 4.462304650540608 20.65258340150641 0 0 0
100 9 13.865473550867117 8.453875907526903 20.293708785147484 0 0 0
117 6 13.730813119055977 9.112954636484972 21.857206240346382 0 0 0
137 6 12.835858938192775 8.163563392343281 19.83265638212166 0 0 0
92 9 13.649446558586938 8.074688735137887 21.274152736043245 0 0 0
104 1 13.758285262498298 6.885309955291391 20.053462503063578 0 0 0
48 6 16.813112536612323 3.1227859738401684 20.543961062187 0 0 0
416 8 16.79490943948476 3.093809463824075 22.753911094776438 0 0 0
1524 5 17.923519147176048 3.021481162967098 23.518896403300957 0 0 0
125 6 12.660355178519636 5.467789950892728 21.001351839617765 0 0 0
985 3 17.26731204676052 3.8915855245639532 23.18172286877851 0 0 0
395 6 18.737101439538602 6.664592936719173 23.201821798418752 0 0 0
425 5 17.699281834454887 7.661164132702283 23.155547685380395 0 0 0
1553 3 18.84234518446857 7.965119614676745 23.33590815575315 0 0 0
96 9 17.284709502516552 4.879550025580862 24.110966852400104 0 0 0
473 6 17.912053189806482 7.467555505419524 24.28713939385987 0 0 0
1552 3 17.48984581980398 6.766473627736344 23.960500450859122 0 0 0
403 6 18.57139923824275 4.874086107580872 23.377663829305302 0 0 0
284 1 23.10982163145108 4.736498869790396 20.056084101373884 -1 0 0
666 6 22.477680690672425 5.90843169668764 20.49136619043665 0 0 0
391 6 21.384927984016013 5.944437283981064 20.112077124276656 -1 0 0
411 6 20.10386658877782 7.661326691832005 23.01650797751993 0 0 0
375 1 20.81705983584536 7.265711229470595 21.774864437889015 0 0 0
417 4 20.659311050433793 5.875329351063913 23.036392136835705 0 0 0
407 6 21.921211423636137 6.189172330228132 22.12428461535009 0 0 0
305 6 21.44897191409358 7.0251367036129535 23.24008201018903 0 0 0
366 9 21.516967171344973 4.960561530007102 24.108215110892456 0 0 0
697 3 20.84345499418933 8.164387894945438 24.247493957379742 0 0 0
1522 3 20.134180842710737 4.839034417469358 24.135189509389907 0 0 0
686 8 22.403056716396897 5.793886468337058 23.649643544975223 0 0 0
183 9 8.094721737630717 13.46610243544693 19.380756857199515 0 0 0
665 6 8.723388693441548 9.678662054549044 19.79789463648689 1 0 0
108 1 9.067517537988584 12.52718086605684 20.080032102776446 0 0 0
632 9 8.118030402983731 10.423725578393764 20.42030750190717 0 0 0
644 1 7.635234794765805 11.61991361762501 20.427154193496346 0 0 0
751 6 8.676728998823773 11.710533014183325 21.620282359157834 0 0 0
232 6 7.324165562800043 13.296420750097687 20.37336637083178 0 0 0
486 6 14.16267292454797 11.109500338424267 20.059845497796577 0 0 0
190 9 10.798261904682436 12.389238014792692 23.901598192072782 0 0 0
465 1 14.427058515140052 11.134493867404117 21.57688033647375 0 0 0
231 6 12.184200773504344 11.657665169945238 23.536715298018724 0 0 0
1195 3 13.830881427620414 11.617892529392764 22.946869711709546 0 0 0
506 8 13.761820121630809 9.715626110045328 23.26703966650791 0 0 0
186 9 13.113072295787154 8.963083601154944 24.126654366030028 0 0 0
899 3 12.567601972631072 10.218553255370612 23.987580768708035 0 0 0
362 9 19.390670559804864 8.595146663829519 22.52445246860844 0 0 0
507 4 14.79068498631221 10.646820800072112 23.974088292863712 0 0 0
477 6 14.963632687563853 12.621252156594167 22.207073897052073 0 0 0
211 6 15.546185662134011 11.252676263106444 22.5650160155499 0 0 0
1658 3 15.386157911484368 12.652434751216159 23.403397081189834 0 0 0
1657 3 16.503070444122663 12.299353255469905 23.011678750074775 0 0 0
456 9 17.32073580200063 10.040164299448696 24.271195925456105 0 0 0
378 1 19.314414369535157 9.274501324520518 20.73633187192815 0 0 0
648 1 18.85406837628591 10.522778882005706 20.09866725312276 0 0 0
427 3 17.983845222229657 8.831666340336529 24.146193990385516 0 0 0
392 6 21.920963783096397 6.996324777062669 20.28779006923213 0 0 0
379 1 21.409797357586584 8.033230440654505 19.34684146106345 0 0 0
502 6 19.986382707990533 8.180951909822472 19.850425309662167 0 0 0
387 6 19.657831997044134 9.11141857409076 23.81038229443938 0 0 0
730 9 23.785831393476425 14.162937226260253 20.51639321275663 0 0 0
743 6 19.709073290417557 15.81953968570682 21.66766390067297 -1 0 0
739 1 20.973283653762966 13.808503127849377 20.090932028888556 0 0 0
1002 5 8.89142631778247 16.8697222709848 23.7100489030107 0 -1 0
485 6 14.636526652071645 16.799912790481304 20.396743011733957 0 0 0
460 9 16.16483505895236 13.423517257837213 22.374750619351016 0 0 0
501 6 16.769987745936596 14.375258014591349 21.89552512924458 0 0 0
301 6 16.39699926412146 16.620232313741727 21.81973195981988 0 0 0
452 9 15.331034083089817 17.14338092914808 21.433038177207976 0 0 0
592 6 17.978181438964466 16.45688237134106 19.85528884292855 0 0 0
738 1 18.131469498390114 15.402716935731396 21.302154888913254 0 0 0
734 1 23.65839021650718 16.05234597462616 22.042413696491998 0 0 0
481 6 20.96141033353105 15.574415954727574 21.379451267757247 0 0 0
678 6 20.591222313247314 14.36652495975235 21.4071493927798 0 0 0
735 1 21.963665417761952 14.872637694797707 20.507121365235037 0 0 0
767 6 20.17052212345004 15.08582735589372 20.46379863121893 0 0 0
755 6 19.17644318597828 14.654234251262393 21.29861055610423 0 0 0
571 6 23.235286746057522 14.637209735191215 21.436101897822628 0 0 0
722 9 22.22771069882431 13.92578826108046 18.98385534153248 0 0 0
273 9 28.281287578109087 17.48523062596513 20.66797557109168 -1 -1 0
461 9 27.957083410454516 17.328880734422373 19.58046683028123 -1 0 0
19 1 25.572206842463558 16.622429100379403 22.206872196788975 0 -1 0
191 9 25.129166895720886 15.020337864461416 21.83742314804923 0 0 0
228 6 24.897902087705408 15.86636917929475 21.02490212180712 0 0 0
198 1 24.549836873827484 14.493159037912562 21.083686124927077 0 0 0
52 6 24.467406895306116 15.033778905649136 22.63563141553661 0 0 0
215 6 26.76412519590667 16.745723037553557 19.745242209112046 -1 0 0
182 9 27.945126115938326 16.30401911839269 19.645910250896296 -1 0 0
606 3 4.839723976039667 2.6698416352624434 23.857180395358608 0 0 0
313 6 3.4358491206192987 0.6806041103655676 24.057749939525753 0 0 0
1642 3 2.4751560380933033 -0.28872096761549276 24.274571915571983 0 1 0
902 3 3.7928779655323988 -0.6180050046779604 25.346709812312458 0 0 0
597 4 6.080134603250658 1.210220979431599 24.222702242213888 0 0 0
607 3 6.334042314455592 2.7438396184018194 24.38047581257293 0 0 0
596 8 5.072522180440062 0.02634178017112143 24.338237511764827 0 0 0
1387 3 8.097569097144559 3.2636788725181276 27.8870319918815 0 0 0
1999 3 6.429250512428401 -0.07393286258892418 24.75606294085459 0 0 0
719 4 7.25945138059822 3.7312127159995248 25.095838632577998 0 0 0
829 3 13.553904954924548 -0.51880258065877 25.078389947061847 0 0 0
66 3 13.400880973128627 1.9953793610198403 25.665467517350592 0 0 0
1624 3 14.373838526096183 1.8343570062063208 24.475132684733747 0 0 0
47 6 22.47322191147116 17.282118909208982 24.21006165048591 0 -1 0
15 1 14.517532114723688 0.3796324231009969 24.30654154708774 0 0 0
336 3 14.287245333517797 0.7620134920257741 25.759657168055742 0 0 0
1598 3 15.527695683972707 1.706060612238885 26.730821950198386 0 0 0
337 3 16.395206779388047 2.2253857990003345 25.660400309177387 0 0 0
1597 3 16.720817933242216 2.5628509579338625 27.279109764665524 0 0 0
1599 5 16.219462085716803 1.7035692345256699 28.13859677567207 0 0 0
992 3 15.214686868583717 2.590408367021859 28.00991690780314 0 0 0
1000 3 3.419147226941396 3.400070695669357 24.044979904269894 0 0 0
383 6 2.999876881733693 4.610457835041037 24.62879494351737 1 0 0
449 4 4.4385436840937125 4.973544062523711 25.515956191107048 1 0 0
1480 3 4.734287562714367 6.539935421487235 28.369756068771753 1 0 0
860 3 23.991133081171288 6.035742504145137 25.56817772771722 0 0 0
1818 5 9.035593685427257 3.4420247169908667 27.808557637007354 0 0 0
1482 5 4.953999527876388 6.330955825697174 27.308466152070444 1 0 0
1397 3 5.586850211513156 4.980032520294793 26.607387563420303 0 0 0
859 3 5.210010541070983 5.262664503840053 28.096944711483225 1 0 0
1398 5 5.720839320706284 4.735750351584996 24.332802591744795 0 0 0
668 8 8.654240050282048 4.364524824198009 24.9084315564604 0 0 0
1816 3 8.163283778716265 3.8377856262166516 26.54344514330204 0 0 0
1817 3 6.847592877370516 4.336762703365182 27.98117486600478 0 0 0
1396 3 5.790709197488896 4.273218272781666 25.165829433451645 0 0 0
1204 3 6.191736163490495 6.27581832429896 27.91787462428288 0 0 0
1218 5 6.032416072378439 7.224597887632715 27.815325820883956 0 0 0
1217 3 4.909439425366208 7.550347642202298 27.869607027700216 0 0 0
157 3 5.814630849650432 7.948947245438935 28.832853244573677 0 0 0
146 8 9.84685954191895 5.589911170642287 25.282359782531096 0 0 0
653 6 9.593929710724769 4.4457373679197865 26.065057019433027 0 0 0
1566 5 10.11334957229931 7.418170306871319 25.907484298434586 0 0 0
1626 5 13.157007869466742 4.521341128948901 25.06202537173733 0 0 0
636 9 10.046785983329137 4.365310943252496 24.83113072644063 0 0 0
830 3 13.599182616611285 3.4966958146618468 25.67923607434493 0 0 0
1342 3 10.96501440676678 4.769621366141873 25.775442511925274 0 0 0
1343 3 11.336105140872487 6.4913987124165144 25.425593810261454 0 0 0
1564 3 10.825642136853025 7.9499574365804655 25.478764175419723 0 0 0
147 4 12.427726564937995 4.341870255689128 26.152536478115902 0 0 0
989 3 14.498316881850222 4.902182646545597 26.256311869765234 0 0 0
990 5 14.016579604186049 5.961172813116291 26.407512176113183 0 0 0
1344 5 13.269620918903373 5.083580355144253 27.051612065643326 0 0 0
1625 3 13.738394226906358 4.82069058364723 26.098120514072747 0 0 0
269 4 12.89697271608402 5.67032637333485 25.692104028211094 0 0 0
1595 3 14.112119396798208 3.8362404341788428 27.19868553621877 0 0 0
203 6 12.29788572490496 7.745445052696922 24.90682667508818 0 0 0
1003 3 14.222495604983129 3.9490445626666597 28.883284358253864 0 0 0
987 5 14.170391125039561 5.4259115769220045 25.16779513752856 0 0 0
1523 3 18.03215238064265 4.029445220393463 24.33064359813082 0 0 0
988 3 14.488627690991558 5.2987057848039925 27.699667950422775 0 0 0
133 6 14.852766426598441 4.138364186687638 24.960430150376546 0 0 0
1486 3 17.311368307265585 3.443026619738574 25.653684747635065 0 0 0
1488 5 15.483778515750608 3.8313421192519335 28.262052437309134 0 0 0
128 8 17.137887070258675 5.003246568216467 25.379896500860955 0 0 0
179 4 15.522257883687413 5.429665471958053 25.500129927183863 0 0 0
426 3 18.098594551853733 5.755648827309486 24.629406107333768 0 0 0
986 3 16.51376245581606 5.943547142419572 24.553839628353824 0 0 0
1554 5 17.48678465271346 6.8218837576133735 25.124498769521264 0 0 0
398 8 20.929190372732254 5.9197928803412685 24.563090651409794 0 0 0
1493 3 22.281256083653403 5.371801782519377 25.004248396717962 0 0 0
687 4 23.545301684818597 7.416041536406119 25.87585103287802 0 0 0
1494 5 21.550320036672424 7.0416815519989 25.75599317988291 0 0 0
1492 3 21.929874938060333 6.872695888184253 24.9284398343483 0 0 0
696 3 24.54458739073021 7.956638027375751 26.873998910416155 0 0 0
207 6 8.387166462357118 12.553169654462472 24.967363976545357 0 0 0
237 4 7.390070337841193 11.806150102587397 25.841562085268848 0 0 0
898 3 8.043868025236675 10.57235705274826 26.496791980612972 0 0 0
1099 3 8.278371097965643 9.707259834929664 28.011489988946202 0 0 0
1100 3 9.312382151205325 9.720123409679358 26.797075394072568 0 0 0
900 5 7.677917111082328 9.758923877795635 26.102885793116805 0 0 0
876 5 8.659796574207022 11.41355699385893 25.546641345986426 0 0 0
156 3 7.006986253456326 8.984538533643715 28.616903425050168 0 0 0
246 3 6.564449771036898 10.885706172643431 27.05510489970212 1 0 0
89 4 5.994807526449657 12.308669833956815 25.74502287612089 1 0 0
1481 3 5.543219753937625 9.281605215249213 27.704459545547994 1 0 0
245 5 6.3274657721281455 11.314104436120585 27.854251559074164 1 0 0
227 6 9.570132097031658 13.145727953107038 24.069248325306734 0 0 0
875 3 9.827593876227795 10.72436197404808 25.53364460569897 0 0 0
223 6 11.111291086182117 11.15889341599348 24.401344706602956 0 0 0
874 3 9.89896467316846 11.916946738497378 24.70314919573046 0 0 0
1101 5 9.952717401041847 9.107654101038062 27.203999660917223 0 0 0
1565 3 10.416581995355733 9.308146836870751 25.732490844408257 0 0 0
1659 5 14.661112452560829 11.372445056870136 24.57253355071819 0 0 0
218 8 11.873925346003013 9.239795228946916 24.7130601286653 0 0 0
539 4 16.454016117022274 11.185974815353143 24.183696169039766 0 0 0
493 6 17.71730281815447 11.14243210396679 25.112445091243096 0 0 0
488 8 18.51137290564686 9.934910138304582 24.882423221407713 0 0 0
776 8 19.16731297048781 10.643897356689216 26.098778601188545 0 0 0
787 3 19.291114967018036 11.76348144301839 27.142121207403637 0 0 0
1102 3 17.24746312928636 12.511840794258639 25.40012458085241 0 0 0
1104 5 16.45650727988877 12.812224504067384 24.855755026121404 0 0 0
1673 3 18.197608144005798 12.883702242003618 26.70777763083262 0 0 0
1674 5 17.544482819122237 12.595913246657824 27.36676784720758 0 0 0
1437 5 19.71512871592901 12.393099384387705 28.517648303228423 0 0 0
1436 3 19.245668529095052 13.002747313079162 27.924236929663028 0 0 0
771 6 24.748652496061123 12.637600294999462 25.10620847669548 0 0 0
726 9 25.768967758890987 12.233579473129712 24.702706975919 0 0 0
777 4 20.333731278082773 10.541522615264162 27.109002191116453 0 0 0
695 5 22.929300899074534 8.984384694665655 25.527091675319735 0 0 0
758 8 24.360266316647653 10.647699736939233 26.59638014838315 0 0 0
809 4 23.01690107724575 10.252177711512125 26.798731077524206 0 0 0
890 3 21.656100581083855 10.013762938977223 27.110201113784086 0 0 0
1153 3 23.514673998805957 8.904081128591944 26.350320408469166 0 0 0
1155 5 22.833233211204202 11.227239327717074 26.831850794061918 0 0 0
1930 3 20.864602692607274 9.661559486886551 28.40084472315249 0 0 0
763 6 25.659092269731556 13.568285667435314 24.989540524969016 0 0 0
1154 3 25.22836826241331 11.821307951234683 26.082070520910523 0 0 0
236 8 25.892461051493434 10.459497077823505 26.9422200560677 0 0 0
1001 3 9.37593018335403 17.150587367588646 24.5096116475079 0 -1 0
31 6 8.578296092240826 14.118888731773742 24.744147615490398 0 0 0
23 6 8.672299133592853 15.81882413948592 24.90788991126419 0 0 0
1390 3 9.449973482050524 16.596055436311346 27.777461231788106 0 0 0
1869 5 8.600722055307015 15.904167381018468 28.45718603347058 1 0 0
326 8 9.433175004088698 16.65827940817589 26.082849421346985 1 -1 0
38 8 7.630678991447326 14.84197711863773 25.696895879302392 1 0 0
327 4 10.897794613775288 17.036054077314937 26.700637216895384 0 0 0
308 8 13.747951257582432 17.254152401164923 27.693107661252892 0 0 0
901 3 12.37613750612784 17.203508348416847 26.67843730576975 0 -1 0
1392 5 11.014440582510096 15.661771720896025 28.109886038891926 0 0 0
1643 3 10.865932123064887 16.458350439788678 28.54874161498913 0 0 0
1644 5 12.49933912325289 16.291268323013572 26.418219105919654 0 0 0
1619 3 12.416287275506695 16.943506332530553 28.37941091653391 0 -1 0
1174 3 15.19512405105643 17.251227171533177 27.31236810659572 0 0 0
359 4 15.169107029161301 17.500864942934257 25.540336420522735 0 0 0
2001 5 17.36121951450274 16.925226236184898 26.80984210502611 0 -1 0
2000 3 17.096893115502137 15.407097529405116 26.106509348029952 0 -1 0
1103 3 17.57049702080942 14.047117986851854 26.061658657532004 0 0 0
1501 3 16.470966820054418 16.90800093726994 26.438684147115975 0 0 0
1503 5 16.83087694329586 16.083642667017962 24.727883262726124 0 0 0
1502 3 16.248763713161058 16.404790524923314 25.429458429219167 0 0 0
578 8 18.540189900743233 15.435381176469315 26.494482966476035 0 0 0
786 3 19.457299901912236 14.165925079401912 28.63522694829312 0 0 0
546 9 23.41992234897291 16.306887165689176 26.33719136615289 0 0 0
56 8 21.608963896054043 16.391410393455715 25.150479510031776 0 -1 0
65 5 12.670900413508898 -0.5871392355475136 26.774408145037775 0 0 0
831 5 19.94251047588655 16.251059891407266 25.295612364812836 0 -1 0
67 3 21.247749644454835 17.11015814920067 26.380239466814253 0 -1 0
583 6 22.102493965017548 15.988689965075437 26.611816750458996 0 -1 0
591 6 20.099578360298885 16.054877381088815 26.261622003664364 0 -1 0
57 4 19.63026620577013 15.452133356081458 27.618489541352588 0 0 0
1778 3 22.652377829346626 17.231314595608396 25.777688528541493 0 -1 0
43 6 24.553387861207018 15.900790657320247 26.138668396034394 0 -1 0
747 6 24.768636949351638 13.637288547744683 26.02035940950156 0 0 0
6 9 25.16722736043478 14.847450735867387 25.85171886385907 0 0 0
247 3 26.5024011459966 14.244271888954238 26.048305050419458 0 0 0
1855 3 27.24339271461662 15.053753579333971 26.93957112934296 0 0 0
1856 3 7.760021009166008 15.891605743532196 27.156505638163548 1 0 0
1857 5 27.326739687145533 16.294256603167103 27.718642398832955 0 0 0
1081 3 28.424829401713936 16.88489185134255 28.264240582191857 0 -1 0
1082 3 27.725896484283012 15.754909554305401 28.551361907310266 0 -1 0
1620 5 4.788180562938461 -0.4786194941180415 30.776090272402218 0 0 0
1389 5 8.475503780090548 1.6252552048467153 28.825482399926237 0 0 0
1175 3 6.932508829576583 -0.5344491663403197 28.722481359021234 0 0 0
1388 3 7.9325792587969595 2.4100099500005605 28.991324662196742 0 0 0
1027 3 7.164896228619737 0.7666393657482394 29.679322821901657 0 0 0
1029 5 7.075684186007347 -0.25718961338777857 31.11512503601559 0 0 0
1498 3 6.834214963466048 1.5589994206089224 31.0697748750512 0 0 0
1500 5 6.5034593121277675 1.7827554078912526 31.94301012767466 0 0 0
1933 3 8.025452227722699 1.6643018759539754 30.593154556892667 0 0 0
1935 5 8.666324289075899 1.7963360517361109 31.303012681074428 0 0 0
1934 3 7.0785686446873 2.9665283534665687 30.321321668861856 0 0 0
1028 3 6.483852658584922 -0.46581922910391715 30.307368173701523 0 0 0
1265 3 12.63093076711931 -0.11884408126127566 32.973325322767266 0 0 0
1959 5 14.080469635422293 2.202526113604759 32.77616237191762 0 0 0
1162 3 13.33124562966869 1.5904452608490758 33.459068165854575 0 0 0
1164 5 12.499269465480607 2.4699868940649647 33.10715704539356 0 0 0
1163 3 13.641677056425001 3.077619499855828 33.46724220529924 0 0 0
1779 5 21.50227781882887 17.405409168091218 31.030949170667036 0 -1 0
1093 3 16.36844651050293 2.862075873436577 28.59804954328032 0 0 0
984 5 18.020180599163112 0.9481743641339655 31.268934469675656 0 0 0
1831 3 17.303598871446116 1.9627927605829112 30.451064019524384 0 0 0
1833 5 17.817500780818104 1.421239944827199 29.415566863878702 0 0 0
1957 3 19.259775453075225 1.42232346646817 31.81222972961642 0 0 0
1958 3 17.01699749444583 2.2087630824851776 28.93370613462731 0 0 0
1048 3 18.781826945123726 1.5821868337926788 30.416438280312327 0 0 0
1050 5 18.967149807720443 2.6681739481862343 32.04238766175189 0 0 0
1885 3 18.013360683362134 2.025331550327583 31.78964808701154 0 0 0
1886 3 18.252095219891046 2.6127618146493012 29.501866481259963 0 0 0
1887 5 19.251885497962352 2.7358706854830053 29.795068362522453 0 0 0
1095 5 16.197854151806013 2.225264349343934 29.774219108709005 0 0 0
983 3 18.40762315645454 0.6739126002509299 32.742529421348024 0 0 0
1049 3 18.50484368388412 3.0914462487304952 30.852615255786567 0 0 0
1094 3 19.732908464118502 2.547274376630428 30.973006830088945 0 0 0
1464 5 4.733848055211647 5.821500029630084 29.264459703486526 0 0 0
1905 5 4.487722918711102 7.15307577393322 33.48006685807536 1 0 0
1206 5 4.626901366813919 7.484179119046667 29.177691897307668 0 0 0
1462 3 6.097265725755099 5.642178881007402 29.335222791604377 0 0 0
1205 3 5.540658727218481 6.735573308501559 29.20813062574299 0 0 0
861 5 6.652189780942056 6.841464339446209 28.949965028719923 1 0 0
1463 3 6.702117669120249 4.326335964104079 29.765196884597746 0 0 0
903 5 6.66720664818814 4.631963702767171 30.691810046128964 0 0 0
155 5 8.5987944804923 6.912777075800564 32.591945264083705 0 0 0
1891 3 9.679811353331155 6.719129193406722 32.088799709453866 0 0 0
1893 5 9.708164979543923 7.123330311055839 30.993167815665192 0 0 0
1298 3 9.279044872821483 6.433684870338558 33.477494873481916 0 0 0
1892 3 9.590408509751086 7.759555599961217 33.09877726154906 0 0 0
1442 3 8.857172656275957 7.7996986429822766 31.765073273561 0 0 0
952 3 9.284056894842491 8.536701262077539 30.556437186648086 0 0 0
1411 3 5.044986871222713 8.317918199516036 33.42998733848931 0 0 0
1596 5 13.615308232461325 6.074633913868981 29.607109826286308 0 0 0
516 3 10.305211465727737 8.07498892805288 31.634344996229267 0 0 0
1441 3 10.889264861308275 6.750187881419704 31.647218889836612 0 0 0
1117 3 12.450980856635944 6.099415890491915 31.487665654987918 0 0 0
1297 3 10.686970096126055 6.600449349396639 33.17438244691989 0 0 0
1416 5 13.743547293994565 5.221774610370437 31.432811316880457 0 0 0
1594 3 13.859196839699763 4.8833856769327415 30.036928958740706 0 0 0
1219 3 13.797795268645313 6.5355641025065045 31.672163591841517 0 0 0
1525 3 14.3759739948511 6.899938568867862 30.125285882594635 0 0 0
1526 3 13.260617270557429 5.814086874492553 30.589121748373664 0 0 0
1414 3 13.926388083185245 7.930152375645367 31.205015262363215 0 0 0
1527 5 13.236947488831749 6.912567650684437 30.49472923109146 0 0 0
1118 3 14.651517362241794 5.75428659242341 30.783927956264368 0 0 0
1443 5 10.871255977414828 7.622746775989034 32.6565184244681 0 0 0
1383 5 14.465692166687178 7.823613049030976 32.35117356141225 0 0 0
1004 3 14.851517680591684 5.582372093155346 29.2731503324566 0 0 0
993 5 17.63014337010272 3.1714286376023084 28.6309311519458 0 0 0
991 3 15.511203892065822 3.314882968984976 29.453794117721845 0 0 0
1005 5 15.464482111919686 6.712340763873923 30.584118584110108 0 0 0
1220 3 15.125629862486225 7.150848450819617 31.58873330913217 0 0 0
1832 3 17.00372781569518 3.3301017879406447 29.859305694886046 0 0 0
1638 5 19.423891239845346 7.090482327733545 31.246715853967753 0 0 0
1221 5 16.176143613116167 7.716188290816725 31.171140403394205 0 0 0
1381 3 15.22411882889383 8.111248597734532 30.52512239599006 0 0 0
1415 3 15.509756750604737 8.070550313754213 32.05313911777816 0 0 0
843 5 19.860394039236578 4.539857611547415 30.554854421038925 0 0 0
1798 3 19.955282828481938 7.418340734309019 30.27682488405417 0 0 0
841 3 20.16488921359238 3.965846752815161 31.311445077071696 0 0 0
1652 3 20.511174024469817 7.139527664722723 31.771221816591837 0 0 0
842 3 20.777578855299204 5.313895833879486 31.50136491888414 0 0 0
1636 3 21.154608053476068 4.195335489464059 32.437411815840605 0 0 0
1097 3 20.889469700315352 6.464477727042178 30.55839663132686 0 0 0
1800 5 21.74179932399489 7.406085381732982 31.267843874663512 0 0 0
1799 3 21.34765121846055 7.905851410624824 30.354917637588198 0 0 0
1226 3 19.74710245045889 8.2632246544736 31.389468843822662 0 0 0
1931 3 21.204791891730498 8.402746991636072 31.68534194979439 0 0 0
517 3 8.95391543948964 9.884680913258913 30.792617183960758 0 0 0
954 5 8.307678188178308 8.821373853127255 31.36002221051623 0 0 0
1216 3 8.276667461847403 9.34204212902938 29.507700595946435 0 0 0
1306 3 8.893922260760382 11.104973090544592 31.57800906263589 0 0 0
1307 3 7.991271264650489 12.13420740560189 32.23327861370787 0 0 0
1468 3 9.490944191170444 12.338590062129477 32.092125403519944 0 0 0
1716 5 6.070020513122791 8.888646918282326 33.09108854266883 1 0 0
1106 3 6.349785776134434 10.116834859154652 33.20221907459879 1 0 0
1261 3 6.631573201606275 11.829474473398422 33.0021382205005 1 0 0
953 3 9.41352091297754 9.23939688511942 31.934617888717376 0 0 0
1714 3 5.6695113292973085 11.000603163060049 32.288520175393636 1 0 0
1412 3 25.77639589917468 9.611027623351301 32.79427844359661 0 0 0
1308 5 10.311399847932936 12.120828434327805 32.56777248446383 0 0 0
515 5 10.239098081632026 9.179047019247339 30.894820939892945 0 0 0
1240 3 12.258664813648522 12.985371156617422 33.51570469301424 0 0 0
1241 3 11.120224915567787 13.476164846063002 32.609441282313725 0 0 0
1196 3 14.691874180734422 9.14638393707594 31.57353835765332 0 0 0
1310 3 14.890413402182157 10.525862317872146 32.743639765607 0 0 0
1098 5 16.43725455980449 8.662759265196133 32.272627917578234 0 0 0
1197 5 15.486038999353841 10.05650585238735 31.65883131843643 0 0 0
1096 3 16.15283454530603 9.100343709132003 31.236986706942716 0 0 0
1382 3 15.58221180315026 9.374176508476802 32.70862056653121 0 0 0
1647 5 19.327061365125054 8.372429891724964 30.343295895087433 0 0 0
1309 3 15.108537361103753 11.963416997448252 32.98469441741648 0 0 0
1227 5 18.768111205103928 11.302387891233002 32.968923040631466 0 0 0
1311 5 16.18550204249638 12.783405881059501 32.8653071061983 0 0 0
1946 3 19.328102342961913 12.501245400205587 33.41677707878249 0 0 0
1947 5 18.191316240603328 12.997281764592957 32.96666283768501 0 0 0
891 5 20.276591061967448 9.747016207864956 29.587011668446976 0 0 0
1645 3 20.118360186827683 8.514839962514598 29.460105116831173 0 0 0
1653 5 21.834438939125434 8.832083763363315 30.861296282968972 0 0 0
1646 3 20.539970391539953 9.242832006488706 30.652834495949875 0 0 0
889 3 21.48701896964812 9.249791726848375 29.642481764796862 0 0 0
1945 3 19.972564439315118 11.274740556753317 33.02220680268273 0 0 0
1126 3 20.34800131090805 9.615984344475988 32.49312673314451 0 0 0
1962 5 20.66687215405291 12.233279637912455 33.40375282589183 0 0 0
959 3 26.873416783479964 12.741436348600574 32.1616977147849 0 0 0
945 5 25.123073874764327 12.778215608772088 33.21014037476182 0 0 0
1932 5 25.236586016172986 11.159238957515793 32.699050662951024 0 0 0
1262 3 25.96817855804755 11.88592033308121 33.33881912428369 0 0 0
958 3 25.59446784047169 12.261228532078368 32.25170719863728 0 0 0
960 5 25.864313376003462 13.012673296584495 31.397709217592162 0 0 0
1263 5 26.618890056802673 12.778530350045791 33.42088036000217 0 0 0
943 3 24.928537209922084 13.184365479917263 32.09687336527752 0 0 0
1391 3 9.578956838226606 15.866493489355749 29.628192408616048 0 0 0
1507 3 9.636410899369645 14.918466890441966 30.88501909242485 0 0 0
1470 5 8.9137802083055 13.791962308637256 32.14902522375191 0 0 0
1469 3 9.88432982319278 13.81345458757451 31.86862636890834 0 0 0
1509 5 8.030260009243918 15.619885262634938 30.545421198810484 0 0 0
1868 3 7.856065417301665 15.686446292359197 29.56514820727433 1 0 0
1867 3 8.33385448955443 16.875234628975836 29.43439587734527 1 -1 0
1618 3 13.102025073214932 17.07851699999656 30.361993600819407 0 -1 0
1508 3 11.045357519613535 15.545891342229153 30.728165368951814 0 0 0
1253 3 13.577715028098758 16.576243670005983 31.54704246638454 0 -1 0
892 3 11.749382673145648 14.8604544657488 31.904176223288562 0 0 0
893 3 14.005901428358593 14.412978955798431 32.57825608023688 0 0 0
1054 3 11.931827938946865 16.44103520068395 29.86266034806918 0 0 0
1055 3 12.97538075832197 15.744763738918607 32.71064796852147 0 0 0
1056 5 12.358477763705508 15.931545208168918 31.12837182775048 0 0 0
1252 3 14.457698091378399 15.823452714278632 32.23795217604926 0 0 0
1888 3 12.811465282174439 14.517779654275234 33.4476709210097 0 0 0
1889 3 14.210330262448144 15.55547127858927 33.49106218135452 0 0 0
894 5 13.823099067952986 16.594933664836123 32.93039696550545 0 0 0
1176 5 7.896931645364811 -0.70298918080885 28.780710255102843 0 0 0
1839 5 15.195975813208634 14.800792276458292 32.600735110537244 0 0 0
1672 3 15.27869407138844 13.514825820420423 33.23922664249359 0 0 0
629 4 20.052854843017293 15.407078239265527 29.227561869850202 0 0 0
785 5 19.623474347776703 14.015808837303142 29.598747065597724 0 0 0
1264 3 21.186762302506015 16.99048801901902 32.268773028087836 0 -1 0
974 3 20.526001704807832 16.830431513313698 31.213210486332393 0 0 0
975 5 19.688743226165947 16.28250452721494 30.607314075095434 0 0 0
1777 3 20.446957617704335 16.69746582968737 29.805152215043417 0 -1 0
1670 3 22.469810792818155 16.740062193729162 31.721101066770427 0 0 0
883 3 24.287529858930395 16.19139709297823 32.14771540478693 0 -1 0
1671 5 23.664781982367316 16.387198001043206 31.20974598394403 0 -1 0
1369 3 21.566124749987587 15.553762724099867 31.817112479469102 0 0 0
1746 5 22.11954871347798 16.173778746728882 32.75393067949116 0 0 0
944 3 24.331696565270857 14.298026175280548 32.53291692210544 0 0 0
1373 3 24.22126705574136 15.103524949405962 31.34093632555209 0 0 0
1374 5 24.431788546694932 13.906732075187316 31.28429170349225 0 0 0
1435 3 21.690805730653807 16.307911083846218 30.46577209234025 0 0 0
973 3 20.51777563809901 15.461830712710501 30.835647348279345 0 -1 0
1266 5 20.422838370309186 15.932043903742535 32.03370043577498 0 -1 0
1370 3 22.81573567827742 15.470477531199409 30.969153925552327 0 0 0
1371 5 22.458514938897267 14.736353355183994 30.537549561821145 0 0 0
1744 3 23.124738447884898 15.5633235730781 32.34954326823271 0 0 0
885 5 24.11278523793157 15.436177693166886 32.99537634814958 0 0 0
1656 5 25.208021250321135 15.998231557902587 31.38730136706966 0 0 0
1745 3 25.37071932210797 15.459801073923684 32.52072904937954 0 0 0
1372 3 25.559736126326772 14.345399332021602 31.6133674937779 0 0 0
1654 3 25.987192028363864 13.678171073152573 32.863297343714535 0 0 0
1083 5 27.82522430038304 16.739918944321587 29.349896908731772 0 -1 0
1655 3 25.52663553892727 16.791316247685366 32.43880579104548 0 0 0
1046 3 3.889839422184582 0.9761489546332771 35.28278859712111 0 0 0
1047 5 4.463313088612064 2.0569546578516498 35.58814380217903 0 0 0
1228 3 2.6110427033991312 1.4166475945312398 35.37593263054646 0 0 0
1230 5 4.586851816766504 0.3238470988209097 36.07349454817775 0 0 0
1229 3 3.8083655744382496 1.2812407828539818 36.59709837074476 0 1 0
1810 3 2.4493059892985505 1.4539695076467076 37.59664332988335 0 1 0
979 3 5.051300509685856 2.3787052388966528 36.680152060103325 0 0 0
1862 3 5.082171700881291 1.2631267008709728 35.919748436895816 0 0 0
1874 3 5.2957159990587925 0.748083188494362 37.10291720970348 0 1 0
1861 3 6.680593240525022 0.6544415768073075 36.67066887128671 0 0 0
1863 5 6.089507995174418 1.5384731173695587 36.3478965391497 0 0 0
1873 3 6.540314802909252 0.3370062384890502 38.025492462229394 0 1 0
839 3 8.754427762653952 0.6583699330641841 37.30341265990688 0 1 0
1558 3 9.32270716663309 -0.4904309322757481 37.93244443732564 0 1 0
994 3 6.286763294439384 1.8801377817828024 37.652210801489886 0 0 0
937 3 9.556665183573 -0.3215121621471855 36.60996131095531 0 0 0
938 3 9.491676604481736 0.4238532513296578 36.0670452386325 0 0 0
1875 5 6.795351331672474 -0.3947551865037662 36.94255702811189 0 1 0
838 3 8.022177917045497 -0.06875368758909661 36.29293093168849 0 1 0
840 5 8.968597270078128 -0.6034947372212778 35.647019219206385 0 1 0
1559 3 7.716811338999755 -0.13765990435219566 37.773494731813344 0 1 0
1560 5 8.610298470406322 -0.8515067905546065 36.98122230603762 0 1 0
996 5 7.441308367221643 1.0768651044341067 37.24062068287262 0 0 0
1449 5 9.689448421417223 1.1005190134001592 34.93883972750733 0 0 0
1366 3 14.811153005729437 2.124996024872414 33.72759854603319 0 0 0
1546 3 11.925591432767497 1.550827779839567 33.65958018389652 0 0 0
1669 3 11.505270233265273 0.1730789949223155 33.89832537102521 0 0 0
1548 5 11.477950170761702 2.220851902362017 34.58901923350098 0 0 0
939 5 10.113257595026 0.5532485833451231 37.09165547399206 0 0 0
1448 3 10.774926094405668 1.3367409160236259 34.61381373822395 0 0 0
1514 3 12.343588095493406 1.3159185063589407 34.985142480492485 0 0 0
1547 3 12.526604418128738 2.578133709823589 34.31954186394121 0 0 0
1447 3 10.39946358855605 0.9734184882270007 35.96203955514852 0 0 0
1513 3 13.808954063792946 2.153643294753058 34.83450654432349 0 0 0
1515 5 11.442515004333524 1.5096687724086046 35.70665403386225 0 0 0
1660 3 11.390210711063535 0.23438496155222333 35.37685397748089 0 0 0
1662 5 10.604122855327352 -0.26111248691702804 36.21427522630697 0 0 0
1661 3 10.010916950149461 -0.15181743422140948 34.96204611520642 0 1 0
1368 5 14.741461329072399 1.926370194818277 35.14003992849372 0 0 0
982 3 17.954478299042435 -0.6174754170462067 33.426674461972596 0 0 0
1578 5 19.09039836074813 -0.14051557525223357 33.42070883388007 0 0 0
971 3 18.507802733115945 2.2980905414929356 35.420245449466165 0 0 0
1520 3 17.773680224934928 3.077205027871418 36.32369151667871 0 0 0
1521 5 18.498970485875653 2.190644277122135 36.690964659251975 0 0 0
1577 3 18.546573637246365 0.5494253895491008 34.350136973279305 0 0 0
1015 3 18.96554870730222 3.180008732883506 37.099156410542804 0 0 0
1576 3 17.955953277985188 -0.7379598541640187 35.101907640020556 0 1 0
1009 3 19.482470587322467 1.4059877814808992 35.171292719747825 0 0 0
1010 3 19.698564462680597 2.6172140046612187 36.108767791084475 0 0 0
1519 3 17.48409482678552 3.12815906907959 37.761515332624825 0 0 0
1998 5 16.559272158452533 2.993441576419989 36.73163766515151 0 0 0
884 3 16.699097335271414 -1.0422724328476995 36.2916781017819 0 1 0
1676 3 16.32021968419713 -1.030621901109987 37.7289192648099 0 0 0
1053 5 22.745934736666147 3.1942876157194404 33.606980601613884 -1 0 0
1011 5 19.76642910403271 2.613394694103009 34.81397784547137 0 0 0
1834 3 22.729552299101677 2.8038599270407936 37.44412846211762 -1 0 0
1045 3 22.24358453364284 1.891398592348556 36.21244073311483 -1 0 0
1051 3 22.712519301538563 2.4751030805939163 34.68161874717383 -1 0 0
1835 3 20.989900933108668 2.151209664206802 35.152397141044176 0 0 0
1836 5 21.888660328002643 3.031297028798658 35.63982484687942 0 0 0
1924 3 21.629562364245974 3.2497892829331008 34.05837713884458 0 0 0
1790 3 2.871742401184521 3.978036708753482 37.310602569012644 0 0 0
1033 3 4.4090819187277015 3.731758672653256 37.20253050229745 0 0 0
1404 5 4.5185710955804295 6.410215676075007 35.18945710519294 0 0 0
1789 3 3.6915474127676475 4.864573539789343 36.36621071464555 0 0 0
1035 5 3.8467017464048174 4.736026353536506 37.73805952550093 0 0 0
1791 5 3.2593909600537367 4.7460047861644 34.97736436092757 0 0 0
1765 3 3.5932976058400095 5.690273262391207 35.21570877362804 0 0 0
1499 3 3.7658768700403473 6.52356969696276 34.283384314510926 0 0 0
1402 3 4.950643079898227 7.440279691726247 34.54266421375013 0 0 0
1431 5 8.859607711283896 5.896350661790447 34.3745449631092 0 0 0
1733 3 9.224171147471878 7.164403291742903 34.70989701358826 0 0 0
1783 3 9.115876410837673 5.963699023682956 35.4954188701074 0 0 0
1785 5 9.051796471067902 7.103589152145271 35.95425229838831 0 0 0
1457 3 9.618178859201395 6.223737043895127 36.76353074521057 0 0 0
1754 3 14.601913667175197 3.272585671234742 34.68400374087828 0 0 0
1299 5 10.312061327203036 7.423107538096669 34.00761786216481 0 0 0
1019 3 10.061758744308573 5.953985130696939 38.04958609147792 0 0 0
1119 5 10.302382403856909 5.530044267692993 35.79570142671919 0 0 0
1755 5 13.307886296720122 3.3761136041377937 34.68326504705267 0 0 0
1732 3 10.29690090738771 6.9188003917058625 35.731706317601024 0 0 0
1007 3 10.190537043347028 6.029691626175762 34.5321888748242 0 0 0
1429 3 13.476463053629935 7.1790148384006685 37.785327302141326 0 0 0
1430 3 12.001404549385631 7.159308387284657 37.04305151876275 0 0 0
1688 3 12.509778118996337 5.995199483828248 37.62623291236736 0 0 0
1689 5 12.936429238675386 4.936443079819519 37.92002935485445 0 0 0
1694 3 14.001287251714357 5.666297751702123 37.51163281854525 0 0 0
1734 5 10.500888089272832 7.039933902713666 37.36329582751867 0 0 0
1319 3 11.019833109067335 5.929615222881811 36.74828501275806 0 0 0
1601 3 11.233689070052408 6.425180596197589 38.08039642116766 0 0 0
1602 5 11.546212671293079 5.319805734561784 37.96201379231931 0 0 0
1724 3 14.721988584984928 4.457194403197594 38.42339801764996 0 0 0
1725 5 14.826238067578997 3.67368718478483 37.37330321945636 0 0 0
1753 3 15.306574249181528 4.859288444464852 37.0915096137783 0 0 0
1723 3 15.917599259411038 3.4580877080797485 37.57048808536328 0 0 0
1367 3 15.5126561941384 3.7723476189425167 36.17292856672215 0 0 0
1016 3 18.23120360419832 4.4245957148745285 37.079663004333895 0 0 0
1017 5 18.705231545306646 3.5701052331696888 35.90646851138749 0 0 0
1996 3 17.258113648003835 5.668150342361441 37.48641165025981 0 0 0
1997 3 16.76270993759048 4.283856518661444 36.86406070000109 0 0 0
1249 3 18.46595213067221 6.251388880536959 37.36372442029179 0 0 0
1743 5 16.02184209447982 4.299967924443969 38.14604779762358 0 0 0
1637 3 22.311760654138165 4.421467785488021 33.396186984168466 0 0 0
1925 3 20.611757821591155 3.64269701683712 35.460708431699146 0 0 0
1052 3 23.107941765746695 5.138023364061315 35.8548408251541 -1 0 0
1403 3 22.971957435738744 3.934354492845336 34.560810389612996 -1 0 0
1766 3 23.09837343520759 5.476497170051902 34.337331187778304 -1 0 0
1767 5 24.139681765079416 6.4744061662616685 35.78628023475288 -1 0 0
1784 3 24.567667495116655 7.491849463445174 35.38124311493412 -1 0 0
970 3 20.07401510978796 4.350038678231946 36.837359898077764 0 0 0
1510 3 21.962766281549037 7.331780343128081 36.125060822585965 0 0 0
1512 5 20.80930402899895 6.830053925938936 35.87898293704765 0 0 0
1903 3 23.091853431231968 6.762617832727251 35.11635758146606 0 0 0
1926 5 20.65635788688911 5.408221877700335 37.39082156314815 0 0 0
1904 3 24.418698803823638 7.965474163602787 33.93589476850866 0 0 0
961 3 21.43032102244645 4.866633217378251 36.566623194752694 0 0 0
962 3 21.756650874564276 6.028742531061809 35.49959832626271 0 0 0
963 5 22.269888208714406 6.101068023883651 36.72697899680796 0 0 0
1069 3 20.091040339978772 5.827300623902083 36.33556764757701 0 0 0
1511 3 21.24706998142125 6.232459913605977 36.76547806011796 0 0 0
1413 5 5.715876838735686 8.355073151243367 34.608628242186384 1 0 0
1105 3 5.629524223780252 9.416937991936209 34.195514595437984 1 0 0
1870 3 7.760365255680071 11.717702545366063 37.6779337228145 0 0 0
1872 5 7.592632215421347 12.746478479753279 37.84732306527509 0 0 0
1518 5 8.338786509174433 11.152777471038375 36.894652159759275 0 0 0
1107 5 6.034646289737181 11.213047220746983 33.853465551168426 1 0 0
1517 3 8.61537322943816 12.553924094127176 36.90108520528538 0 0 0
1691 3 8.533890077404275 10.636701988291556 38.113784176975244 0 0 0
1692 5 9.637092438598438 12.556074235745339 37.68142300630279 0 0 0
1690 3 9.274578697267764 11.49827716739791 37.446126642047204 0 0 0
1516 3 8.661564301522292 13.08122003986932 38.192953166248344 0 0 0
1838 3 14.031390484819488 13.21271592314709 33.595366831532516 0 0 0
1378 3 13.981168867691727 10.917337859828763 34.0449953625718 0 0 0
1380 5 12.972013509456616 10.578395118605203 34.75996694478219 0 0 0
1837 3 12.985862564658364 12.001521893836742 34.43503170243932 0 0 0
1613 3 13.667114198775277 8.65191830059951 37.848326622911046 0 0 0
1006 3 12.845106556764437 8.540558417081074 36.60206264194706 0 0 0
1008 5 13.348514849112874 9.042457375012845 35.571664210025006 0 0 0
1345 3 13.061986144828222 10.068715965979132 36.25231033546673 0 0 0
1346 3 13.78795275414393 10.149601810490099 37.5534039300901 0 0 0
1347 5 12.814941354136577 9.520869788251026 37.389408842295126 0 0 0
1379 3 13.411365834936799 11.35681963282566 35.64433145666048 0 0 0
1612 3 14.134345963778507 9.171728083910137 36.57927185921979 0 0 0
1823 3 13.97057028584951 10.00155149608353 35.181801688094325 0 0 0
1824 5 13.386036013292642 11.101895075526402 36.99199994105585 0 0 0
1242 5 11.722385963355428 12.938287544410777 34.33718381445247 0 0 0
1822 3 14.596928341491532 10.636258711772062 36.43420497907967 0 0 0
1990 3 14.636573858092166 11.147402652495835 37.754558886170244 0 0 0
1614 5 14.90649419865533 9.844996374836073 37.474809412592535 0 0 0
1961 3 18.032751627351495 12.059424718361234 33.72919933483375 0 0 0
1664 3 17.103427787593965 13.163986243422311 33.77905552824649 0 0 0
1630 3 15.65997069397866 13.03477287052701 33.876226076428594 0 0 0
1821 5 14.867694520237016 12.157504127174347 36.89266090388779 0 0 0
1685 3 19.145926889721483 11.135920665052998 34.18524731665448 0 0 0
1820 3 15.001848817053178 12.605799596208126 38.022576688857555 0 0 0
1686 5 17.765368302859855 12.985125132604285 34.831933481510475 0 0 0
1910 3 18.842246546444358 12.431974943794282 34.92973467750231 0 0 0
1819 3 16.80446923831258 12.758443806467325 36.38254697076535 0 0 0
1031 3 16.137340614658516 11.909823387562513 37.400825717815806 0 0 0
1032 5 17.117900534289554 12.412133738293308 37.69086679332129 0 0 0
1663 3 16.341084788209255 13.32834955244293 34.973602013490535 0 0 0
1909 3 18.50879823975633 13.534106342043746 33.98716888029354 0 0 0
1684 3 15.401006355665203 13.232112073154081 36.76386497289002 0 0 0
1991 3 16.4850243572578 13.448179026134776 37.60346080003704 0 0 0
1911 5 19.635830892816163 13.29994446903883 34.390010358588185 0 0 0
1128 5 20.25076996763103 11.205799236860368 34.98878043400332 0 0 0
1960 3 20.261896415779628 12.299692880974828 34.53402776401731 0 0 0
1651 3 20.07167077153608 10.016230133146124 34.12425784484584 0 0 0
934 3 21.937359228524688 8.779161088829703 35.95706502494561 0 0 0
935 3 22.088265012633258 10.169753435175084 36.518589954955445 0 0 0
936 5 21.85771491635732 12.260327988478004 36.85810285445774 0 0 0
1127 3 21.28405332851469 9.881628699582757 35.17525666819053 0 0 0
1225 3 20.958174967632687 11.199686081090002 34.04105890345147 0 0 0
928 3 21.727958778433518 11.161898234744429 37.56906817249977 0 0 0
1139 3 22.60137199981782 13.22561272973294 37.17231266150327 0 0 0
1184 3 23.078457371728167 11.804191533032283 37.06015789036894 0 0 0
1994 3 23.72306236569721 12.874836694554878 37.99360088586087 0 0 0
1722 5 23.990818836932185 11.73281999403753 38.06655632192269 0 0 0
1715 3 25.777860618013246 10.714495708583172 33.65507350899246 0 0 0
930 5 25.04573254261561 9.596280592415908 33.75322321318538 0 0 0
929 3 25.22030842570409 8.841174458626785 34.748289750215136 0 0 0
1890 5 13.956615749551746 14.367397491677425 34.04536345449634 0 0 0
1631 3 14.939574331212379 14.571343722476087 33.66411791691709 0 0 0
1665 5 16.095119592507064 14.211350977445772 33.77652681379563 0 0 0
1254 5 14.889452603816874 15.818598414046376 34.109175135493885 0 -1 0
1632 5 15.00949516007621 13.878807744948293 34.49266593317623 0 0 0
1992 5 15.449636922792786 13.634066340016282 38.15048532597106 0 0 0
947 3 23.91848040728791 14.579539362538185 37.0885306115178 0 0 0
1675 3 24.014350278665773 16.107506893357034 36.53040505815312 0 0 0
1677 5 23.54104802249951 17.068491252483902 36.85696730544305 0 0 0
1339 3 23.648142570798136 16.070955114136808 37.894673420672135 0 0 0
948 5 24.86457595545068 16.231787277568618 35.68742465130606 0 0 0
1057 3 24.8873620033052 15.4911968654996 37.91363606591722 0 0 0
946 3 25.251738479868354 15.393496050600628 36.53487205520901 0 0 0
1058 3 26.09192704055435 16.575428954028517 36.16669033343631 0 0 0
1059 5 25.990081119923964 15.63532703081828 37.42306039015408 0 0 0
1340 3 25.508446599908115 16.64905128936889 37.41638615946236 0 0 0
981 5 3.390026171716472 1.5327006756640265 39.33895416503843 0 0 0
1811 3 1.9801743466270092 1.4535488847357172 39.11054834092272 1 0 0
980 3 2.7365039998375695 2.064770984619151 39.989375895406255 0 0 0
1108 3 3.976704484920422 2.7313641294018054 40.008458301350615 0 0 0
1109 3 2.832274883201925 0.5327915496093281 40.01571836109832 0 0 0
1110 5 3.209667329364719 2.359380196485738 40.97508179256802 0 0 0
1634 3 1.998922927851095 -0.06755834587297915 41.537163744097356 0 0 0
1169 3 3.9696433640447104 1.3723193683524957 40.547181457537434 0 0 0
1633 3 2.542866622282041 1.3887360624579428 41.189078488955644 0 1 0
1170 5 4.031468271485272 0.7374210922426874 41.24992210480596 0 0 0
1795 3 1.0108593705498121 -1.1823206152550307 41.879597957412955 0 0 0
1635 5 1.264384115552149 0.08665835240945663 39.87991440343416 0 1 0
1151 3 22.239908022560257 0.8931506625840444 40.3599670953153 -1 1 0
995 3 5.452564157142261 1.0515300672165913 38.912674237079614 0 0 0
1168 3 5.506423622575284 2.2362317835945102 40.18903588975401 0 0 0
1313 3 6.749059692949843 1.8374407596512086 39.21599059229881 0 0 0
1314 5 5.844293842477001 2.9048682234181067 39.06379488967025 0 0 0
1063 3 12.587263657940579 2.2418357784582863 42.19630785485178 0 0 0
1065 5 12.271616406689025 1.196772892399836 42.514777691179816 0 0 0
1193 3 11.719547482707744 0.06183580217164364 40.88046881024947 0 0 0
1406 3 11.185842650246158 1.7817922542186861 42.02915047057604 0 0 0
1475 3 12.22830996747589 1.3868194787127621 41.030629421190966 0 0 0
1828 3 12.110312701848148 2.5882772356880164 42.95921720333078 0 0 0
1192 3 13.22967204588485 2.7115255424778084 40.88256944685611 0 0 0
1076 3 11.771470760240536 2.882249465393894 41.08445237271327 0 0 0
1407 5 11.39901461692797 3.0431056428199743 42.26850753322596 0 0 0
1194 5 12.472178346776973 3.2452346719252296 39.78649907172907 0 0 0
1077 5 12.64096912932951 3.349791531576253 42.020550575322744 0 0 0
972 5 18.914203361639714 2.5277571291888963 38.76085402795435 0 0 0
1330 3 17.100499148936873 1.5790625912451721 41.192050240220425 0 0 0
1331 3 17.940715388221463 2.521506998137469 38.96036388390314 0 0 0
1332 5 17.63929336200581 1.5745009626126978 39.93580324641921 0 0 0
1742 3 16.556686769996624 2.3283250846111883 39.82933830718194 0 0 0
872 3 17.156141879778684 1.063225639248575 42.59455271587717 0 0 0
873 5 17.814453518965433 0.6179429286445328 41.641706577670575 0 0 0
1070 3 18.377475886104058 1.588548152900472 41.02742022006494 0 0 0
858 5 15.761183253966712 2.578285592385387 41.50568545342294 0 0 0
1432 3 18.52843521216422 1.4062446900457957 42.39779365157817 0 0 0
1071 5 19.30861901249551 1.690180825602249 40.81254152016167 0 0 0
1621 3 15.451043538366012 3.1479168807403095 38.78733337954493 0 0 0
871 3 17.92584527608231 2.7032558376046616 40.31059790507102 0 0 0
1696 3 18.212275965054975 2.783103467111508 41.68464103459941 0 0 0
1697 3 17.3905404270167 2.491599407069475 42.506424791660436 0 0 0
1433 3 16.735315508988432 2.872861607175544 41.354416153253794 0 0 0
1812 5 22.453701622753346 2.0714166475429856 40.31275735371146 -1 1 0
1506 5 21.367248421820438 -0.2933171295553052 42.823624803972834 -1 0 0
1505 3 20.586927459085313 -1.1588868665372158 42.62643981359773 0 0 0
1034 3 3.771063985188421 3.6383977252860946 38.587229404121985 0 0 0
1312 3 4.989226919216419 4.547363774513302 38.50485485955065 0 0 0
1988 3 6.853329612142339 3.2194355261925676 39.74736667548699 0 0 0
1020 5 6.40721269991556 5.666633463155815 38.60917271659156 0 0 0
1781 3 6.5566119610780085 4.413919233199639 38.88611952339458 0 0 0
1458 5 6.801213058077126 8.109898995654687 39.207450485700974 0 0 0
1018 3 7.91123046574547 7.432572549273211 39.382046968230156 0 0 0
1951 3 7.0771410037837565 6.329306626909889 39.3708316197101 0 0 0
1987 3 6.803294216967029 4.562892491902451 40.34416166385904 0 0 0
1320 5 7.859373326666702 6.3681998432000295 40.264076368779456 0 0 0
1648 3 5.824534809071028 5.501555989513761 39.6837450545667 0 0 0
1649 3 5.445442688232646 3.9047824665499475 39.97521931146022 0 0 0
1650 5 6.675758270326466 5.936326501413951 40.528443046072695 0 0 0
1780 3 7.292037947985396 5.513168860572891 39.503791903024606 0 0 0
1782 5 7.624284339429298 4.220101110912001 39.44539975882917 0 0 0
1600 3 8.47870815060418 6.050148011769708 39.1606441647085 0 0 0
1989 5 6.743962723856375 4.064231114769337 41.181065781103285 0 0 0
1952 3 6.747884149971969 7.3066899425415 40.32128626417165 0 0 0
1695 5 12.16573903230672 7.1360154617640505 38.25198341622803 0 0 0
1693 3 12.706604159530755 6.0706935728268885 38.38225240650682 0 0 0
1741 3 13.889087475698553 3.4833612875481874 39.61415114596774 0 0 0
1687 3 13.629086650453916 5.138398374496355 38.97994264406678 0 0 0
1211 3 13.026943971972223 4.274763199454519 40.10134977230389 0 0 0
1075 3 11.539105932722718 4.113367876900477 39.96885329447643 0 0 0
1210 3 12.06723306795607 5.216997502317033 39.17577169913908 0 0 0
1212 5 12.180293922408168 5.021704208668231 40.52652813600609 0 0 0
857 3 12.706680051954098 3.9547416148931887 40.82682061022754 0 0 0
1623 5 13.901493677226593 3.8390304746236907 40.90491133004974 0 0 0
1251 5 18.307955619997042 7.995345439647998 38.586455467337956 0 0 0
1394 3 19.21959062231602 6.894886032752546 38.28461687211011 0 0 0
1622 3 15.403328673110726 3.3399542338131694 40.260947937265755 0 0 0
1395 5 18.17590599275104 5.9422534080018385 38.61049605907576 0 0 0
1393 3 18.711651949609845 6.295639257616257 39.66288205173261 0 0 0
1250 3 17.88020692022635 7.001635413636924 38.71911045636534 0 0 0
1434 5 18.346094399755366 3.7011081744660164 41.76951042323046 0 0 0
1844 3 18.466438847732167 7.217451968624369 40.75933583837116 0 0 0
1845 5 17.707516327073915 7.118388393879416 39.750758581367805 0 0 0
1351 3 19.226912511053595 7.26253618441515 41.94261110579649 0 0 0
1843 3 19.12383338347023 7.683516474702267 39.482161137440585 0 0 0
1353 5 19.716544618143537 8.06352167680761 41.07027830104113 0 0 0
1352 3 17.87560747124728 8.284698940798975 39.74834899308465 0 0 0
2006 7 17.668354605844485 8.27495634873217 40.948056851054474 0 0 0
1348 3 21.493357718439704 7.643350776299808 42.716020012034974 0 0 0
1152 5 9.701778875117546 10.821319002975562 38.3522368560578 0 0 0
1953 5 6.241095145406567 8.40600859576477 40.47343367888752 0 0 0
1456 3 7.517949929145523 8.41958670164538 40.204376878531775 0 0 0
1318 3 6.933002417056023 9.029859739482959 39.779321377917725 0 0 0
1159 3 8.171914407940317 9.58679685216383 40.41013456043511 0 0 0
1160 3 6.429805994008184 9.668956490577678 40.37988764958237 0 0 0
1161 5 7.15649886676769 9.16096470435805 41.111323757533825 0 0 0
1865 3 7.38556984919305 10.28295237562278 39.35181927243285 0 0 0
1866 5 7.888069411434129 8.945934653403809 39.15594006939038 0 0 0
1871 3 7.994318718417054 11.936123805587687 38.98633305387325 0 0 0
877 3 9.737403818307364 9.992205910306545 41.08605463424408 0 0 0
878 3 8.693734096346827 11.048051138910395 41.15195095553291 0 0 0
1864 3 9.065141779506687 10.714032486741491 39.56307920467826 0 0 0
1357 3 5.893188195486998 10.069791533262144 41.47043345333476 1 0 0
1111 3 9.510235810380026 10.6831691765808 42.36713654346782 0 0 0
1150 3 9.41857248950838 11.931677538162516 38.65339309492684 0 0 0
1827 5 9.981812261259563 9.703290136453495 42.94677494452185 0 0 0
879 5 10.095532932490537 11.210145495649995 41.4230900973149 0 0 0
1222 3 13.622745323275367 11.535800603874536 42.53167275893395 0 0 0
1224 5 12.495653380373431 11.311827569050926 42.26392561828162 0 0 0
1272 5 14.047411300088218 11.885277054976711 41.521447252081614 0 0 0
1815 5 13.9241510888733 12.766678272902759 42.61309597873108 0 0 0
1826 3 10.456510703578308 10.590265073368546 42.376408979005646 0 0 0
1728 5 11.99655766543279 9.813844969113912 42.64066741141055 0 0 0
2005 7 14.57141035068729 10.820078635846336 42.03855753465923 0 0 0
1813 3 14.422705180488341 11.648417567077487 42.7960948458898 0 0 0
1271 3 14.92326538052495 12.464405272980363 42.13375770898267 0 0 0
1030 3 16.289128711892623 12.704427982023507 38.69638818248578 0 0 0
1270 3 15.781416621341071 12.327633127666573 39.99510844031862 0 0 0
1814 3 15.12378163565831 11.44384278611956 41.20524944080576 0 0 0
845 3 18.412598951079385 8.44353342062283 41.81722735543285 0 0 0
846 5 18.64328486541674 11.741667839929681 42.141649245145956 0 0 0
1739 3 18.95354831440203 8.528975577826923 42.985818039377776 0 0 0
1740 5 19.29871194131627 9.175787583153655 41.748731862653486 0 0 0
1771 3 18.046295802687897 10.595548412330425 41.85912243010908 0 0 0
1772 3 17.91806872878446 9.546807507919187 40.98089800454787 0 0 0
1773 5 18.17604328756624 10.145799513703228 40.26858997210425 0 0 0
1738 3 18.914013135075933 8.634275352422167 40.83537749599196 0 0 0
844 3 17.463038603115375 11.745690244342239 42.39340789495688 0 0 0
940 3 16.287772986417625 12.359012892810467 41.5017730933603 0 0 0
941 3 15.728008781256527 11.326546322486369 42.59265765133122 0 0 0
1138 3 21.853894676887784 12.42762625996168 38.00444324299937 0 0 0
1720 3 22.939992436048314 11.44779128369937 38.4333484766109 0 0 0
1140 5 21.8708219981528 13.622000276727082 38.02596428951789 0 0 0
1922 3 20.049374940533664 8.38959089727427 42.09886407797151 0 0 0
1183 3 22.554853108589487 13.136635542101137 38.884467866228164 0 0 0
1185 5 22.194637459800482 12.03284143107164 39.12828903016724 0 0 0
1721 3 23.665511513151543 12.069866631478746 39.32199158901632 0 0 0
1061 3 24.52213883863296 11.954637263717544 41.3141690167795 0 0 0
1358 3 26.608720110265544 11.234613080441619 40.481448253049635 0 0 0
1359 5 26.092649531574303 10.06493992678084 40.38415766002342 0 0 0
1303 3 25.361619790537702 10.774533912339262 41.03712553879434 -1 0 0
1062 5 25.236427118247356 11.742468287866876 40.29635264890236 0 0 0
1239 5 24.835779245941612 11.09502207604874 42.10366425371252 0 0 0
1060 3 26.065169446623155 11.346050195265965 42.14171732846468 0 0 0
1238 3 25.016959706163572 12.173071563696956 42.674016341120264 0 0 0
815 3 25.84663768192653 12.373160468012225 41.1839488837105 0 0 0
816 5 26.06807708753182 12.890864156476391 42.29215905402614 0 0 0
1978 3 24.967007460011708 13.467553979273172 41.83923609288651 0 -1 0
1064 3 18.64809693275783 16.986783164668477 40.76856552793454 0 -1 0
1729 3 18.312401354129854 16.790928430600097 39.34050036012859 0 0 0
1178 3 18.970885612837524 15.61717715455188 41.3197634495305 0 -1 0
1731 5 17.97208916235076 16.09631178836117 40.5405805429351 0 0 0
1730 3 18.815376457710407 15.725325577750105 39.9101630771536 0 0 0
1365 5 19.359499382009822 14.781885331303297 40.486203554673935 0 0 0
1179 5 19.500025385891217 16.09815769435376 39.07621960687156 0 -1 0
1993 3 23.023731246156252 14.374717972180802 38.26083180049865 0 0 0
1341 5 24.767486278814992 16.492556196075657 38.39671630834465 0 0 0
1177 3 19.824920754099708 17.054693758393466 39.75760665864054 0 -1 0
920 3 20.089837609537167 16.7253785775936 41.23327994389611 0 -1 0
1137 5 20.82992442596432 16.372140816383446 40.375674984170445 0 0 0
1995 5 22.912015889597452 15.028884268893316 38.884980732848845 0 0 0
1135 3 20.44740481741604 15.224459776665537 41.15880635426085 0 0 0
1136 3 19.985942184568582 15.683986341486465 40.02667763727506 0 0 0
1363 3 20.497736886147297 14.288910714623675 42.61620404875163 0 0 0
1979 3 24.33814210613658 14.699489085890175 42.70694375039352 0 0 0
1980 5 25.563336186852425 14.416859082954396 42.47055573329541 0 0 0
834 5 28.2118685987981 16.107865913173704 42.902869453804456 0 0 0
1424 3 1.6718401259906672 -0.786580704148102 43.192226929256364 0 0 0
1425 5 1.2161845376742204 -0.6094139194878319 44.5449494224639 0 0 0
1736 3 3.7599564348287977 0.7277229453894685 46.46027533860611 0 0 0
1737 5 2.9336763325879565 -0.28274076378230295 46.079285629315976 0 0 0
1797 5 4.695673878247779 0.8641807699939683 46.28024529834356 0 0 0
1967 3 3.8596738719629147 -1.0446847726268103 45.72419017059164 0 0 0
1975 3 3.8341292040017763 -0.3965222580814056 47.08775582617069 0 0 0
1900 3 2.819200879581288 1.9021588914116694 45.888792758733715 1 0 0
1147 3 3.019767863202399 1.6487606509421309 47.35818401797249 0 0 0
1148 3 4.034200791692241 2.44783544762452 46.710418381098464 0 0 0
1796 3 3.5337106743788693 3.184147725041935 45.53115342519432 1 0 0
1439 3 2.780482682114602 -1.3269178163188158 46.68451564575183 0 0 0
1180 3 9.813189108382458 3.1878102991392105 44.37748451063008 0 0 0
1977 5 12.972423895050543 16.891026982504467 45.823656309604615 0 -1 0
976 3 9.953308854247975 2.4958157582796723 45.77452264764963 0 0 0
1590 5 12.730131532370656 1.8485650554316413 43.561145735713794 0 0 0
1405 3 11.625711499889833 1.4556700209173397 43.42841620807589 0 0 0
957 5 14.337641889282889 -0.2857765593446686 46.10007457718855 0 0 0
1588 3 13.361894067301026 0.41155982376235944 45.676463545496475 0 0 0
1465 3 13.980488867414202 1.8558674792557024 46.35473496044233 0 0 0
1829 3 10.802521378489484 2.478479903756429 43.557920613499334 0 0 0
812 3 12.089524302335441 0.5371817390985483 46.09476696657471 0 0 0
813 5 11.094417136964806 2.9942588073221756 46.201090859004566 0 0 0
1024 3 14.622003965899985 0.6073429900057477 46.860973799431946 0 0 0
1591 3 12.747942324531449 1.1796208790768714 47.04035248160905 0 0 0
1592 3 13.77461331250564 0.5403464609794062 46.814169861561595 0 0 0
811 3 11.151067192697509 1.711454977184995 46.009058820662844 0 0 0
1589 3 12.657078962739043 1.8077913818306715 45.687933445007104 0 0 0
1681 3 11.898818579531454 1.4599593256495165 44.52765484859391 0 0 0
1467 5 12.217579725027857 1.87621792330857 47.412095091938966 0 0 0
1593 5 12.769853318063257 -0.1095894425728432 46.72304125520745 0 0 0
1830 5 11.997497402583138 2.828047640710646 43.997430398523846 0 0 0
1682 3 11.31506119672342 2.8324783708350254 45.05172312719735 0 0 0
1026 5 14.097951102706206 1.467966959503236 47.50825591991061 0 0 0
955 3 15.560855146717042 0.13318445492844222 46.17171344749141 0 0 0
1466 3 15.493641996671021 2.9643327223760902 46.23936854784084 0 0 0
888 5 15.415377235222092 2.933210267285445 47.52605506646562 0 0 0
1025 3 15.429336792256418 1.6303282068726161 47.04156361419619 0 0 0
1446 5 15.71476008953277 0.43989034095884083 47.37336077676136 0 0 0
856 3 17.948948019159015 0.994881643847404 43.8909806936318 0 0 0
1444 3 16.872159820842228 0.9808729971127603 46.66018720585156 0 0 0
1445 3 17.043468543598742 0.13800785160583895 45.14815402203858 0 0 0
910 3 17.894735444174838 -1.2421047719600056 45.431897999785676 0 0 0
911 3 18.073505906037393 -0.5462652465577873 43.89353526353341 0 0 0
1942 3 16.980480192625986 -0.6448152617521178 46.68318679565664 0 0 0
1944 5 16.643939317222426 -1.1027813812196434 45.35629405525236 0 0 0
887 3 16.614516217831206 2.728075528141429 47.17905850281592 0 0 0
1698 5 17.153846004890962 2.3031625998194136 43.46240411391521 0 0 0
1121 3 19.485382942136344 -0.953053921640203 44.74362588768339 0 0 0
1122 5 20.22785988958813 -0.5438313545524804 43.546413520478595 0 0 0
832 3 21.275525081448674 -0.9042340516594958 43.74191672393478 0 0 0
1902 5 22.726064147236347 2.0376437424584415 46.804710229774145 0 0 0
1471 3 21.043969344625516 -1.238079256251049 45.257747164096884 0 1 0
1901 3 23.32972805164605 2.9238895897443533 47.389303375339594 0 0 0
1941 5 23.219966031812163 2.936084019046941 45.17547700702782 0 0 0
1939 3 22.938227250670963 3.0978900590591794 46.253601749286105 0 0 0
1202 3 3.4547796137740434 3.8257655783945204 46.878729549388964 1 0 0
1735 3 4.944336148970561 4.046805791421605 45.929761795839596 0 0 0
1707 5 9.383855839977572 4.52195317952499 44.74699938144204 0 0 0
1282 3 7.883938654727004 6.3711098180190024 45.22613315344293 0 0 0
1336 3 7.023547548434132 5.243261991623185 45.01299561767091 0 0 0
1338 5 8.139903193206246 4.346729808850215 44.75458014953358 0 0 0
1879 3 7.367463058784515 4.020284866252271 45.76899122871086 0 0 0
1880 3 6.079881900651747 4.230985018238159 44.8693664356467 0 0 0
1881 5 6.222336903316506 3.8601891473444194 46.061279254690845 0 0 0
1283 3 7.517605241026046 5.4914682766149605 46.37103116352705 0 0 0
1284 5 6.652753499765058 6.09708997279738 45.71427398518395 0 0 0
977 3 8.68500596648486 4.197640147245959 45.8816818584033 0 0 0
1182 5 9.660937163096097 4.928366154530954 45.97775617132086 0 0 0
1337 3 6.104199037067139 5.08610390430848 46.183560915134905 0 0 0
1399 3 8.63974482393158 5.111228021644315 45.39059200507995 0 0 0
1705 3 8.9762435572872 3.6080644834467717 45.44768199933583 0 0 0
1401 5 8.722307078308802 5.929286131132847 46.162412886213346 0 0 0
978 5 9.392596073151424 3.698599861551055 46.63267296807807 0 0 0
1181 3 8.837452737734134 5.028786876941329 46.926145462925504 0 0 0
1706 3 10.243488289858291 3.9747312542215534 45.670514502217856 0 0 0
1727 3 14.07989485045931 7.397090135256109 44.647515638821716 0 0 0
1846 3 14.439707863173254 7.21370017324121 46.02690429775619 0 0 0
1377 5 13.282856337619899 7.638982263388105 45.59431643656863 0 0 0
2008 2 18.29796496247359 7.112140935412084 43.06652912291075 0 0 0
1289 3 15.081497005493569 5.298638287450023 46.38868186261405 0 0 0
1419 5 16.71984674561146 3.466262244556825 46.0779311716345 0 0 0
1683 5 15.316017955918817 4.991562171296178 45.19520189953256 0 0 0
1541 3 15.18863454673313 6.238529239368287 45.13471841654231 0 0 0
1417 3 15.818424163957014 3.956720592961722 47.18232765819741 0 0 0
1084 3 16.45923649138566 5.280099836828143 47.1178498738294 0 0 0
1085 3 16.342278004107754 5.552358147253372 45.62673212166108 0 0 0
1086 5 17.028641191672442 4.67707540775897 46.15987272795074 0 0 0
1418 3 15.970323840529232 4.278383982584058 45.873833866015616 0 0 0
886 3 17.215606172572215 3.9847306643961025 47.202025145757545 0 0 0
1913 3 15.788776644193424 7.532236680649181 45.473403604090535 0 0 0
1914 5 15.372102435746045 7.342143545331609 44.40177361315716 0 0 0
1540 3 15.819085337480972 6.618757503050281 46.5244672584971 0 0 0
1452 5 16.49836120842702 6.652185782471838 45.34226444242891 0 0 0
1921 3 20.042446185630805 7.354006320320785 43.25771152292252 0 0 0
1350 5 23.322486307526823 6.729170695569854 43.53869598127817 0 0 0
1201 3 22.83341706264806 6.0883697461798665 44.655564812458834 0 0 0
1203 5 23.032456124301024 4.035921103985935 46.96273274552473 0 0 0
1940 3 23.251674845799542 4.248129964612127 45.650444872242105 0 0 0
1349 3 21.97128651756279 6.797617254107289 43.84542975748717 0 0 0
1335 5 23.31897105356979 6.930729542317353 45.58702491530671 0 0 0
823 3 22.800432099637842 7.82559135932226 43.74461234594288 0 0 0
1333 3 22.29054444998869 7.4942213151310515 45.11675261144654 0 0 0
1334 3 23.733162193698956 7.084321866293093 44.49082605581826 0 0 0
825 5 23.786348824096784 8.285256711241148 44.2606900878566 0 0 0
1036 3 23.53773626530042 8.191657110713528 45.418294274802264 0 0 0
1923 5 21.71477179955983 8.211588136593308 43.94648394936749 0 0 0
1305 5 7.759445285300412 10.972962072820012 44.05445290432645 0 0 0
1112 3 7.981906406721574 9.756605461998765 44.08562662664113 0 0 0
1304 3 9.10483298443631 10.480368638709521 43.81048187022607 0 0 0
1628 3 8.671301961758784 10.942375335206789 44.78185698286974 0 0 0
865 3 6.793686053030244 10.273324895679975 46.536489299222 0 0 0
867 5 7.06092526735401 11.4139032252757 46.282433344428796 0 0 0
1247 3 8.176022567841384 10.811523531185866 46.37839319116816 0 0 0
1627 3 7.3502677176427955 10.5301176599068 45.225022767891275 0 0 0
1629 5 7.495880625994862 9.50466862472416 46.013725744629326 0 0 0
1300 3 7.419270936981812 10.874773257790459 47.68373840765888 1 0 0
1246 3 8.672185121685603 9.785671093329738 45.46491020190578 0 0 0
1248 5 9.267232472141863 9.519237942011484 44.46422307152639 0 0 0
908 3 7.966708077154678 9.599932301355 47.15200286069043 0 0 0
909 5 6.694712098458034 9.608088635166027 47.46527156078574 0 0 0
1551 5 9.720130560604169 10.544414603740883 45.01053884633289 0 0 0
866 3 26.922407918405714 11.151154764546694 46.95475165288953 -1 0 0
1825 3 11.70652947899899 10.907341547201709 43.040539640214334 0 0 0
1726 3 13.08268947678372 10.417622650928752 43.025322149780195 0 0 0
1223 3 12.740125797160239 11.918730361102376 43.45807849449103 0 0 0
2007 7 10.530679040657576 11.248944773868253 43.34504638926359 0 0 0
1550 3 10.031384597789087 10.328799598612983 43.91496597337763 0 0 0
1207 3 12.948326882572083 8.366100579687279 44.591358947358984 0 0 0
1375 3 12.105431018395496 9.463600719931382 43.87741187007529 0 0 0
1376 3 14.208376364301872 12.392453720064793 43.77061438381804 0 0 0
1549 3 11.142239015012327 10.15623463158585 43.3905665131263 0 0 0
1847 3 14.002992616348473 8.631786322221735 45.60080925543453 0 0 0
1208 3 14.362501994822326 8.790145911880789 44.01989911662686 0 0 0
1199 3 13.582283633844037 9.933773848314436 44.69766167777523 0 0 0
1209 5 14.788162118033624 9.441664630824055 45.03897262028548 0 0 0
1198 3 12.838368962853322 13.012636951857958 45.011011244169 0 0 0
942 5 15.36083840995181 12.440210755699173 43.18532240850378 0 0 0
1568 3 18.462864682766902 10.941472162582693 43.11214904803569 0 0 0
1543 3 18.55575784876704 12.327757986914502 43.30041085837182 0 0 0
1542 5 15.106247375237931 8.24735310589949 46.205619326528804 0 0 0
1296 5 19.323618106766588 8.40633305107242 45.06089058856266 0 0 0
1567 3 19.140485614288536 9.838314535956574 44.07826037835082 0 0 0
1569 5 18.14431061411839 9.69221443946314 44.069942879024524 0 0 0
1912 3 15.188124182508231 8.377469567982141 45.00643254181705 0 0 0
1794 5 19.19309937685247 12.545660347232303 44.83676932057443 0 0 0
1295 3 19.82327506975664 8.620517770253354 44.24530549635695 0 0 0
1544 3 19.848978939359917 12.92183669833365 43.645214387006945 0 0 0
1586 3 18.029383893419627 13.218425993924626 47.453740918646616 0 0 0
869 3 18.66769411533402 13.408154715897624 45.792997016483625 0 0 0
1792 3 18.692709696686297 13.433428235893185 44.355414533410226 0 0 0
1237 3 23.925345682240522 13.373099558041298 43.01899540672555 0 0 0
1134 5 21.506193524765692 13.176500225933225 43.33655566155497 0 0 0
1294 3 20.330833721350565 9.748795500722164 44.91856466502719 0 0 0
1571 3 21.62867027830491 10.388402593678876 44.69629386216869 0 0 0
824 3 22.68989600558307 8.907011133190458 44.44202077600255 0 0 0
851 3 22.303155489951443 10.544974375431302 45.848932630417124 0 0 0
852 5 21.151468456658918 10.088812964522372 45.832636670841666 0 0 0
1037 3 23.151276866159854 9.451040727588458 45.958937681539155 0 0 0
1038 5 22.879454384026793 10.002860724997838 44.792590460589054 0 0 0
2002 3 23.495963981297272 10.60873645759909 46.97143998081701 0 0 0
2003 3 21.82955975069386 9.12006860662282 45.48102584169315 0 0 0
2004 5 22.59467109013557 8.305495869269317 46.08340292918818 0 0 0
850 3 20.851867943535133 12.316311986277702 44.5744527362864 0 0 0
1854 5 24.513631217018578 11.940126436320755 47.25172835561743 0 0 0
814 3 25.452720325497555 13.436131652980833 43.144530217563684 0 0 0
1853 3 24.86774801828162 10.822630714134387 47.74101276289434 0 0 0
1113 5 26.212469572860876 10.210278241873823 47.239136524555605 -1 0 0
1504 3 8.73795746727255 16.32279693939945 43.00931189379109 0 -1 0
1968 5 9.307932362751592 16.224029285758927 46.33168764086339 0 -1 0
1423 3 9.335148129710664 16.52431950481444 44.36710596233786 0 -1 0
1966 3 9.77369791752646 16.798105974239324 45.675226538446225 0 -1 0
1438 3 12.571662579527942 16.817050880231772 46.85068714915971 0 -1 0
1440 5 11.604642875606375 16.7368899356018 47.51494968243135 0 -1 0
1976 3 13.23258529687969 15.909738587380957 46.380932251999155 0 -1 0
1474 3 11.582587767679003 15.930832255476044 46.599363042979405 0 -1 0
1476 5 12.535137132448963 15.676131273502634 47.301941337486824 0 -1 0
1072 3 12.477256122503038 14.728841139657627 46.48946339174137 0 -1 0
1073 3 13.38697111318198 13.76694141501805 46.060970748810476 0 0 0
1384 3 12.299831880842 15.946131910113113 45.337439995750316 0 0 0
1385 3 12.292222792539079 14.374130239408952 45.11028144259306 0 0 0
1386 5 13.127542223059983 14.127888344286507 44.378985768880185 0 0 0
1963 3 14.166916876876813 13.621870540703656 44.839064331916646 0 0 0
1964 3 13.625546228292365 15.00531513385532 45.3272563666532 0 0 0
1965 5 13.691477999177248 14.870557119966534 46.64686035775412 0 0 0
1074 5 12.166235878450221 13.553813466914562 45.98347532543892 0 0 0
1545 5 18.933477653862617 13.663467254654833 43.19379287321868 0 0 0
956 3 18.032588038205045 14.795855056141392 47.54209767341449 0 -1 0
919 3 18.40391354856629 14.848130385700879 46.18060094169259 0 0 0
1200 5 18.112877769842235 14.31835236833238 45.08328752620508 0 0 0
1585 3 19.234076167483597 14.709408785099663 45.11083051397594 0 0 0
1587 5 17.74221004247942 13.909939791774711 46.61552808063897 0 0 0
868 3 19.214694569593277 13.933782760384013 47.00215498599562 0 0 0
1133 3 19.68944405033793 14.375947072143306 43.805029400287324 0 0 0
870 5 19.713141778118302 14.382055986945955 46.11454725958161 0 0 0
1364 3 22.81587201076087 14.440412144317893 43.072650058602306 0 0 0
1116 5 23.514583233784162 15.511521020909345 43.171513945837944 0 -1 0
1793 3 20.042942827124605 13.467169549833262 45.10015903745446 0 0 0
1144 3 23.85626461645078 14.66181402633176 44.044311297140666 0 0 0
921 5 20.442799807626038 14.62791151417456 44.74246371084814 0 0 0
1132 3 21.035285919173564 13.761463531556856 43.99926140110867 0 0 0
1115 3 24.475460176414256 15.926697554465656 43.74931025965431 0 -1 0
833 3 27.217323081210505 16.963972527510705 43.23002687876881 0 0 0
1472 3 19.82993723221247 -1.2884166445254104 46.19664538722573 0 1 0
1187 3 26.192333168482598 16.69364386101584 46.915477696113754 0 -1 0
1954 3 27.628096204179318 16.876800148565213 47.75929388576107 0 -1 0
912 5 25.427317468286795 16.803256055735503 43.35982188722056 0 -1 0
1943 3 16.954615746150953 -1.344578882685919 44.30449991059139 0 1 0
1146 5 24.64282808014729 13.725753079346017 43.92636898893862 0 0 0
1145 3 25.354984837002554 14.673966851678294 43.69260591528945 0 0 0
1114 3 26.21561936579697 16.152609062078522 44.172862273656094 0 -1 0
1120 3 28.368889279063037 16.470368618949294 44.00894309582786 0 -1 0
1473 5 27.96048171820753 16.306702857334276 45.14387075433443 0 0 0
1149 5 3.621145177525134 2.822870734087144 47.728601835836955 0 0 0
1607 3 12.274987726231448 16.764348573646714 51.07886228338499 0 -1 0
1608 5 3.1900729320613026 -1.3716433439785214 51.1280289833241 0 0 0
1609 3 3.5368008808796074 -0.5344553069721498 52.033307581387305 0 0 0
1774 3 1.8130355061363783 -0.21924834207115262 52.05963754365928 1 0 0
1606 3 2.313935120265665 1.0337758251756388 51.43433139047751 0 0 0
1495 3 5.502297731790117 -0.5902940293992929 51.93708231677985 0 0 0
1841 3 7.80054011386579 0.21839036220903618 51.59393528956325 0 0 0
1268 3 9.461436123045335 -1.331345534915024 50.87543986807741 0 1 0
1460 3 9.421537304770457 0.044513171902403004 51.30605667163945 0 0 0
1840 3 8.149739332496916 -1.1527540963047673 50.668572996342135 0 0 0
1842 5 9.105622603334295 -0.6750944061062311 49.916370382328424 0 0 0
1156 3 8.895721332398386 1.3070591442573711 52.42106744702059 0 0 0
848 3 6.401993705884577 0.5075865672670996 52.195892068814885 0 0 0
849 5 7.517829752630006 1.125457474216303 52.38210843036613 0 0 0
1459 3 10.32486271963201 1.46406412806017 52.09980250876933 0 0 0
1040 3 13.30905125128178 2.2977172071649234 52.2454749673083 0 0 0
1315 3 14.009217140895156 1.075955936445938 51.649522745506445 0 0 0
1937 3 12.600866557362822 1.6544772644032784 50.97930059050819 0 0 0
1938 5 13.59796900701401 2.270761038768991 51.012207394697256 0 0 0
1850 3 11.386490912289894 0.9982531866990003 51.24729523039393 0 0 0
1851 5 11.458944739884135 2.276196493721762 51.00203167355542 0 0 0
1478 3 12.651162273977114 0.851445371628085 52.323246280299585 0 0 0
1849 3 11.796413626643652 2.0053419925536344 52.30304981794869 0 0 0
1877 3 12.482882050765724 3.026691187144934 51.257548619040065 0 0 0
1479 5 13.676246915886363 0.15784281980338477 52.469290474836356 0 0 0
1461 5 11.444331650685879 0.8043475116902219 52.480968511393456 0 0 0
1188 5 25.354657923536262 16.880715015116287 48.05108937007499 0 -1 0
1768 3 18.296203700168 -0.699782144253127 48.17444772070611 0 0 0
1317 5 15.287131727733618 1.0187387576495373 51.64551868353594 0 0 0
1770 5 18.438790672946368 -0.2788726432145585 49.30586158873922 0 0 0
1752 5 17.65695022193297 -1.4099880600891568 50.63598472271768 0 0 0
1769 3 17.765858857141044 -1.3484692274922363 49.366861600376595 0 0 0
1534 3 19.400650079957835 -1.19845865441656 49.10912305420433 0 0 0
1751 3 18.772916759076114 -0.879601441277094 50.3498971311444 0 1 0
1190 3 16.183386033840954 0.8787151035659508 52.4411137330916 0 0 0
1316 3 14.870815804181168 0.3733292489879312 52.656533964591034 0 0 0
1776 5 22.289255501673242 0.27092603988000685 50.95208193104723 0 0 0
1067 3 21.4541921842537 0.47736992626515784 51.968445961390614 0 0 0
1556 3 20.513853653421858 1.57956767839964 51.19471079581196 0 0 0
1639 3 22.004286977230496 1.5065253419538482 51.02790854445536 0 0 0
1641 5 21.571067785808367 1.9382304484273878 50.23150815258502 0 0 0
1125 5 22.61884399943774 2.2712296451788188 51.86753856358406 -1 0 0
1215 5 20.34870315645236 2.4344531111222665 52.09209848494574 0 0 0
1124 3 21.306931086776355 2.8156285168671875 51.23990590753145 0 0 0
1400 3 9.269888583510154 6.30569180595687 48.6738151731965 0 0 0
1580 3 9.101959814230417 7.285126730304607 49.76227594228226 0 0 0
1581 5 9.426829321244 7.55973224283605 48.56965029688297 0 0 0
1701 5 9.527805095011491 6.046520233860596 50.74175047936957 0 0 0
835 3 9.944091876598549 5.762983874759115 49.717813099658215 0 0 0
837 5 10.86104287295782 4.9683476686610755 49.73272686064358 0 0 0
836 3 11.400213057992255 6.013671651769576 49.78092213746517 0 0 0
1276 3 10.419274155695211 7.163414713118886 49.19687586302676 0 0 0
1278 5 10.634615979163698 6.090448705034037 48.72859387787936 0 0 0
1700 3 10.557939909148057 5.411448624915485 50.79639574923546 0 0 0
1277 3 10.445387797756164 6.754989432465875 50.82723958498363 0 0 0
1806 5 11.298165448209673 7.313197800860068 51.25623970021195 0 0 0
1970 3 11.648981542740037 7.454493355236276 50.079594948826795 0 0 0
1971 5 12.436197258199915 7.413650234216025 49.50941555514311 0 0 0
1805 3 11.922425417686634 6.3265663199060365 51.14932016466021 0 0 0
1760 3 11.719416315137483 4.888270299430041 50.83041219817035 0 0 0
1761 5 11.082947627855791 5.788729518665182 51.69648708727436 0 0 0
1699 3 10.286089543874896 8.264297360713998 50.30349590044652 0 0 0
1290 5 16.154348990653432 5.411890652620711 47.9821093039682 0 0 0
1288 3 18.158076025357197 4.498857732714631 48.25857275238151 0 0 0
965 3 19.729565142847726 3.952287454329725 48.32281401187966 0 0 0
1528 3 20.16284927909803 3.930005287492225 49.670585400630785 0 0 0
1529 3 18.934291170304817 5.952863890354074 50.72818900509013 0 0 0
1451 3 18.990021855071372 4.986032837823158 49.48190471170902 0 0 0
1087 3 18.04443342761817 6.385821389364839 51.90153647329012 0 0 0
853 3 19.326294719873733 7.293653496142442 51.7233126692237 0 0 0
1131 5 16.179835850302844 7.276230923938639 51.71146423946389 0 0 0
1709 3 17.858452873122125 7.8422923371772475 51.145765445157934 0 0 0
1129 3 16.76038433894619 7.310748540898968 52.428158525628035 0 0 0
1066 3 21.314891227819654 4.313440109106415 48.174631705165 0 0 0
1450 3 20.442841989142476 5.968718826383787 49.87213903380878 0 0 0
1068 5 20.68658096913764 3.5027181481304095 48.845104956389946 0 0 0
966 5 20.42670482312953 4.9385664773986395 50.383466117355695 0 0 0
1530 5 20.606831257697234 5.958085721809093 51.07152333031762 0 0 0
998 3 21.385693248351572 5.6637351844547865 50.116879754257894 0 0 0
999 5 21.564182061784564 5.472992916525067 48.88174627340838 0 0 0
964 3 21.482948900608104 4.338113507596596 49.56491544212625 0 0 0
997 3 20.425499073095693 5.172693348123987 48.888719778572394 0 0 0
1802 3 22.05700446607862 7.494276394087003 50.894095597532 0 0 0
1803 5 21.617258855402437 7.314275268506493 51.961963490300874 0 0 0
1572 5 21.437713692619504 6.824015135240504 49.77607555764223 0 0 0
1328 3 23.161435575202933 7.25960339993976 51.48121864367006 0 0 0
1801 3 21.57765128192801 6.726885216716876 50.926454333610124 0 0 0
1570 3 20.167478992196227 7.03065081631466 50.373506655484846 0 0 0
1667 3 24.421189101848757 7.844169204257229 52.2779004987063 0 0 0
854 3 20.792914182511275 8.07805245375599 51.17824926123512 0 0 0
907 3 9.019066549762178 8.68402110610662 49.285714890287 0 0 0
950 3 8.532061620558846 9.977707301535565 48.77514428422103 1 0 0
1883 3 7.239139368317935 9.677041065063737 48.50800429370619 1 0 0
1884 5 7.070080866304197 9.769536323539292 49.480281406589555 1 0 0
1301 3 6.165369579064014 10.53851526873512 48.126600571328396 1 0 0
1603 3 12.882753591746932 10.188695840388117 49.83606353730504 0 0 0
1604 3 11.536888832300466 10.461668558293612 49.65693362530456 0 0 0
1605 5 12.279676161257663 9.627688065285566 49.07289454515795 0 0 0
1969 3 11.632631380964238 9.10290373401451 49.97452712014419 0 0 0
1986 5 12.170137006171863 10.793135208030979 50.909919148138556 0 0 0
1747 3 12.301863557417697 11.490282429382333 50.03619849306058 0 0 0
926 3 14.389201811472587 10.67463175206812 49.975657607350854 0 0 0
1748 3 13.364605023359621 11.486240490244597 49.44036902105428 0 0 0
1749 5 12.367290017416499 11.166927186079445 48.90645705040099 0 0 0
925 3 13.393282797455912 11.160507934371893 51.02711572944783 0 0 0
927 5 12.903442263281317 12.547361271829416 49.87967751968381 0 0 0
932 3 14.04286627808846 12.117601281759676 50.12276435496004 0 0 0
1984 3 12.506271235024386 12.248186931160198 51.05209139359796 0 0 0
1848 5 14.524276181836917 11.685163550097355 49.10630099575428 0 0 0
933 5 14.643668495894127 11.555924231632519 50.97627647853899 0 0 0
1255 3 19.275970347148412 8.504696297558862 50.52682805765876 0 0 0
1257 5 18.61309003885853 8.550124195000244 51.9890075896253 0 0 0
820 3 16.626147210341973 11.136499290196696 50.123491400125246 0 0 0
1708 3 18.161894312470885 10.557687530703129 50.22699152894782 0 0 0
1710 5 17.18483754985305 10.183595963985976 49.543370240257744 0 0 0
1858 3 17.74609793351261 9.161900307335 50.38150479763533 0 0 0
1859 3 16.775461394184013 10.1335029247711 50.84486023426534 0 0 0
1860 5 17.48074745283948 11.263627831506096 51.04670463046381 0 0 0
822 5 16.535796212704177 11.951582241729088 49.06230013201498 0 0 0
821 3 15.492059261735307 11.686444366321037 49.985808042852454 0 0 0
862 3 17.755085617408856 12.78260662518202 50.38767280592836 0 0 0
863 3 17.3820160580306 11.589618934427175 49.89009118650225 0 0 0
864 5 16.560308520341213 12.176053752077113 50.74479949016572 0 0 0
1927 3 16.43278938647743 12.819932764048016 49.763601206703456 0 0 0
1678 3 17.572489935968264 12.798699307497131 48.74495192312504 0 0 0
1130 3 17.174540169340197 8.837599588737618 51.968815440752095 0 0 0
1703 3 19.170966900992244 13.32696943214901 51.37480903071817 0 0 0
1454 3 23.742303594700665 11.707886241880406 48.13273821080689 0 0 0
1575 5 22.927079215464516 8.244380293577194 50.58293699330184 -1 0 0
1574 3 23.674243764024695 8.689407298531625 51.340535316413835 0 0 0
855 5 20.772586496031266 9.032914042048496 51.19897338457554 0 0 0
1327 3 22.22758027193126 8.643654432082633 51.60083433234722 0 0 0
1329 5 23.110728223506996 9.524782901014246 52.05195702230961 0 0 0
1680 5 22.469552749589635 12.570541394884785 50.047579705604505 0 0 0
1907 3 23.46504324977617 12.514837179062651 49.382639937017856 0 0 0
1908 5 23.306191531243535 12.864501719079607 48.09843619100094 0 0 0
1409 3 24.50457602529895 12.83776019364043 48.07082959065197 0 0 0
1455 5 24.210885175818287 13.139225983602183 50.39507210855491 0 0 0
1679 3 22.29367456224751 13.379017990659351 49.10143334845614 0 0 0
1852 3 25.695813940506397 12.03237687297186 47.69163841537413 0 0 0
1668 5 24.939583737491546 8.907644655938334 51.767627701460384 0 0 0
1453 3 24.837371134847313 13.210772389450486 49.43516555301642 0 0 0
1882 3 26.21501203681445 10.890558873386981 48.210199883696816 0 0 0
1302 5 27.00562244122952 11.72171126043522 48.05722711910322 0 0 0
1408 3 25.0383950797659 11.802256825378258 48.95548789205114 0 0 0
1410 5 25.61619168025942 12.829058938816043 48.528261521262834 0 0 0
1274 3 11.376185320806696 16.166736890652302 51.948157973255775 0 -1 0
1273 3 12.72803087239922 15.589053685732061 51.277649183413814 0 -1 0
917 3 12.943495626722298 16.327373231920507 52.41457357378668 0 -1 0
1275 5 13.476076617204209 16.548135086134902 51.32390777648003 0 -1 0
918 5 11.630903651172662 15.691688996065803 50.86768016349315 0 -1 0
1497 5 13.16328813140669 15.174652756972598 52.34523757675849 0 -1 0
1496 3 11.929615504635827 14.769864967153167 51.9212473965903 0 -1 0
1929 5 17.396653592761606 13.920573707372466 47.88618309253448 0 0 0
1713 5 18.548361297653102 16.485529033606788 50.41361075540004 0 -1 0
1711 3 17.396875606652824 16.595220206278466 50.11474126979088 0 -1 0
1809 5 16.82825489000824 13.718137386101604 50.5124788899452 0 0 0
931 3 17.300331597047148 14.185990814286322 49.41789114516972 0 0 0
1269 5 17.184103608308394 15.713908991538137 49.257875746138254 0 0 0
1236 5 16.734584273094537 16.064004545441527 51.34049046551223 0 0 0
1267 3 16.804356886424703 15.500906907348917 50.368447675272336 0 0 0
1712 3 18.225507249344236 15.45616885179317 49.821256054027714 0 -1 0
1807 3 17.87109189988199 14.208112223677048 50.939662093094626 0 0 0
1808 3 18.013299667651623 15.87976159516971 51.34344302841926 0 0 0
1928 3 18.576914706728765 14.147974216267363 48.554413073497685 0 0 0
1949 3 19.36443062493281 14.958029973619652 51.204022448454594 0 0 0
1906 3 23.65739819458529 13.869954661918566 48.906531000408165 0 0 0
1244 3 20.470295050624525 14.036949682155456 51.764114603819564 0 0 0
1562 3 23.02513795473586 13.607590239214817 50.310531907141765 0 0 0
1563 5 22.99715964857783 14.593019692298505 49.49393157757318 0 0 0
1561 3 24.17970849576995 14.41935375253901 50.04639348179536 0 0 0
1536 5 27.632201811915902 16.476108415087428 50.343869100122006 -1 0 0
1955 3 26.398878061465034 16.101587827636404 48.32518409613638 0 -1 0
1750 3 26.572497553888528 16.288502157009113 51.16212423996143 0 0 0
1186 3 25.542848315383843 15.771817743047167 50.27481922226495 0 -1 0
1956 5 27.583280979327228 16.023170296905434 48.637289976065546 0 -1 0
1535 3 26.815737588716622 15.984346619881995 49.77659538956382 0 0 0
360 4 3.259756115210675 1.599450890731541 57.02003135811809 0 0 0
1171 3 3.657678153714497 1.8770474101096013 55.677513093045235 0 0 0
1173 5 2.8641324536864237 1.2777641858371136 55.48354134195961 0 0 0
1610 3 3.4851055107598876 1.1618475511067363 52.894462875998215 0 0 0
1899 5 3.49493895632792 2.532566943878173 53.77412334033774 0 0 0
1898 3 4.074863604319469 1.828336019125192 54.087113443961485 0 0 0
1616 3 3.3616255910325163 -1.4797793981495364 57.1405442120808 0 0 0
1322 3 4.940397272996121 2.514312484646074 55.19472208556523 0 0 -1
1172 3 5.052293469828937 1.168988224474681 53.03764062009259 0 0 0
847 3 8.14256712249139 2.0070159763332382 53.59264250759037 0 0 0
1897 3 6.605085922137571 1.7106620225150533 53.24575703270901 0 0 0
630 4 8.508926352488704 2.9542777693204973 54.72610454321081 0 0 -1
1321 3 6.700475838478685 2.6245382909584016 54.47121360917278 0 0 -1
1323 5 5.500582264755392 1.947494221049803 54.07474178121241 0 0 0
1286 3 5.938810889841596 3.267887856530158 55.99687376059873 0 0 0
1021 3 11.930749692977047 0.8142699638042445 0.44058436768902953 0 0 1
1477 3 13.777796304737452 1.1904375388604558 53.17293306640677 0 0 0
1041 5 12.646411710930142 1.7335018515628713 53.23549538305279 0 0 0
1167 5 21.503799994238214 16.547273160741117 57.010812271580306 0 0 0
1936 3 15.065385319978107 1.820163361294391 52.609269978317215 0 0 0
1293 5 17.36983019853767 0.896626310495632 52.656112619091374 0 0 0
333 3 19.17904204219214 -1.077559886851843 56.827452676605446 0 0 0
1291 3 16.86527214263014 0.5006193550572682 53.62993175146093 0 0 0
1292 3 18.210975315238155 1.0419139493879896 53.7473050956972 0 0 0
1189 3 16.869096942192506 1.9060742125555483 53.30034286142963 0 0 0
1191 5 15.779617331919727 -0.08942958643713084 53.189436808717815 0 0 0
1483 3 18.368878475885936 -0.035855548450027586 56.11621199307858 0 0 0
1484 3 15.67279342986233 1.0212527719077755 53.81947176855374 0 0 0
1485 5 16.454875049403057 0.48034933724261575 54.76231495223651 0 0 0
1537 3 17.26990561972885 1.3338216027553087 54.84687174071455 0 0 0
1538 3 17.696636753415895 0.10302072332899836 54.86609755649438 0 0 0
1539 5 18.320907998157107 1.8550376781715228 54.73865807075626 0 0 0
1141 3 18.3366897009271 2.45457266957681 53.70287560364717 0 0 0
1143 5 16.256550285259816 1.813153996898338 54.54501266350633 0 0 0
1213 3 17.3282943612714 2.4437725697272743 54.566787730849256 0 0 0
1640 3 21.464166860813837 1.950679658916803 52.34238388673623 0 0 0
1611 5 21.496821149902736 1.011291973363513 53.17809445457581 -1 0 0
1775 3 22.561891952395356 1.2651299441984944 52.76341506354542 0 0 0
1214 3 20.248703190998974 1.2459266461506682 52.62107629176421 0 0 0
595 4 4.958479677241736 3.6625145172600493 57.088593565301096 0 0 -1
1287 5 7.322177894578168 4.271551486990766 56.408051619347205 0 0 0
1285 3 7.376065410445379 3.368229505419201 55.958540974551724 0 0 0
55 4 8.893802436790795 3.5877708725225137 56.079959851943784 0 0 0
1981 3 10.020805589452475 3.4521384010648424 57.210913945686784 0 0 -1
1421 3 11.152055254322462 4.201409568418923 57.269014826501845 0 0 0
1014 5 14.022564208106777 5.9195930713610805 54.13230167830399 0 0 0
1876 3 13.272804173712164 5.409818759228898 54.98628634365532 0 0 0
1983 5 11.01300756324461 3.197719513388776 56.374933336654564 0 0 -1
1013 3 13.443330931087726 6.140804458062344 56.25858904171885 0 0 0
1878 5 12.698212615308186 6.456425546702738 55.166140983451825 0 0 0
1919 3 14.637380332457829 5.496161773495164 55.31945930989363 0 0 0
1039 3 12.054839046627675 5.609095540288669 55.656269542872025 0 0 0
1158 5 11.324189772870106 5.406732302826711 56.566587924528605 0 0 0
1157 3 11.824702739076496 4.55701400977334 57.17208961383314 0 0 0
1360 3 10.259410350160701 4.183239479800497 55.87641720420507 0 0 0
1361 3 11.501943184393921 4.246185365923674 55.97950658236839 0 0 0
1362 5 12.433439647587445 4.612707388335783 55.06448651487297 0 0 0
1420 3 12.883754214236015 4.604013414804257 56.21491992909344 0 0 0
1918 3 13.871833362765798 6.708722152133795 55.05895599909179 0 0 0
1920 5 14.834447398269191 6.817603007768075 55.75144943140441 0 0 0
1279 3 18.249973940995368 7.853447059743255 52.746101126641236 0 0 0
1012 3 14.854328434490151 6.741571746142902 54.44040053387471 0 0 0
1089 5 15.313424682449645 5.6886458236250945 54.05542436346212 0 0 0
1088 3 16.082648601551753 6.843776817965103 53.669456355563426 0 0 0
1763 3 15.634578564812061 6.326514159386461 55.04896189964823 0 0 0
424 3 18.392318699456936 6.656500497093939 56.812635003998295 0 0 -1
1142 3 17.610456673770845 3.912535826297532 54.301927064688684 0 0 0
913 3 18.173773581793384 5.150899902126607 54.44139219336411 0 0 0
914 3 16.617719871947024 5.479820073063115 54.61712392067393 0 0 0
915 5 17.43601892167265 4.7505869322272005 55.34671387345708 0 0 0
1280 3 17.633339733118277 6.373101480018651 53.49112993691716 0 0 0
1281 5 18.653583799954085 6.76235060096037 52.97998519361671 0 0 0
1764 5 15.543976279467227 7.560087158481224 54.783167879039226 0 0 0
1973 3 18.06131585611003 5.856428301672611 55.5925465101778 0 0 0
1762 3 16.69316750535211 7.106761513995652 55.09103980485315 0 0 0
1256 3 17.254100050382295 7.977824479977805 53.758412139738724 0 0 0
826 3 17.636478576085054 8.311850919605629 55.134007220261935 0 0 0
1557 5 24.12007879286675 8.441060839238048 0.4600985046757314 0 0 1
1233 5 25.78841322634854 8.090362905554453 53.57174896737136 0 0 0
1985 3 12.933062169903005 12.4044043648612 52.53958224194355 0 0 0
1757 3 13.46934799953991 11.465562661335067 56.7618427879963 0 0 0
1758 5 13.919155775547834 10.102450795933244 54.83108284001776 0 0 0
1804 3 13.60456192607742 10.979991392244521 55.07786323135903 0 0 0
1915 3 13.224814695048213 11.92577004828249 53.97425464361572 0 0 0
1916 3 13.357077004980429 12.32172554343762 55.46867609601317 0 0 0
1917 5 14.261528329934277 11.945784609941128 54.608737881309494 0 0 0
828 5 16.38178709145563 9.162283693763683 52.31802156909011 0 0 0
1972 3 18.41987620329933 8.350215194651595 56.35228791805919 0 0 0
1974 5 18.668864775243268 9.284296020159736 56.11269727888657 0 0 0
472 6 19.764411547914197 12.307812722596786 56.9425509704967 0 0 -1
1950 5 20.29366933730777 13.148680996306137 52.57401226679822 0 0 0
1531 3 24.421978922449576 8.182238623697799 53.69220119074055 0 0 0
1573 3 24.175259383327962 9.374526660604348 52.48335162925828 -1 0 0
1666 3 23.11844532689262 8.354536194745723 52.733499619731674 0 0 0
742 6 21.36092523411848 12.670640105943374 57.186886601804574 0 0 -1
1532 3 24.556945900800255 9.638917480027068 53.45986428581824 0 0 0
882 5 23.513749446880556 9.212820921146996 53.48535425745936 0 0 0
818 3 20.321679584971537 13.176213882733459 55.70879553363828 0 0 -1
1356 5 21.028370069720374 13.454702362399372 54.38145984385636 0 0 -1
244 3 19.998486700946042 13.492219618503093 53.73732657876219 0 0 0
1428 5 25.56031968548345 8.312098618464852 56.85884451546181 0 0 0
1231 3 6.337403597531853 10.932538873411943 56.17048590656428 1 0 0
1579 3 25.437552754387795 8.741022127664221 52.87449907973374 -1 0 0
1533 5 25.294678014834265 9.866909508694329 52.633065454396274 0 0 0
904 3 25.249898958550265 8.91744809855723 54.65720196923583 0 0 0
906 5 25.236036749873048 10.128815327784785 54.21967501330798 0 0 0
905 3 25.95135929298165 9.337271959586047 53.68204393805739 0 0 0
881 3 26.322637892923957 10.029944302991414 55.07362908379798 0 0 0
1232 3 5.89427478697558 9.411939957348096 56.55920797537536 1 0 0
1042 3 26.49537255683602 11.803536572374377 54.893207019134195 -1 0 0
1787 3 25.739730180000237 12.62351529464835 53.81071521526974 0 0 0
1584 5 26.365150987177184 12.944476795768505 53.01011516359222 -1 0 0
1582 3 27.078692668404678 13.180122129987247 53.96246859278915 -1 0 0
1718 3 12.838034013610878 13.533298982153873 54.619749538743164 0 0 0
1717 3 12.586890807211908 13.847557266307396 53.086392183760466 0 0 0
916 3 12.067496040175683 15.457025711394273 53.17654481027492 0 -1 0
1079 3 12.53766806400594 15.629843307729413 56.90799439402632 0 -1 0
1259 3 11.666406560636986 14.532584225835665 56.99795011153584 0 -1 0
1260 5 11.137966732312774 13.956286259606802 56.573802017709596 0 0 0
923 3 13.319027543626374 14.188360415548368 57.261824042578056 0 0 0
1078 3 12.406851896303497 14.576610061617659 55.444984343911486 0 0 0
1080 5 13.093210985982525 15.861261062423626 56.21379505704567 0 0 0
1258 3 11.44332034467709 15.687198859084862 56.07890701850576 0 0 0
1719 5 12.361080021338562 14.664470650726903 54.08813008576698 0 0 0
1948 3 19.427791977170887 14.26453244253441 52.68384706623729 0 0 0
782 5 19.17501623482776 14.256512030474704 54.04148247153648 0 0 0
1245 5 20.481449573996166 15.120993987965644 52.37050291351542 0 0 0
1243 3 21.051745788719664 14.177970561600311 53.00681371026168 0 0 0
1355 3 19.90730614741053 14.857057251598224 56.02761121556813 0 0 -1
1702 3 20.241765683829097 16.32272885131745 56.910326122355016 0 0 0
1092 5 20.482320626605294 15.493198489363916 54.95327965747239 0 0 0
1091 3 21.331089884563003 15.422896389582927 56.536512173345926 0 0 0
242 5 21.251999267351074 14.731626112237413 54.09231195993124 0 0 0
243 3 20.958395221546606 14.439506018537028 55.09216246909219 0 0 0
783 3 20.059961821907237 15.154486557146182 53.63895740286489 0 0 0
784 3 21.478137706670385 14.038587040301028 56.02760891655143 0 0 0
810 4 20.250080932335543 14.318489269791513 54.71048681000107 0 0 0
1896 5 22.33270082841304 13.944026233489566 55.7045691431445 0 0 0
951 5 26.17736327724688 14.750028275681561 53.07688030394402 0 0 0
1043 3 27.93633878035505 13.26666666445773 56.930208300903914 -1 0 -1
1583 3 27.354426618391358 13.379025608850945 55.627642671552394 -1 0 0
332 5 26.582339466300127 16.555554406927182 56.39510224919974 0 -1 0
897 5 27.315912056466082 14.325365772788956 55.346516359175126 0 0 0
949 3 26.069053683131806 13.952535227836858 53.545510508306336 0 0 0
1786 3 25.890299897769665 13.69259321248377 54.79843743186751 0 0 0
1788 5 25.097670287172882 13.483764231353224 53.92364995573948 0 0 0

Velocities

304 7.145352678669843 -1.4811609017254062 0.43104527284532573
496 -1.7943074081787718 -14.700549980707274 0.9578416695625246
1615 7.514148579783409 -4.416874884562769 -7.3893541214898315
1617 0.5837384697404298 1.5202927237847237 -4.85027990516495
602 0.9050696202741729 -1.1946539272977024 -0.7144955779869523
459 0.11649098012781159 0.0510952453677999 8.277543538236992
603 -0.8955040492377354 9.439503377063216 14.279576981506953
296 4.028314581540699 -1.3299702960209645 1.9495739544267583
62 -7.064469082246782 -4.019527067450786 1.0034668673045282
1326 -3.663788509266829 2.1117247808914374 -2.1022286225569005
1166 -20.863781647255003 -3.027589777470409 -7.673705277386691
1324 -25.035261575541607 9.626467359636859 -7.435283438695525
1022 -5.650326297887841 6.834399993257939 -2.346458792168734
1023 2.687813903414662 -0.7781494023243172 1.5903704488406356
1165 -16.611391808326847 -19.037145903720422 -12.819861220316284
1325 7.035482878228329 0.9382192829289262 18.07384384657636
969 -4.3536053894104025 12.284817719843355 0.6140512674747046
967 14.07729022885218 28.026821569544556 -7.6959234134198065
1704 -4.043083418432758 -6.012235691743276 5.038369508587572
1 1.4189620425858132 -0.8805959818607335 -0.11597379158992956
895 4.560070819301638 -14.210499062782523 -17.996656489897187
33 -3.38850027958183 0.12402808243519842 -2.5395338029884216
323 2.9945466369261498 -0.39445600995979174 1.2503538022180443
50 -1.0818224326001358 3.284548523370239 -3.5294538500596992
334 18.00244549892541 2.614136556305082 -3.0712016835823785
896 1.082603683615532 -8.011886819374793 -9.857413709379696
275 -0.9038107629559772 2.35848304224636 -0.020597084105904107
312 1.1181030320460448 -1.8106781296919903 0.21789344657529922
594 5.0689780431140745 0.9403674186183433 -5.674056388555137
1123 1.7982185331724503 23.940908472389516 -1.3083830609448244
300 0.11184488104771075 6.8193999181381875 3.4906143830109584
309 5.688165353739265 2.7048181807270866 -4.166783448349617
694 -15.83402333790604 16.254830075244172 -11.507868516219036
692 -0.8860893057577739 -0.9712920582163369 10.160642569408466
693 20.402987184656247 4.792747805240985 5.187249709233996
586 1.9386335036131963 4.597032886757946 -7.960196440031804
549 5.525451163777807 3.4589295331018515 -5.701438946039296
631 0.6257255714928766 9.069519795966428 -0.9993232921743472
656 2.444328818638112 -0.7230046466908612 5.504266404516097
1759 -7.9602113120534 -4.160320380536539 12.449979605474967
680 2.4417264390896785 1.8048006364075933 -0.820991661332812
124 2.6027961433274336 1.552668834549732 7.164361327399644
91 -0.3730708994429689 -5.7878645054130295 2.308541083646928
577 -2.2416836917955987 6.722486426216649 -7.5605322305863165
582 -10.230346280131476 -11.719643909753644 -2.5742844097802062
1982 -28.051134966572167 14.6317575314242 6.354602749530973
672 -0.60746631002261 -1.377615489596676 1.5861745222903996
42 -5.4643914489303365 -1.7884871575792667 1.2748543183193952
64 1.3000545532335477 -3.44251857768584 18.944689252246423
590 -9.813468108832229 -6.0983879282126034 0.8219700979367087
54 1.4168963564723094 7.794021920446658 1.2270673271092731
9 1.4538332365994577 -1.3008007708500606 -2.7080443325280283
545 3.2756780026063264 -6.472840287539125 -1.3221747998549123
562 -6.768051909199945 -3.530822807322499 0.7526606995770748
579 5.147659520395408 8.267780206508801 -5.108772763889646
1422 1.2930243630211846 -5.332006197979056 -9.945434587542383
773 5.4483493330798805 2.276772878725076 3.438487672276531
324 0.5963893910697897 -1.2176968076400128 1.7857112779814028
26 3.488941113359869 5.111803438789298 7.789468502573346
30 2.2159683928919827 -5.981998470699088 -2.3542139027317455
63 -4.266159871239537 12.226846596975722 -2.7144111820474537
5 -2.2103720477045425 8.705158590284665 -0.7213373652297677
22 -0.06277405652279618 -0.7523490192471529 4.954963691740571
39 3.4824126025186866 -4.764157053225087 3.0340723209249303
968 11.685878446999647 12.573607080367548 2.6967245190900933
116 2.965760990529434 3.1226494207390134 0.17943447720753544
325 11.909793991840205 -3.1045956229532243 13.219602561190705
422 -1.8915267363408512 5.426518069424266 -2.503388417635012
423 -7.415894072813969 2.3601747225279763 14.657381615296382
450 -20.629448342676213 20.036295745094687 -7.956561876336605
90 23.939524374112356 1.8696061864016238 7.009419244241911
279 0.41491428109237277 0.44516851511034417 3.142759526747262
386 1.382470099030426 1.966954217772112 0.007074741964517084
402 -3.353165256486163 -2.6534634025530277 0.8974139687420833
287 -0.21235041114637854 4.344124413133226 -1.5252840192470114
720 11.919123366901767 -6.810485386500412 10.140348282656333
746 -11.74073143834068 -0.539386260370412 0.7877795139077564
144 1.5369674775090147 3.3369480128157383 -8.6392409339475
652 -3.1505256085314732 -2.1255216719033507 -10.196643281392793
635 0.9974294367564117 -5.408065960487786 -2.7477804323385002
136 1.5895295694452718 1.939828793503051 5.051378221489876
513 5.186819450009747 0.12340166798646922 -14.015354727257451
106 5.201711556028899 -3.11627959750352 3.074611671632738
1044 1.3556754092910965 -6.1304222622526 1.6489672491765601
1894 -15.474145171931836 -12.424154577262973 31.9825029490619
145 31.966360599127107 -5.591724403167246 19.515056636958196
202 -10.252784017793367 -0.6423772395089936 0.7257439332147677
214 1.6190076080674598 3.929891180721112 -1.7338233130657095
180 30.63540332708762 8.758307568295377 25.152294288992447
152 -1.72130396716761 1.5525699147739094 -7.375895738229831
153 -13.579300976564745 12.158173035151078 7.465200054614574
112 17.215217293683555 7.134724332589895 -11.47490111829953
154 -3.1606216009821466 7.460643361098768 15.49894137637039
95 2.944789190913205 6.793666282201915 -1.6678740127491527
129 -5.253975944206857 1.1018141381252882 -2.543410514903536
132 -5.328461115762483 -1.1165359344877468 -2.3979685759573366
414 12.570676210479037 1.566287798787437 -3.337143517243373
1491 9.457228797160257 -3.9403205559147425 3.17518442547459
1756 -0.5139874877362115 -3.5785262661367714 1.8369560783410992
415 -7.630324982348269 10.810816542480302 4.391994932544671
1490 -0.4990394977120089 -8.791177786498329 -14.303940121297936
512 -3.276355288951497 -1.262641100512012 0.7546685854539013
99 3.337453018298235 1.8203299755733053 -3.479775733259476
827 -23.919981155864942 -6.465564866743096 -13.977604426008355
476 5.399861363833065 1.40209354759795 1.4315200612651964
500 2.1609683667217126 7.4851350328178246 3.512590732398772
1555 23.203374933299198 -8.388550549867439 11.038855912149023
1895 23.65633960429796 -5.606012924560839 -2.822996520827698
684 2.380692741083414 5.155650242718241 -0.775705877493392
1426 -10.114009272987762 7.3575085392811586 -16.548047660013665
399 2.6904847555672986 -0.1764733697267549 4.017927872859959
394 -1.4447857632473666 2.023173473507631 -0.9778469727043861
361 -3.7914171865806368 5.4901395907391946 -2.7587204313447975
382 -0.45495877824906034 1.8818403279239977 7.615499740833788
390 -4.460850954732178 5.676506876799231 3.458838247149163
365 0.5566606089919462 0.49163652599266794 1.724398466416994
685 16.71121451318556 -0.38047873305473795 -13.548192540589774
1427 14.188404303511996 1.2488097835362675 39.27670593919612
880 9.445521598233546 3.0930662613473627 23.678065121799563
206 0.2816372822709646 -5.568645161480187 -3.23372771356611
181 -1.7665940404964595 3.355964136974473 -6.189293116596456
219 1.5883376725446434 -8.443911169058444 0.8079640568308768
504 2.152624272585761 -3.27425961371809 -0.4786797291224066
505 12.778617210287488 15.250716025732533 -17.486675054819315
210 -3.564128080429507 -2.5385140089337055 4.957367612868811
922 4.9945432899598226 -16.492545604264976 -2.748643107440026
540 4.518746030978581 19.041475605799178 9.25613175000932
1489 -9.674701442560329 -12.55792887107326 -8.278052976037284
514 24.707240242807543 5.5269664825418365 -27.841021746743515
503 8.035948828450403 -0.7839620109693053 3.4107232026187764
492 6.5104455397824434 -4.146034109902692 -7.1094993039146495
924 -0.07795925157298719 1.7860260627205444 0.23029684885590676
466 3.7665764053690185 1.7188370925427379 3.323929422564834
489 -4.147980523477398 5.055206813381212 13.317437393823884
1235 32.16124842611756 25.407799644344593 -31.196710972939687
604 -23.580858597942242 -10.981814547095881 -12.332158869378674
455 1.9255358912055587 -4.91140546249135 -4.049886668848004
736 2.1702923026347625 -4.403832975567783 -1.1693604514900793
774 -0.36934614525236314 0.8280375286988108 7.1329809050823325
775 8.742293642262466 23.460779289357372 25.622591032959274
1234 -1.2626329785136043 5.236333388972577 -3.648484812908918
759 7.818700204504909 -4.715976214215719 2.6803803667885884
757 -4.991761797170071 -12.415103167417028 -15.706068760244943
235 -11.29700177894316 18.655966956588788 15.199008133392573
1354 -18.083328507537708 6.072789984663179 12.922115544757641
819 2.4192562557272357 -3.0503103145262997 15.69617263329956
817 -10.209024123228021 23.2887688923464 8.250987110335062
480 4.264850579636856 -1.7055083022105724 -2.824866536793547
766 1.7096494716602995 1.3183278200690958 -2.7287034256888316
721 0.16371456527516698 -1.704587708330287 6.3246577705505125
234 -0.6701598737473884 -4.3273082998372505 2.805182717810358
725 -4.306136838246321 -2.6221078796615287 -2.509227008097719
750 -3.5547194256139627 -3.7463542998775545 -4.422784803403772
762 -1.8355616966656494 -5.9233221158970535 -5.516119910668941
676 -2.093196923467744 4.724311803180642 11.392374914984671
650 -4.953625186057383 2.4560025012262847 10.958439768594532
646 -8.28033937007316 3.2015309207470692 1.0398098593676395
667 -2.990502747949854 0.38660343791062907 7.521493115507038
566 4.676484017485931 2.6962556329048453 3.7798341499972756
1090 -1.5831631889010862 -2.895449436893254 -13.754243828832218
185 0.18755750496256707 1.1828484196289724 2.1915008560214857
222 -4.778948606636828 0.5051098702459892 -12.709444180981212
270 -18.415316770780965 4.1000339154153345 12.39949371038643
283 2.7520851437521294 2.921348658656526 0.07674805062201132
467 0.7369158663902254 -5.119217992775862 2.5044565776626997
303 -8.787758186924359 4.001559138143711 5.2885197476530506
470 3.95634346413127 -6.416117100138665 -0.7481410570969705
589 -12.517597740347599 7.5087306505847495 3.36685172015722
320 2.9371172376568166 2.902443178670429 -0.16506651948714673
569 10.355842130900943 -7.403742025771497 -0.7184758911012606
557 -0.18630498050939548 1.4480384649053828 2.2934244700333815
552 -6.9673781938521495 -0.5151483690245569 -1.0631624110457742
593 -1.5822062302422335 -2.3493455423296763 10.536137070210954
544 1.0867149305565023 2.237379677695237 10.488488991942944
560 1.1910381286733538 -10.97571254172936 0.18192949951915743
574 -20.727958881024946 -9.890944826500492 13.413518772544256
17 -3.151120364482734 2.867155632833545 -0.7501055662717264
570 18.97719733186658 -17.13149226880395 4.0072928257273235
8 -0.581975335739564 6.1178331007846785 -3.1091705527665128
40 2.2654298947896923 -2.609107457322498 -4.438998231124976
34 -3.068898741178174 9.07620796629139 3.3168920485383566
25 -0.09296894854924352 2.2911066439484413 0.4517141009363534
49 2.7843296192408116 2.781500996014391 -4.914911801452089
20 1.8442609044891995 5.658617748181505 -6.761261123822772
53 4.25333335141148 -7.78223806875631 7.988773465683217
189 -4.18752395029852 -6.687308079195583 7.14520011689087
319 6.059749049966796 1.899245406626826 4.7795168814237785
274 3.03651861137341 3.4822319979775886 -3.0783130607358564
282 -6.8296497808757675 -2.920852334574073 -7.533191099970717
200 3.1640532994756847 -4.5323497776510795 0.4165721527426235
226 -4.422419034201835 -1.7021763039196258 2.282115627469668
315 -10.719228699834112 -3.8596566744473733 -2.94920294703918
299 8.372938244054584 0.30450263781942605 -3.9228768740917612
13 -3.6616787102420276 -2.60392121636619 -5.126332265665306
196 0.7531918275647299 3.207404792094005 2.32450364016183
83 2.4516296655796426 -6.815212245370634 -3.9301887212307793
278 5.651255694640138 -24.301851978655513 5.311180300925313
556 3.213416651512073 -0.6531121314139838 -1.4689998819330705
271 6.97095717374809 -2.5264867630572017 3.3616321273046084
669 -4.818935725205508 3.7898244858080776 4.998932896028259
664 0.6012259479216333 -5.203573874726839 1.1996603758923101
292 0.87297457701805 5.155750595166853 -0.5354533500729657
770 -2.5195003318709825 3.1438633443551414 -0.7215354988416569
139 3.0388435791224597 0.35222124250488795 -1.4493247141003354
135 -0.21710611473034197 -10.47798795403081 -0.7202757843553491
102 -3.639472461033864 -3.354219620116868 1.1445617931110048
172 2.550926626364435 -3.716075798596984 -8.164198869444741
107 -0.8329996271725318 -6.177706438280472 -2.5048121017686404
740 3.6954847077012705 -1.4869313296217006 6.911879383327531
46 6.381940700643238 -3.385129740942696 3.752511271361744
729 4.232190971972837 -7.516797425776188 2.8744168354014445
16 5.594363279789349 2.9897022571228895 0.939108555451978
12 -2.121207332553828 1.8319894320446597 0.1652233994654315
120 0.8406823573027644 3.8134837594423807 1.0272913432056798
29 3.3173863152345757 -2.6244596338952606 10.031267168081003
613 -7.305224454874367 16.59426545742481 -9.258872886405522
4 0.9117052880803872 -3.8201504905227335 -0.41461736681347044
123 3.732636430650666 -4.3357218489109375 -6.594228642644335
140 -3.591636062355178 2.034331816567672 0.04776441961699902
143 -2.2140212450785324 8.35792922259025 -2.3528036491189805
316 -2.819574849168078 1.9616269284232133 6.422007647695204
421 -3.6676041708217477 21.7290843244451 40.40233172580852
290 2.2046219423995748 -1.6572836373521609 2.3271057870881497
410 2.199067842110266 5.218907065110539 8.179360339743878
638 1.336277796068485 -3.682382879842468 2.9108460653503943
690 -2.0282471123718935 -0.17192667506249723 8.63820497387038
670 -1.276235467465382 2.4502675462891688 3.788865360132878
433 2.7985951730679766 11.424083705035487 30.995523531187743
647 0.1869781340208484 3.900800462932397 -3.385183314134101
663 3.173763029247188 -1.5866679661945489 4.20435734133748
702 -12.196240109546084 22.748173589861914 26.87947618616337
643 1.630984553079494 1.6428559333732546 0.5088653484013443
94 3.210406112614669 0.70411787501995 -1.808556418834332
119 -0.7620397677913919 2.47157462861122 7.509010621016119
127 1.267563036591432 -1.3919995131720606 0.4537903427620059
205 8.075877973452329 -2.631482475043425 -0.9907000152276377
213 5.0743256043045575 -5.413395423698088 -5.471841535027207
703 16.305876637449025 5.537677928452659 4.544105370810022
171 15.432030030466684 -6.13418527462081 -18.126215659462794
701 3.347891097246718 0.1279792552852048 -9.662494964457931
660 0.18232635683825998 -1.502273710180092 -5.360251601252657
110 -4.143361382968234 -6.47829520067011 1.1446204414890735
409 -8.076351254557812 -3.6202933299084363 1.225132209908608
230 -4.296182581570465 -0.8247783484190501 -7.961213344138035
163 4.917805044022723 51.63357310916775 34.527538001091685
711 33.25679084196066 -45.110029033411664 -16.12562931050807
364 3.2658544637874227 1.5055455982381374 8.091300663349507
389 5.488347111992231 8.233544118921328 -8.196430855974612
406 -2.2722682159617085 4.627277798011681 5.523443538592269
377 -4.553542897701053 2.9914691693991733 -2.226677850162147
103 -2.1969541917087976 0.012153107929104743 5.353779492011137
393 -1.479877523245497 5.1697233950912596 4.77441613541852
307 8.346192350307565 4.504263281692514 0.6602355300307475
405 -3.602324507834694 -7.198603208447393 5.643806515121183
372 3.0347285166262443 8.49207343265248 0.46023816170542087
346 -7.12594116813394 -19.697698193159415 8.822504034804778
380 -0.6124333263014545 9.702505277146564 3.109389606861166
413 -10.837179973231168 -11.005770524606039 -2.09473987602149
420 0.9143077770912835 0.46149253289296716 3.6532217205561963
431 1.979313629119792 0.9592935716678163 2.3365962351428284
627 -21.568458905948475 -27.683856060190685 -3.1416653947027293
675 -2.5495984479657086 -4.097308704592637 6.6060831903645205
705 7.557603661731296 11.228163594972976 13.485988961540787
659 6.8797612637240455 7.30707123402526 5.563902216307186
683 -4.530135713104434 8.8649063449775 -7.927317660454585
754 1.6663583770762262 -1.4570168338852563 -0.9390503835169702
432 -11.497523497990228 -5.438675553374804 1.5905412095638316
704 -2.7234790286727453 -1.0244684544954188 1.0671139205515348
765 2.2221871737062426 -7.137127329651984 4.166135697003863
745 0.014174545301665797 -3.2147323320650614 0.4365962028438803
691 15.498142420248918 -4.710211733074085 -15.240148468543193
642 -0.36041337975244336 9.6188701807788 0.4498839634415888
753 8.11758443534337 5.928866767720657 8.521671291901837
462 -10.43790883674844 -4.873653690224936 2.0905760040277555
193 1.6565941624093927 0.9039407695344276 2.531581001674463
165 -10.181941787042923 1.050696882684412 5.88610831563078
240 8.68387333476908 -1.2700610898625089 -4.523448048019608
499 0.17891836322431792 -5.974260094992353 5.113416703796553
479 -1.234436543222401 4.820027509236389 3.2166012127173422
354 -11.269428765676599 2.91442721653924 -6.489372261972944
256 -15.619781788228455 20.777104073623324 -16.843685503245553
487 2.3003864631688122 1.100528238190089 -0.00419826696969174
454 3.3069856418666217 0.885004822462482 1.6690325306023712
458 -1.9733235545752759 3.727663985313989 10.059474174168551
495 1.1185150924355158 -9.713133997306379 5.85913286076778
166 -14.135677097905074 1.5974131936494513 -26.733491958192072
483 -4.4247234985307005 0.4591888142780917 13.57992214850545
440 -11.003142943628195 12.393588037927477 4.997072754030892
522 -23.675629786009832 -54.99273722473868 9.90238646224916
712 16.650680974776982 -98.84074724882245 12.029505454871659
463 -4.199618242590826 -3.2903453155839366 -0.22433067370192739
565 3.421993242741909 -7.963271841485011 -1.8116936257009024
585 -6.4878761965367335 5.913026574530176 -17.642793791685182
548 -8.526211334140896 -7.421714422850949 -1.5326649199090405
732 -11.950317166562957 -19.330311102244618 -1.0900092306939881
541 12.272908793943119 23.67809790901855 6.216835068289287
484 -11.4575101487566 0.7260760063328703 -0.5988486585655292
724 3.8950797812133655 -0.3310077995474581 -2.968209975600571
369 0.5453226001369318 -9.276736080563209 -7.382418639218237
376 2.0405986797069295 0.19674709297830564 2.210876958256509
451 -0.7303991356777837 -6.23118570305521 -2.3950988575626577
737 -1.603526045663329 -8.983908099356244 -0.6788625835738472
769 0.504431188084082 1.0213056459433616 -10.29195768204316
553 4.851227384148147 8.135753028372616 -17.662409492589905
573 -13.906674987258288 -12.121784792465203 23.859551421213894
634 -3.3564828199820407 0.39572132657223164 5.422874647197807
233 -7.1177399366238525 0.9418310281895859 11.598476008201194
217 -6.557541461149004 -3.12218785270835 2.13409248331318
791 3.368799326793887 1.1444547992211669 -0.6031354130323514
733 -3.9349220603878536 4.881151289199815 -1.8616925508925946
373 -0.8788080456892972 8.759055984554399 0.15700940059620155
184 -5.364217146824375 2.1443908176950868 -4.889802040244088
192 5.466241242695992 -4.08581594898192 -2.666452182317155
254 -4.133758717150814 -1.921645067399228 -17.75648257070772
197 -6.6882840879411125 1.2619843658173941 1.9777865404346349
164 4.773861377044158 -1.814448926781401 8.336433466415084
639 -7.3493370175013295 1.4752933862431052 -6.715514109766705
679 -0.5215857387309794 -3.58975395670285 -2.2802320591981755
220 -6.325863675190209 10.359073583200745 -6.778411853208597
188 3.4898918054167165 3.406228253069647 -6.083326673023673
255 5.405843986006272 -3.87360996190454 19.9751928184732
330 -3.215334054667869 7.564071410546931 1.5369109310328226
713 2.9373916562836975 0.6531079372640295 -6.592201968083344
615 4.567621117737983 -7.532599870070845 -7.60498296821017
355 0.31252440174868146 -9.160784837218493 -1.4208218830975576
614 0.5259247773478073 8.249908321314846 -15.266799377020739
580 -6.041339692266413 3.633598246636336 -3.470303886045709
82 30.057867457745452 -20.94161372417348 19.372729418604155
561 10.897394114239704 3.875432109912487 -3.1383071472166812
600 5.110083230064127 4.792881035469308 8.956996292150441
601 -14.94392472048068 -1.3628278932759028 -58.94161306773823
598 3.668778752363661 -8.466213011322125 8.307404959900483
81 -11.006470978131079 11.578776367153464 8.990235763631611
599 20.285542132631075 -10.846723742181263 49.17661178440693
714 21.719110197615336 12.080432738999447 10.728103615940562
620 -0.3626948608257897 0.807753165460885 3.483982524968356
45 -4.360728847953408 -0.14492328237032465 -1.3083624617154372
86 -2.2432575073121943 1.0005438267868234 0.9385019979232327
88 1.3874191972971883 -3.041748660203969 -9.234253428276816
41 -5.391026250716751 -5.471998995710633 -2.0783365571518897
617 -2.3905731648742683 7.259676432455679 -9.709394465352423
618 -7.8998844304710785 -14.093554559079397 21.479200807795614
80 -1.0014764246258032 4.653726033355172 -2.5738641318661326
209 1.7466341281788937 -1.794772533316189 1.7885979499750446
21 2.529381989798299 -3.213337158592459 1.875731919736577
352 0.5424395116370037 -8.679208937282368 0.5724496046183027
85 -1.948976434245217 -16.2225747689278 1.582498203434197
84 -33.01988838264555 -13.79747702389028 13.21700984368531
341 -0.33860112281585036 -6.392654161239545 0.4608868139006733
331 14.363542034685553 -14.901150272549673 -2.562132924500717
622 -11.67669605440693 20.871958093472564 -10.68896749625616
310 1.158932832388721 6.82673341754512 -4.109986725625364
353 3.569724008587621 3.7502663813106505 -6.004249286982984
350 -2.344591170088705 -2.694367879763015 5.802677918952592
626 -6.922245083875161 -5.706185823217377 -6.085361344904246
115 5.571336306315547 4.991090695994496 -3.690202848032499
98 -1.1104606593944877 1.65117369994663 -5.962190741551914
715 -6.226666846041036 12.310434241942872 -9.960202093701392
111 3.3377451500636295 -2.166054641428007 -4.055141354095038
176 -0.9834981848887205 6.266301647515528 -0.2979471709776885
177 -19.86679197910382 -22.15320733577479 9.183119790716288
168 17.898314027798474 17.75297272679016 25.761199338063538
178 -12.278540786718208 -10.486972550677534 -5.461400792721106
442 -3.3887578077740406 19.192382588645362 2.4731159069607185
167 -4.386977807189128 8.642225531090295 1.9235459451571042
169 -3.7464917635653654 -1.6349790365835029 -21.75312442434128
160 5.991821267719197 -6.147424839207568 22.87650369516488
265 -7.532867524172017 -23.750320660045936 28.398361627205002
130 1.198391790041748 3.501153600555985 2.03173664163059
97 -0.6799241328777412 3.4894590578199014 0.0008342289692645146
441 -10.263389147192541 -14.813154971364877 2.7842583442481046
150 2.206345287429626 -2.4583523225561894 4.52753782638912
37 -5.774864067369418 0.0011139914906495344 0.7790382816913342
611 -0.9571891390838457 4.549682042908601 2.0846463261412445
612 -21.783839026576658 9.464309173751623 23.96512595170398
434 -2.998992894021664 4.054141148696944 7.17725102681544
368 -5.1542757000231845 5.013601011047806 0.7977937119905215
60 -6.546966342401377 -0.7955056658015978 -1.2935284685489918
61 -11.609864069324518 -12.35927030416298 -14.802532450557395
286 0.9533426292688508 2.0563330997975084 -0.6110417779358877
385 4.575027110103854 -4.717695176664572 -2.3130974860997413
71 3.9927881226718402 -1.2525800845432646 2.718940285829825
72 -17.43053459686862 21.544055383280448 21.668205043378688
73 -3.397655465545276 7.303840794302828 8.581050254007476
74 -1.5290070972774745 -8.704126628787261 -5.791937624364375
76 -36.22428629962019 -15.026303547593738 -20.44725767329678
344 1.710141488676417 -4.097192277015348 -6.5401708685108515
345 -4.1881163471311345 7.2618763243478845 -26.45167066856773
75 -33.20561273959659 -32.620067595895115 17.36467081411925
400 8.473841610140159 3.2895642462321595 3.2041063356426838
435 16.864946516200234 -35.93281367530504 4.474964619195975
436 -5.788533294886122 -15.67524885643574 11.141207148476031
628 9.744534133956977 10.565195292887609 8.457622344382036
616 8.208662150297501 -21.11327572774164 -11.517667154848198
621 11.032033512806874 -4.634866115444247 -38.061585264800314
655 -0.3566270363804184 3.175473283679246 -8.410753489491107
338 4.745537257799246 5.321305704806392 2.842471495267054
342 16.17301450398819 6.416343131202657 4.553214711366584
343 12.382894830235992 -22.94481928690356 15.084964676033733
651 1.4735140141870005 3.0912352612923546 2.1409263418696884
709 -5.601639469335005 18.924369794590866 25.26778080327999
329 2.832383100700935 -36.26589424898751 4.951272378263041
277 3.878932816285652 -1.9857660112338154 7.183255003158474
328 2.435063965677404 -2.3097724274607834 1.1676929713658575
707 -6.609012625601201 2.258554277148276 4.698858890105759
671 -2.924867982385354 6.133662772957857 -0.7584233275867731
439 -3.3501677524925855 12.707646366541661 10.787144887135371
710 -3.3013636982240255 6.010785027918862 -3.244140507440312
263 1.3160238146606171 2.7920068474688495 5.622155555452653
201 3.385781690304912 -1.4900850674907655 -1.2183734231098595
475 10.717847151672082 16.99291098656705 3.2393426262202887
397 17.696318091111674 4.483742009194574 7.372570352947198
162 38.290416784110256 -25.574370466812034 30.83283017789804
151 4.230702158594363 -21.83428705272538 -29.649145218167536
161 -4.067502608296996 -0.745166547888234 -4.499052308528228
381 2.28240509501596 1.7546905448761412 -0.6175224628383857
717 -10.15599019539951 -14.664911894746558 3.1308322795281143
448 -0.2126418487161469 4.127936109226261 17.65066491994272
446 1.6530105491896145 -0.6415356785028428 -0.5753302368915693
716 1.313495063549146 0.26396101910723957 -0.5066391509132491
447 -20.72084307979869 2.410017515681629 -14.139169707959372
706 2.2149074169468785 11.264874361737588 -9.040680766506611
780 4.109212349839353 -3.6238315730479127 0.9504163268007241
792 32.845735002808894 -24.139910988420958 11.067099674390496
728 -1.7057856950377344 0.3292910141146495 -0.6568016940908485
803 -1.6605452678923474 -3.4717606443575506 0.5739595737495794
760 -0.9770585609866889 -0.640095155866299 2.872082391708914
699 28.603712574064634 -32.44379016407207 -15.438804786167646
797 -6.271553879067331 -1.7499918278501523 2.102048095716379
674 -12.936677352451053 -5.3584540355473775 -1.632682238090284
251 2.4962596342710524 2.2710799775383896 -4.21254299795703
252 -20.660534532246245 16.38658180545872 0.037312789387451015
253 -8.149022864675695 -8.430661927952992 -13.884134459283235
538 -23.953241718189297 8.134634045713709 18.946628356535445
510 -1.7566330418202876 -12.23704718818414 -13.13449024970227
526 55.549944568676494 37.3046988895612 24.876485711444055
521 13.468395865345274 -16.808032522094905 2.558852690112053
524 10.87224427347211 3.941766343411565 6.8932331134622755
801 -36.85477299102757 -13.364897919857814 7.185841727356835
490 -4.566708021949186 -14.840451266128992 -5.569037266576986
525 -28.30481027440221 6.8067539751126604 37.737550366844914
511 -53.103134600787556 -88.39605693851728 -5.643219748883561
794 -9.65479933230998 18.43801469808515 1.5034491619750954
625 18.06880922342617 -27.076663652380002 -2.273961473892793
802 37.34990492328579 3.0240895418337015 20.097824046336886
806 -0.0390817785791904 -3.245317056741179 -2.6051514512824148
523 29.670779880506153 -34.39086025497038 -23.443817744885518
530 -5.783108249716898 1.1364961677307497 -8.664941815273034
623 -3.488470346694345 -4.684124887806438 4.825347786113719
793 -22.216457659597626 5.4039032395312026 10.373193612543162
87 3.436363883694668 -16.990442041224547 -10.173229265514017
229 11.699583476594716 2.241378274818572 1.263169180666415
261 9.387030312588935 -0.0280073372071537 -0.17789326648920492
749 -2.4185892093818584 8.300613704309198 0.2814179406528375
268 -26.94785071235994 44.512561219449076 25.63156849873132
624 8.257481189920458 8.96290083221113 -15.577836357960232
807 -23.21180140738036 30.639949260787336 -39.89232799289761
796 -24.11617790564572 -5.241904534304236 -22.908243918330324
795 -0.9627236876422701 8.21575816999694 -6.7201017125136655
808 -9.029409344807258 34.1542648455958 22.076676303384037
262 22.18368835266244 10.693060982441628 30.42741300728733
781 4.378431334467235 -6.277232636858738 -13.388162880614413
800 4.629009510597274 -7.221931097286544 -2.9919863805689557
225 2.984021248739818 -5.071788828850163 -0.09880292776283126
295 -2.568218017028295 8.331391547815196 -6.2129293012656
241 -17.468558091074865 -0.5005473480128324 6.385859539781409
532 -7.149388261247127 -21.271477723518785 10.767381088247927
77 0.10052924723377553 1.6942500387639656 -1.981253812151262
79 22.367088357867498 20.528411821572845 -39.763562600455586
238 6.703358839012959 8.061276886719856 -9.114331282446273
588 3.602556854676098 -3.228220987497051 -2.058585289712623
547 7.96986695245843 4.589115985442558 -0.025825123452217196
340 0.8786666220938422 -6.577080462068452 -18.082589412013675
543 2.24077002022259 5.737303339499343 1.0742398111532987
581 -2.460564189135704 -5.795050433887996 6.329314871018604
584 -7.736668215492077 3.2584543184566233 5.093983589523145
658 8.698619622470442 7.607834171822119 4.738396368406494
568 -1.8120968915298705 -0.4620667066382979 0.09554570919051916
619 29.98609349413083 -25.369313348031795 36.177282069039535
610 -16.95998367448078 3.9351972701453932 3.330979550383872
32 -2.7173496499965286 -3.570686366621194 1.2977838738283647
24 -5.841337208304754 -2.508564293688171 -5.647066011240232
174 -16.012622236210017 -31.57532131463886 2.58992471059179
572 -4.498018965139496 3.935537411946564 -8.385963353922849
36 -0.40580376764364906 1.3856574015696432 -1.387605091313655
550 2.0511348868130983 -7.514593126060464 -1.360426492344438
7 0.3713685231387364 -3.3500959329024975 -0.904430432588435
351 18.429210814246797 -6.29999197546615 -28.077341174596103
291 -2.112673689481936 3.1024988315838806 2.2381754687108533
44 9.25744257529266 -3.7150896577445907 3.9663305671950164
58 3.4663255578540544 6.154119043022697 -5.838695861086687
59 18.67109935649041 -36.56263607345602 26.5143076745267
51 0.30819861050883895 4.124527366099061 3.8520233833602524
70 -11.265031530139549 9.596791011280487 2.8095888519221193
302 -3.7637772896157378 4.640086454855133 5.037533361244278
294 -6.271875026524162 4.8973364426533355 8.72808837294453
142 0.12115633972933648 -9.937526950230263 7.637267029931751
645 1.4014826879770286 -8.612537760245184 3.8079322274833594
677 1.3699918624186376 -2.6521766066212225 -7.405095899578296
662 -2.4538057584398953 -4.014367650019579 9.918714836043822
649 -4.509689698681696 4.268963625902743 -1.4936375328076974
131 -2.7112546368828228 3.22554481795507 4.560173223097379
551 -8.843580795867824 1.8661519683220624 6.51850430465197
633 0.1990809277885175 1.7619860345326073 1.371294078134159
567 1.2129790362994284 2.121751818406668 2.9694962830419143
682 0.04415724929314827 0.7800888880803303 -1.1872527345197417
681 -5.494124152354851 6.605082735664998 -3.6919186141597593
126 1.3208021307220719 1.332359626766104 -4.0954394728487316
575 5.074746493433852 3.029098425311304 -3.1185372716651965
640 3.4149283666726706 -3.4976120361409198 -3.4645867596706603
673 -2.633328938046886 -2.427598102349359 -0.48910496574073
661 6.930930552266375 4.047355742754242 -4.963340054923749
558 -7.867768298858744 8.957502291241791 2.856551181679654
657 4.6186590990449865 -5.456276646632006 -7.12112002127697
118 1.0777133142894024 7.225494002202812 2.426738708235853
158 2.2478748604417196 0.24899448539985317 7.892338206032297
159 -7.376590918608869 1.7079013494896238 -3.467978222998786
122 6.378823005279826 -0.8047342156692135 2.6084675349360515
11 0.6652076020134621 -5.772606784405114 5.723934099178292
141 3.4310173028104014 -2.812700287777759 11.30815031245483
105 -1.8067746005765402 3.319838356359199 -2.2066946095293076
93 7.586594451214807 -2.495551986677033 -3.211774610057996
384 7.537318054637225 6.593059872428207 12.503667818159705
170 5.466169652094096 -6.251953854465511 0.8893224466174207
114 -3.4292339340697873 -0.6729297515101247 0.7617142066115622
149 -48.99460313985751 9.37996497223393 26.615446034014596
357 -0.8956992111167921 -3.111564851945852 0.7088296476359243
396 5.120292597921844 -4.9571954586910705 -4.946212819790842
175 -7.381071125314913 25.124490239886025 -24.302545334691885
356 0.5855340504464499 0.0688255186836323 -7.0202204359602485
358 -38.32412508109457 -0.028514968560023626 37.639719351514806
109 -6.263665558723968 -2.759548822950342 3.5400515172888776
438 -4.924844596589946 -13.688578966131395 -9.291632120166044
311 -4.575083751808473 0.32644556329012414 2.7402211792385454
68 -3.070401971832272 -2.2757033992754763 1.5019950188261673
318 2.2048161892184797 -3.891020740143288 -4.469818715369006
388 -7.750468646605492 5.506050539166357 3.039476482399357
173 -5.132053875738184 5.501436916251549 -0.21699061232787328
708 -8.28213700769265 5.978981144075472 11.696152868168298
281 -3.7121684115641544 -0.8085394824460448 -3.4124041531002334
314 -1.9794272817727805 10.633928371375879 0.9098568577604645
412 -3.3696378867896937 2.3837120108537415 7.602019845450727
428 -2.924064491327826 -3.0886758772272747 7.382557259402658
430 4.9563185168950525 15.290429635544 1.959080829823507
437 -3.708228434889311 -0.4940178015822868 -3.9808796346129154
654 2.620505439276065 -0.7907564892740715 -6.536915691997007
288 3.3307910094002193 -1.3973176175962188 -7.113306292617745
370 6.672714447089167 -6.762903752009609 6.082852791648877
272 5.143439969599719 -9.429540849276924 -2.1404757381787536
259 -17.566453743783995 6.486263645665911 14.623898399246238
264 9.545201865637374 -12.641014495237755 -5.850436192272802
698 6.747303136448703 6.297806407283857 -0.49156916481221924
700 -14.47753773241494 -14.835369856311976 -16.972756985121702
134 -5.693923807558963 0.08393075503909024 -6.14970449347867
689 5.5390999299366035 16.54434859892591 -5.099373779601317
138 -5.164278877453922 8.02154243279627 -0.550963256573935
208 -3.9038280893300543 -5.176418283158396 -2.8763110769986775
257 -5.33928241471414 2.0855618050572002 -0.9631938462936742
258 -32.313947757320825 9.984477834514188 -16.360200436787707
788 2.1036327688342062 2.108896554574929 5.103475775328909
216 -1.8796321559353903 1.5158704559579632 3.373199414010521
101 1.119145898391451 2.7656722582460795 3.9199992831494352
195 -3.33241780468546 -0.72212261269117 -1.3965096504464405
148 -0.4364006541313975 6.267038142965678 0.6241753591310958
408 -3.7915943405468453 -0.5965994552712205 8.93953310247351
453 7.157299144610132 -5.620967455763804 1.007378751918753
474 1.4959045594538318 3.830792261877257 -1.7937257920066485
478 0.9183011922572532 -6.371209598270243 -0.5718297158318472
527 -0.23464660413601826 -1.5478417198090373 3.3503156357774233
528 3.2914962608631306 -8.954961449696178 16.582884131170363
371 0.9013336160352369 0.5202954355191303 1.181885200232634
404 0.20862212496978416 0.9734355132023415 3.5455860135641393
534 4.687280061649745 -11.127637829129466 16.276307213461873
535 7.699044787501042 -3.6978431371443414 -31.84264439265632
482 7.085409650454333 2.1842076472098473 4.711834616255394
367 -0.8880037299005661 -0.9237469426452463 2.0525166040462963
518 -1.749548348852797 2.2699049624182175 1.4505126639110695
718 -0.9640341475112296 0.9264628200752877 19.87457002453139
445 0.06762466831723178 -11.239450654812275 -10.029579374662182
741 0.6825896206375942 1.3332347121245212 3.4137289890986144
401 1.7377263442052688 -1.4289076780788654 -0.4681610613797968
419 -12.276426712161305 -5.912592696042418 -23.90117340773236
533 -6.6070370989869724 -1.4894819110690547 0.3190681813211744
444 2.3208982863660634 -8.589955232323488 31.624685272624436
529 -3.7411244238134618 -3.7609258445866565 11.522750268898687
443 7.534102962906901 -1.0554703044932143 0.729388855606854
418 -2.278558712452866 1.779311673946185 5.674682045871983
756 9.30878182926398 -0.6962982912652175 2.3458622019780293
469 1.9028284267921005 -4.710183454230962 -4.4716260665251255
497 7.045877861167318 2.115335617040616 -3.61923057150363
805 8.021385304959844 -23.220079635516676 -14.070935057915605
772 -8.745849322745768 -6.614452437649952 4.204066026200822
363 14.87694417327192 0.1003967797200699 7.402002240100734
429 14.002542432022581 -4.146252918049263 -8.767784036771197
266 1.8733656909484697 -2.0172661738708184 -14.39411481829959
267 -28.578990855463662 0.9199698378452541 8.246576005076482
804 -1.8769722648525473 11.199492189762173 -26.55884441030104
637 3.714010468464586 0.005922808299919986 -0.4096430315787991
723 3.6105485337508543 -5.76540829148537 4.480486749058492
748 5.361383560165349 4.515081778010385 12.58297496797799
789 -11.499132829023088 -5.575939568026128 -13.456739096993989
798 1.9053095219709735 -7.563645484128548 -8.200761960027835
799 6.3729400475388 -24.91705718033716 -6.206165356720717
752 -6.863916823512025 1.5030922934361972 11.151566545234806
641 1.8502181438982468 -3.581424444490604 0.032753181767520255
374 2.5117883510855847 -5.2475561940522715 -0.9208918339384942
790 20.508078885022474 4.982278466465857 -13.106185704180067
688 -2.4790311824415285 0.9819385784233773 -1.2433100512347104
221 -5.893307250219444 -2.279731012784566 5.216942836196651
78 3.2166647918758726 28.344147230199685 -4.316562435829956
28 -0.9115692300969723 8.053252188473978 -5.03331418728312
260 2.8670919231503738 -5.383188520066937 3.036052323702549
249 7.226090294464101 43.234113064592165 -7.6651505283467385
471 4.239011817089168 -4.624966734913972 1.625748132156279
348 -0.643920221487407 20.306170679927106 12.15149437854328
531 15.052208512355657 35.66875426167864 -30.04245512563312
248 2.2200148531249346 -1.017793038586791 2.8254732744058937
250 -19.15111068450339 -11.712377065709836 7.4601247355109646
347 -3.2858628465950943 -4.800849158628075 3.3902803931891112
349 11.694295045756226 -37.2721868182151 20.22791685815201
212 -0.4420267804643486 -1.9297119023730878 1.7651436771720952
239 -28.902917206798787 14.881742093669434 1.9770089364262136
498 -0.33536230860987065 1.0965907764934872 10.511779989328968
339 -19.20106421730489 -24.84200710555057 16.030124227467674
537 -5.57635023340735 -13.316176546008546 17.42812483818164
536 0.8720320022657438 4.707435240227297 3.7366004386474025
457 -0.5725774563176327 -4.0671871173979115 -1.5367502844779868
508 -2.297585212963367 -2.885150077418293 0.9161940013979261
491 -0.2350538146032811 2.698698761984166 4.0931983006218005
322 0.24392011995640758 -0.6294964826796775 4.276807118843573
494 5.479294558576331 3.225349780395705 -2.6396774181764235
520 34.47931561125249 -14.22021677996385 3.7775615663582967
509 6.948517794607686 2.2361518590115717 12.437423492414847
464 -3.722129743802913 0.8143993035368555 5.472215886715079
576 -0.40817080994489446 7.558296174449017 2.7795124627170624
564 -3.6063784281271363 9.0988635594479 -2.7606382095236723
519 22.288451431035146 12.307178713143118 9.777982879361879
731 0.5599705315248619 -8.152510972506558 2.962341224181358
764 -7.638425346217413 -2.0973157161613303 -1.4045448379617638
768 -5.028013780373867 -4.82537757431163 0.2380728713123835
609 10.570448059784871 4.798234498924359 -30.755123223497367
779 -3.456361684064586 -16.09336099388429 1.544917326213096
608 1.069999565159568 -2.635257806554524 -11.626781392720053
744 -0.8463711527380554 11.991981375596616 -2.8455315024511574
778 -0.3434624425934707 2.384195643983981 7.484302985526879
727 6.201717772404281 3.1497181218700234 -3.1248865666321772
761 2.7053794512621487 -1.510458155811689 -6.929682493261478
69 11.60848319917933 -3.894925936551146 21.73759284472241
224 10.0258466709674 3.220885155161989 -4.284855339979161
204 -5.257921645418733 0.04589571664814024 4.327239985537966
187 2.8323065588250165 3.0017764757935623 0.45627980737792034
194 3.512075040217675 -2.904888314213868 -0.17710559437154627
199 -0.027371715995554387 0.7746655541945288 2.377779575027117
280 -0.29513739673283945 0.6899770505040523 -3.390320806740685
297 -5.909159917478881 2.9764420426570046 -1.327945624006916
317 -0.04470342277778983 -2.2559171818989334 -1.380660769384566
306 -10.066683188713814 2.612060781005666 1.7166829896099243
605 -3.859819412697151 4.256483924058289 -7.885711520380049
276 -1.1492193812675162 0.9606951947890785 -0.9017692219114258
293 5.880020554284526 -5.665392292620966 1.7406980535515781
554 -3.875742420178454 -2.0825515387868117 10.114453739057815
555 -1.2826327910056115 3.684807515117535 -1.4311567274515347
18 7.423741234618096 -9.551263869177408 -0.3307668308883879
559 -2.023404508257297 -0.7178097073177477 -4.435727796543403
587 -0.45848466292409046 1.3875220414643992 -1.4090079214755105
563 0.7953529018400982 -4.42554389871506 -1.077569596317543
3 1.9294663159983325 7.722584179835815 1.0018900248966367
14 0.7827145237701846 3.9729420858912703 -1.4708395275963613
2 1.9393765407808259 2.6832241752598693 -3.8762143763014305
10 -3.9894316070436626 -4.131409847186097 -8.786540764097978
35 3.3592110032382503 -6.136771609417091 3.591689602452744
113 1.2506794876306453 0.06307477919725472 -0.20616686094467482
121 -7.259627448641631 7.045885376045641 -0.5404823905266545
27 4.801507675409931 -7.380795775096149 4.224977864151904
335 2.634315932202302 4.53808129038589 -1.6101340514884794
1487 15.838268819729523 -22.05432341186573 36.29203448422175
298 -5.7992677212320265 0.26772403810716133 -6.163145274687435
321 9.731114557784606 7.57517660372619 -5.703099851284678
468 -3.9300608512015036 -1.7895817742223368 0.2789028614959755
289 -1.5166952569979277 3.3108158347209 0.0045131699768949565
285 6.322217587938417 1.3956567620588232 -0.5065984220187543
542 -3.402617808217174 1.1848029158328746 2.876446126840062
100 0.3715551960675008 -0.22182867446568239 1.9322739960902346
117 8.928593234597878 4.547534346069682 -3.00580949881989
137 2.174676594723683 -0.26417847068416755 6.634305482516505
92 -3.6589475517593604 5.10807464806722 4.686899619258874
104 3.9842860181400366 -2.3845381441503695 1.6577986908694375
48 0.8464737102922817 1.9978398225431666 6.975758732721093
416 -3.298253730604685 -2.6435705749996026 15.819271174277247
1524 -4.972683743601275 -4.244271458527272 0.628096707666638
125 -5.649382441356075 3.3402300804842797 4.529670622125978
985 5.332085246164753 -9.336848084235111 18.7496372435936
395 8.395114080998752 3.523256094596314 -1.825094299124684
425 4.675038123248066 -0.7256534536420873 2.088157093695132
1553 18.78341146400549 -7.914459118240048 -6.457924994406068
96 3.32219203596259 -5.5344662823235256 2.103391755664827
473 -6.543767482694048 -3.224066832586822 0.115596902537648
1552 17.51834728063971 -5.0459045955217485 -32.0493178101354
403 -12.286761398062332 0.35382536233734396 -6.2679359617634605
284 9.026444726375573 -3.500721771913926 5.1432274193644645
666 -9.232258322464716 -10.006560665453529 -0.16976831470914697
391 -0.07528677411556223 5.236633345373923 0.4106634014023776
411 -2.6791846188308814 -2.2220868504515616 0.8179720229824383
375 -0.5003420233326863 2.0130939175238036 0.8606668336199325
417 -7.189119676805798 23.980089942170927 -23.230606789161975
407 -6.182193701507013 -6.5623406131637205 2.7162881992530945
305 1.2280001610448945 -3.5638099789375315 -2.3655167184460044
366 0.6204690717280669 -5.443486970368507 -5.137112145398144
697 47.95226663055993 7.244857857708788 1.8225285107842983
1522 -4.9323551618758845 14.270456174475925 -3.9115268217300345
686 1.0781020682628781 -11.750405684074662 -1.9963012979158505
183 -4.734167883277288 -4.640541057689493 2.7976936719788865
665 -5.3630169889490364 -2.4667043160090345 -1.22673753603295
108 -1.4150681676354302 0.24677117360083886 3.6217797103209084
632 -1.194334883573306 -2.272493688210725 3.9724277136860193
644 -4.749320006121514 0.6032157751767102 4.021001901565959
751 -6.776603521209488 0.20598013850602165 -6.8247629417320885
232 -3.4471541245441686 -4.6497241633768684 -0.5061672958314453
486 -0.9671503989198819 2.165870747433031 -5.075018889550102
190 -1.7749877655891437 -2.121878989182209 0.15707266877493578
465 0.9610304029518001 -1.3731916134520727 -2.8666900450203108
231 3.6758534062145043 -1.6931946362185124 -5.717532680207215
1195 10.558088388857474 -18.288397133313282 -12.553987823843123
506 -6.316393637850653 1.500426732077246 -5.8034629262869
186 -1.151649452371682 -0.10625425170206754 -6.0365867736305825
899 -32.49028278348632 1.4712874113218963 -3.2117237341998477
362 -0.521455180985088 1.1415623081096462 2.2782601038091586
507 20.25980368907967 -9.948062560233547 -7.426116528731781
477 -0.701898130370364 3.191219469617378 -1.353222563292912
211 3.613775923452412 1.2397758710149707 6.5798907398596365
1658 -13.076401162580238 -7.429257686112603 16.000264477907084
1657 -9.968686035240566 -6.678085008645793 2.0762896280771015
456 1.3943101872071562 4.6430707924970775 -5.868214636041439
378 1.0651889947955102 12.533707448630505 -1.2067449893594915
648 2.485826713380839 0.023243521374204518 5.715473798222279
427 8.637057973583202 1.2937072119158695 2.3940100913855447
392 2.751465799222025 -2.482858333373376 3.015168056533155
379 1.344211305169001 -2.4959548981711612 2.5243146540634527
502 -6.419585415811627 -0.27549468623361195 4.428951847375057
387 6.328775077609694 -5.4309298184071295 5.492308294013548
730 -13.349209580233994 -3.900771063097984 -2.893275465830141
743 -29.24463421669253 -3.8783739605749523 -16.615594857496212
739 -11.570471786601516 1.9567769290476138 13.323903888750728
1002 -2.481363731952742 3.5423368730061924 4.558940801371533
485 1.2673425350942313 2.716607943332217 -2.6783011480392527
460 8.364299868393479 1.296004855635372 -6.531644820908916
501 1.7360519496490825 -9.627281567250934 -0.19785788299359597
301 5.661842977349353 -3.103144436049158 -6.8459063455494675
452 4.41575985088756 -6.786217500933526 -0.08621037360337991
592 -0.12091720767108882 2.7836115344576715 -3.3843839917989804
738 11.481382692182011 4.074434659137779 4.514491901054839
734 -0.730123110743339 1.4734818256468942 1.0431831548856552
481 -15.571825453094947 2.4234313961353533 -0.6762358208826315
678 -1.6888784983854392 4.449958144170916 6.313143013228068
735 -8.58410258904693 7.006793252086932 9.952996860632382
767 -18.073930202329493 -11.91755232689274 -0.2740159512939798
755 -6.135135722668076 -36.30837611157403 3.5726467283517227
571 -13.602432842651405 1.7918335722516194 4.236913214333007
722 8.13817209195664 3.1301559477139405 -6.569657924646654
273 -0.13876946306107002 4.272761309139328 0.6436931134305218
461 2.163713197333038 7.012444250057562 -4.523445882342513
19 0.4951679126987089 -6.401905467881818 -0.7588646376211333
191 19.608482535431243 -6.268844080063912 7.6711428757665665
228 -14.175961231429095 -3.5911694269863284 -3.2422313204876665
198 -2.0574423768761254 5.818500517471426 -2.155015458116895
52 -10.9888952847814 8.206207626440396 2.964228373024545
215 0.9255715646439684 -1.8803888708400776 0.7720559528769003
182 -5.22263443555873 1.0887265102224502 5.712823249374524
606 1.219409402343136 -3.812495096938685 -2.641707921871206
313 -3.966229732775993 1.34802374212262 3.707781461854522
1642 -10.1410550320919 -8.512795744053443 11.418422139515682
902 -7.534728228160685 25.193452712075022 -13.017148637936746
597 -29.75080273316024 -17.103280485838688 7.259612805406728
607 12.65624482034002 3.9203821872018416 1.7542548936550602
596 3.101338086782209 -0.9010323221502505 -0.5922989099834197
1387 4.317288402398341 4.849439576363425 -1.6275600726872983
1999 12.796730434575563 0.18998786626195474 5.731794045499135
719 -2.126197081189043 -17.963537285107833 -5.574933682968674
829 -27.89727035612688 19.460884454818544 -10.194062011765379
66 11.277418178515438 -8.460817582827143 12.924651804942917
1624 -2.350752274132959 16.60188226703424 1.4470685770988483
47 0.6247646855752487 8.282604665121927 -4.972834196478843
15 -2.3877629130252194 -3.417960321090342 0.09977241799271212
336 -16.744624417045227 -8.865882850919618 10.83269208917862
1598 -6.766317713405998 16.721986149551693 5.355001497960847
337 -7.133088221883192 8.242344244975707 -7.202574447503784
1597 6.230913774746232 0.0732930262521862 -8.141574448996062
1599 -0.2969039876402746 -7.167214718419873 0.25251100578747293
992 -10.875766008085003 13.280478058222473 7.791255441805097
1000 0.45657382658523404 -16.33673558454771 -2.098563443113777
383 2.633607223148728 2.7080724382634282 -2.488229689768529
449 -2.9044704397221994 -6.267249011922912 3.8259984793197064
1480 -10.151430773485517 7.072836746764534 -0.4312835375532642
860 4.866534566929065 -13.911048852836187 3.962322496274386
1818 -2.326053051589338 -3.8842093216709173 -6.136060402554956
1482 0.8046706078727912 4.509263713997545 1.9626471565313388
1397 3.875535611732052 20.129772163355614 2.292915503324694
859 14.037188086986998 25.888767642465616 6.354278725010418
1398 -3.9500340635409743 1.5542964521931257 3.6304734431695396
668 1.745231456999936 -4.96458893011992 -3.573201744455192
1816 -24.44336467927057 -14.107687163902357 3.024306615580176
1817 1.8406487515361 -11.41269450808204 8.328391859931456
1396 -1.8274352689868585 20.517919908741295 4.987576373971267
1204 0.5805461242352676 -1.677025690474383 -23.8248508819407
1218 1.5951433083565285 5.500324962329187 4.389853035743569
1217 -27.26289402737586 -5.684143863078944 -2.1771668895636656
157 -6.441423795562494 7.600095934080703 -15.436790865630753
146 -1.5495878265792877 -1.0238891283194238 -6.174864362184058
653 4.454256186061285 -11.300685721525724 2.661249579350134
1566 -0.6622639453043628 -2.33053430558897 2.8165011868196137
1626 -9.427044635340232 -1.5842142415409788 -6.579773835172402
636 1.5446403145284138 0.44290254242698524 -1.2411232209067165
830 -10.016883920905261 -1.5897434479469843 3.8070429782973956
1342 20.106811469841837 6.807865466318553 18.71242784838386
1343 -9.797815834734761 -13.331475111587318 -8.101300703369354
1564 -3.743672585849732 11.555648522251737 -5.673679588861916
147 -3.8824646874735658 9.812639858175107 -14.759695100933339
989 -1.9520725694973 -1.9521530344984603 -30.608369368774863
990 -8.11527807497417 5.665620010978365 4.6275852007683795
1344 -4.404765605651681 -1.454993546913696 2.6124865982158867
1625 -21.487293000123433 -8.250689568561699 -45.218565298622174
269 -5.157093803157415 7.696529807209192 -3.6828580459352285
1595 -10.441535129536641 -16.279785815569056 -15.361345398669961
203 -0.9764601060065806 -4.6236997509974636 -1.7172649920918157
1003 -23.901866598039977 20.603983843424476 -33.50857223418111
987 -9.976576900763028 10.274882342338337 7.728291893555704
1523 -9.442369859558106 -26.891139811784104 -7.272342549069405
988 20.100203003128428 -25.004307986999848 -11.997236415741348
133 2.85929177146545 0.17378262114238566 -0.36085911638506285
1486 4.713187036254656 -4.924575308761264 20.491451461075403
1488 3.379145739085947 7.200305924032441 0.9383159353553824
128 -6.414427086218773 5.613328878750163 -0.6617429342358527
179 11.105985236611865 -9.395650437559343 -26.32099966397046
426 -1.2295854438958151 -0.7494698997596867 -19.361870126507924
986 -12.11053760132038 11.455401159846863 -15.47471009704988
1554 1.3947471948167793 0.875666067285194 -3.280204506395575
398 -2.6908764622300647 -1.4800008673960752 0.39799910627014345
1493 -0.4480269578242834 -3.695382517306312 7.474766530266363
687 -6.19512346148558 2.096900036742531 -26.545123316436037
1494 -4.921440103682257 -6.883088852164729 -3.442405502876635
1492 -7.861347349315786 -14.529159060041795 -3.5799523848723824
696 -12.00764434200752 -19.370344646508045 -25.14375699574112
207 -2.218860915285495 -0.92637132324813 -2.227798450896744
237 0.3062530963768974 21.20503509912649 -2.0029319364447433
898 1.319959061898729 15.000273187110206 -6.244426089674486
1099 -1.5799117035704875 -8.08096237284982 5.006365221600895
1100 -2.3570929189719503 -5.460156367920239 -9.502304303990783
900 4.192023133562179 -3.992172541877213 -0.3882364823749525
876 -2.860693884904643 1.2352948720190573 -2.3337851932162694
156 11.635944596477437 -3.07454746100757 -5.8106774378545065
246 -2.9921654529285573 2.5863534224889078 3.3950494893529384
89 -1.6488395420147792 -2.2733855775278955 -9.844322326165987
1481 11.232924063464395 21.295453495741622 -9.27538966357523
245 2.1929203465792604 -7.60812726751122 -0.23985347133868637
227 0.43414829474149214 -1.5855513146799305 1.9707513484579269
875 -0.5276632485570597 -12.889121210526275 6.921295289221086
223 2.0416930161066884 -3.0640643260324523 1.5355100120289447
874 10.886549022494139 -24.621160226497164 -7.286927088901986
1101 3.9553203212806527 2.3836461281457346 -1.806454031465132
1565 -2.7191397315597015 2.393105248184322 -11.982081154781769
1659 4.505244626543385 7.136774341098718 -0.2622132352860529
218 -0.33273492311738795 -2.3963243751628966 -4.26917651140028
539 13.400281657075444 32.35076818583604 2.19630709543909
493 -1.8531090647932704 0.24604908107427273 1.3241651451848067
488 1.001410429070681 -0.8515254729423801 -8.187808493793973
776 0.8823403482505001 -9.108430868496832 -0.7424056865039372
787 6.211234802292017 -25.50925443527684 9.867785920259482
1102 -10.993178276005786 -12.291631583253114 -1.1284498329146118
1104 -5.937433566077251 -7.1357441788898335 3.5327435618636094
1673 -3.190676592792729 1.3502077662752574 0.13847954694556228
1674 0.7590488950709668 3.361034559598742 -0.16937773436566358
1437 3.5852825851062784 5.020918716234323 -3.075270206237264
1436 -25.07674313654939 -5.3527964169767746 2.07432525807655
771 -3.8958896244121237 -3.4488890383037285 -4.248923199866282
726 -6.409049073306637 -1.1599150325056156 -3.7135906313826625
777 -3.038468717210594 13.32856011913472 -6.9064206005868485
695 4.44131839094822 -7.176446488181986 -4.76574591351461
758 3.1661719922111846 6.590607830010744 -0.8614422930837788
809 -16.605084295301765 -22.695725189300283 -26.823954635058193
890 4.071157427203782 -24.621121696262865 -4.558604842806055
1153 29.88255065715571 33.08800590096404 4.539110978626884
1155 -4.8744456685347375 -4.083754794841008 -5.704185978448283
1930 -9.338096036653303 23.627567154623073 -11.523098850745825
763 -1.2745871909049657 3.454276166538358 -2.929191310414442
1154 -7.531542978234798 -2.0072299743327595 -13.546271488775778
236 -3.2688187557806647 -0.5821774622953984 4.022200566069464
1001 -15.689651939649757 1.6841185353519825 -6.633104993575353
31 1.477758930161205 -2.576543703396433 1.3886462878483485
23 1.564647262724892 -7.03704516733209 4.086278862097832
1390 8.075227178128477 8.16502981845775 -16.033212345355533
1869 -8.049692609548858 -2.15268684398156 0.2741106141919985
326 2.8302285187383465 -6.850668169353171 -0.29240252012130497
38 -3.801794013233279 -3.933780771954983 4.294099984499428
327 23.76297082439062 -2.3140709137506787 3.9376516583453833
308 2.7013121825822415 -3.165843547211607 1.9361760584849006
901 -13.65416620211582 -6.171172223267559 13.736255707787013
1392 -6.349586360545701 1.535700717073382 4.484791068404074
1643 11.873648454295706 11.372180945626859 -22.480114188871227
1644 -0.17688269692134007 -1.1163944134564776 0.8330321035258683
1619 14.106601944993324 -11.151163142298412 -1.5849681647112432
1174 16.695570830119067 0.15314843412025206 -31.853910409630213
359 16.249092760119606 -2.406639279914777 -5.747421536244953
2001 -0.4723747132948679 2.1062361752189114 4.371920095623023
2000 -11.845322532575272 -5.168571269072577 -14.831644167825017
1103 -25.8187414363909 -27.74506273283529 3.1340954452933305
1501 -5.730779964861813 -7.275143602902857 4.6382623838623545
1503 5.067983496846959 -0.3454641751845271 0.7053262044843024
1502 -1.0661651337983993 -15.309273074347804 11.264111889207912
578 3.600714632603262 0.06756577886389617 0.9226527156270861
786 6.67211894873488 -0.16876898085144806 20.237783911915887
546 0.3675834296027074 -5.7008558633744455 10.15003920283715
56 6.286957804115503 -5.25360735900833 -0.9282355201166861
65 -7.39420043320979 0.3124936323620485 0.5196970428524981
831 10.823684646048996 11.854794893484655 -2.103722694567708
67 20.058678163422965 -1.0371298052293398 7.946595002037892
583 7.789021827487661 -8.743582331328414 0.374359570853542
591 -2.310902348234909 -1.5764714424958932 2.9331357898692265
57 -1.3039521935931042 8.901271430155669 7.8056392802294
1778 24.558118685741107 -18.77203555675719 -8.884350414666317
43 -3.355154381109618 3.291905423067493 3.5063340689471794
747 -2.4846912593444026 4.361084427502491 -7.315770798052718
6 2.193007110261877 1.7203427591143574 8.831625025450522
247 -11.525249461896502 7.3101746311352604 17.489850351809206
1855 5.797091483292101 9.667081317050586 5.629747767070116
1856 -9.91689564887286 -12.11697562471167 1.340664513396885
1857 -5.941983100149722 -4.555406807250117 -3.5953562580059346
1081 -10.734218274399476 3.373500111533496 1.0420991350305455
1082 -25.713797724705376 -0.3171848724182656 1.959417902865491
1620 2.4087869692022927 -1.7133995630185723 -0.15546113212176144
1389 0.7883032937948974 -1.963759674120119 -2.7738307458610394
1175 17.264069223125066 11.545478631510978 8.458202373916075
1388 5.891759109238149 0.9851064971184766 5.927926113296256
1027 12.255912852425006 4.739317194635371 -3.6700844757943463
1029 -5.166817018746058 0.602570486925214 -7.8096546352012925
1498 -8.263803740274986 5.457003495503983 -14.39359673162986
1500 -1.8303791074306164 1.6048077564354037 3.3307955919264844
1933 -8.89182041588982 -16.675065458536434 -4.0286685061606455
1935 -0.5868168957801363 -3.2709720153547166 2.1425415801569825
1934 -4.9277094629403635 14.456346008778388 -3.222247678812203
1028 3.7735724104695687 -13.288580807004506 -1.6537314032661525
1265 -13.599998970776698 11.926938894326732 -14.769389278068061
1959 2.66076461444937 2.418116856258577 0.5534612380726628
1162 -4.19718897755354 7.027067754315868 -4.817566841703939
1164 1.1447004320023517 -1.0860508412139964 -1.4435253609058614
1163 1.7847105487634032 3.605875754624709 -5.652977344630856
1779 7.5823427198689 -2.715485994277015 -3.336267362063009
1093 5.134574921249307 16.23606686286586 -8.532104228382169
984 -2.2421149677601546 -1.4939954840875906 -3.405184096737205
1831 16.609941197676775 16.196632850008545 -8.359773996628084
1833 1.7233650702810444 3.907535591882411 -3.3391097198795046
1957 12.807230760965085 19.98479093281434 4.951932008592896
1958 -5.543167509904031 2.621006014191424 -6.7781575630924005
1048 2.4558773355515484 0.01462886568058281 -9.713841844454933
1050 -3.6837522471599424 4.4344159896885165 -0.789011674410336
1885 -1.423139045062367 -13.883853085995625 6.975368214795187
1886 8.974835216332984 2.6687062114991718 -23.270474409908715
1887 9.368232561657472 0.45248938417321183 5.845332397256587
1095 2.588610679749037 -3.0849108309117854 -8.787742419723617
983 -7.986954969317259 5.206317895380959 -1.184752019871325
1049 -7.293103978133629 14.287562221941217 -8.600078265754467
1094 -19.252891307012618 -4.997773484952607 -6.139031239923921
1464 0.4102985878882214 1.843196888239741 -0.4790616090164901
1905 -2.910087430973223 1.2934823402610687 -2.0407006645882513
1206 -1.8066052201927967 3.6842981536475943 0.9632214787281862
1462 -6.028946904358569 18.280275068485768 27.65603930954393
1205 15.839800674406137 12.181219605823781 -3.984470032118876
861 -0.963634248506187 9.298046162043962 5.19753840360771
1463 10.170902803958237 2.1488081899325446 -0.808485899995423
903 5.910058071997697 -0.47178991874458015 0.4809782484684964
155 0.950760600630684 -0.47987440932037373 -2.9224577396268163
1891 -7.791323923420336 -15.558478579918717 9.285309678603847
1893 -1.2149525387193445 3.3813810534123676 -0.26748401382655557
1298 -11.88089607411173 2.009611991311035 5.797109252893079
1892 -4.383640703857537 -2.6137033934794514 -4.442059634603089
1442 7.36898167707488 1.354362674397197 -9.227002416384488
952 -12.816356608090429 5.641702295440744 -2.722268708797879
1411 5.167638943373555 -0.2869073779135462 7.02245593708596
1596 3.6483542840855057 0.7106193186175542 -1.7302013400171796
516 10.742878410812592 -7.309717619518014 -7.028881494850143
1441 11.578490721285565 -1.9003208516977703 4.2322319283423395
1117 -0.2639949813318336 -17.68482067969697 7.177430831199423
1297 -0.7952907050625723 14.781055276603459 -0.5009193162727169
1416 -2.2938569763224788 1.32882215162896 3.5768440943226287
1594 -9.297871955900588 -12.237498305596874 7.990959364207682
1219 11.94908611643074 -8.161505304570715 0.5337751084905776
1525 5.16653150852294 -22.772028530379814 -6.259561180571989
1526 0.6912014110564951 1.00729524612779 -9.51630077576307
1414 -17.399560242339984 -12.027329476957554 15.708884633057838
1527 -2.1991570431169163 1.830711044182387 2.0968902578342794
1118 -1.1852497299426623 19.895176644118227 3.267356749645718
1443 4.581941129372087 -2.911152832217943 -2.6071069178582245
1383 2.77053230299086 4.777286759782414 1.499984396728719
1004 0.3615059085671891 0.7275353002088016 -7.012829972334243
993 -3.7439724073372895 -1.4256864992707845 0.4595131466984198
991 -7.1686948305681435 -14.490415653442023 1.701873444130607
1005 -1.8022200914019115 1.3244848351143685 0.5865949356886084
1220 -3.622614310734771 20.564063591495295 22.652237178771603
1832 5.546924670655668 -5.167041062005164 -7.062894841365863
1638 2.6054269327697113 -0.7331254727764339 3.381357001649453
1221 -0.30073238901242416 3.1272747698485133 1.338654231160775
1381 -19.473507248588202 -1.104893467798248 -10.151528436602181
1415 -18.78094402586356 -15.69712972600711 -8.566567991164371
843 -3.635211662820932 -3.9894790144893815 -0.8136601230126579
1798 -2.786827184383419 -3.8644685941159604 12.889653049616822
841 -0.20690611111862808 -4.5882379146009775 -12.469477035820807
1652 -4.278792280704776 14.095677738692693 -10.04233207103237
842 -5.241238662034561 7.765281539793799 -0.7528269221716921
1636 4.78028554789766 -13.974761076592648 5.049690936154863
1097 -12.5609308079286 -0.7333725916946444 -21.211795055697454
1800 1.2484214360661392 -1.374803773447023 0.6691859005753318
1799 1.7856624617439838 -19.423831160918635 -17.6719330167994
1226 6.720070212998308 -8.34184464966676 4.922306370344238
1931 -6.7487704154988 -15.320836039074528 -19.650982829794646
517 -9.276036137914991 8.973659904119996 4.722579173077234
954 -3.5642654903405067 3.5466188885724486 -3.489408013246102
1216 18.42723372522243 11.038895946362894 -7.92854353181414
1306 -11.399978006110342 -9.098949870583422 -0.40922781768812067
1307 -5.156746909192575 -1.8960206351861288 -2.1019532697053402
1468 -14.18486268899762 5.169292653848783 -6.642107992611695
1716 3.2948264201434028 -1.1394916352675877 2.120850466886556
1106 -0.6010418848858033 -5.5471367876282285 7.748332683598657
1261 -2.4566999687053674 -5.645672560808949 15.936025733016697
953 -10.178671660606893 -10.664167674748917 -10.875377534992955
1714 -1.761836827025448 -4.277656743336412 1.2800922362212885
1412 3.983705373303978 -9.917432243429921 7.545231907411774
1308 -0.5666242280011862 1.7013752389090782 5.000337796485592
515 2.5917277890414017 1.122044051524786 -1.890331233678858
1240 -11.75086563775768 -0.10719233352770806 0.5810169777006003
1241 -22.727812283288245 -17.480896591390746 13.631266703254978
1196 -9.537010848649695 4.089834643270329 11.288847129408625
1310 13.650038575310374 14.39482586844843 -7.134252895205653
1098 -1.455793725875771 2.9468238370076145 1.545718203650457
1197 2.1623628994754354 3.761994336662594 0.006424740148467901
1096 -5.000341321797273 -2.6115733662264837 1.8346580155385344
1382 -8.995504542865431 -15.567326333681814 16.378832154015615
1647 -2.179604306375839 -1.3901095570994981 -0.29454928045833134
1309 -0.18247588045917915 -1.9239601140785678 -12.730116714786144
1227 8.547866513571114 -1.6292189261334622 -1.8545451695701356
1311 2.766294552894269 4.930243149018381 -0.06173685347179085
1946 4.157403475246342 -7.4814741796658994 -0.47422968541299776
1947 5.084730241106694 4.028837136853995 -5.88675127751036
891 -3.2403683057544996 -2.7777680643545724 -2.2182654446266206
1645 11.972630204366421 -11.408176427603319 -21.03447008477602
1653 1.840577939963083 -2.162495508683241 -1.7915955872925249
1646 -3.432709278179909 1.5715693592813058 -5.002870548438398
889 5.8367062761192114 7.0289481171939325 11.152600690193205
1945 -7.177002199255215 -6.075588241153822 14.70107467454173
1126 9.171393604743368 1.1530297035102337 20.285663967558804
1962 2.1308673538112792 -2.3873383680709352 1.5174974701543893
959 -14.801975340873897 3.500321398060007 -12.526445592502494
945 4.765848505970557 -0.805297855636267 -4.977235799061668
1932 0.2736752834218901 -1.5882265033829073 -0.02908914881477683
1262 -8.704958678928119 5.3819887823081825 -6.148077038137332
958 15.978408086612843 -0.8715163152731625 -24.451865865406617
960 2.9296550687962344 -6.081472543772315 -5.04091233302221
1263 -1.8246726132700113 -1.1999492802836786 -1.3569636348521739
943 -1.2660492908933698 11.827984796626719 -14.134643345530078
1391 -6.501240974467812 -9.575136819453387 -8.864153351368985
1507 2.6567236627435444 6.81599888428625 -2.513925645231765
1470 4.538063657941899 -3.4610834499734833 -1.622906247789721
1469 -7.904888242719202 14.897738457944447 6.412353500344743
1509 0.31874915356278094 -6.197409389122309 -1.5344794751365967
1868 6.768866789396275 9.434190540567096 6.016729011205769
1867 3.0024442523612644 1.9806456316868692 -19.758557290443807
1618 13.423446434627724 10.245633839606986 12.601449044626914
1508 2.08696158318365 -1.9023182848964173 -11.719398659386991
1253 -16.463857442834335 1.8925639920759716 -16.908475725239995
892 -8.380809634445693 -5.228746508893186 2.1597123379852925
893 11.76120153844557 23.51961515463507 -13.1950549956892
1054 -4.101406365308627 -4.291927176099662 6.786057898309571
1055 -4.2418636645666 -9.007136100735416 -5.92489029494165
1056 -3.158826278437389 -0.8492700360682126 0.3439355355257746
1252 6.566291810919064 -6.722277558827984 -4.238493184207269
1888 -7.553582210027174 -6.105147557127896 1.4306772790729942
1889 8.202494004840805 -5.056917469665854 -4.543992752745145
894 -1.693809328954106 4.258342699952532 -1.2635186776656318
1176 -5.256817084107056 7.921748118982943 -2.287107836100896
1839 1.45105400959773 -0.8458628478356653 -1.2857923605834087
1672 2.820296165999791 5.516264674921855 -1.1298581664634024
629 12.099653930042981 -2.1438877883167904 8.487859571845059
785 -4.473930810618893 -0.7937568293200417 2.3205760038275076
1264 -4.948146727775754 -3.6476970323224394 1.352182308362274
974 -11.035112981105023 14.305162077451083 14.663946312095472
975 -1.3460758712317378 4.9589987489938325 -2.7542238281523854
1777 -3.8697217106083857 -12.887520137849158 6.399660468490426
1670 -8.56827712163667 -3.1125077155001524 14.752579785707157
883 -1.9441850432021157 5.245964721084933 -6.0616130555505965
1671 -2.168413542380848 -1.6980246337603981 -7.880303527116843
1369 8.84197297374328 6.451610189895204 -9.011573131887083
1746 -2.1687671800268307 -0.31791280753522366 -2.259814335833926
944 -7.32131337518991 5.8828859673142535 11.592452679297725
1373 -6.822540932087264 -10.100461736016511 -13.232375903670448
1374 3.7678516071019508 1.2257905973867387 -2.6261712628612983
1435 -4.28975089410614 -4.616765708602905 -2.313919708709211
973 1.0601186633120585 -7.525384397398216 8.192151783234813
1266 0.11853056299488174 5.356375276129883 4.4398568592621395
1370 11.271599213098016 -5.194557252259637 12.254328661965578
1371 -1.5122577222399678 7.6095637421687945 -7.47912578267645
1744 -0.588447125244124 -7.823243060264744 -14.60136254771858
885 7.203603049197326 -2.2591213436172715 -2.8465619179893777
1656 -3.426258314036971 -5.695839448622329 0.9108200098914686
1745 -14.20945467199307 6.817041594762098 4.7533214642703365
1372 12.820806321123339 5.778342428810369 -10.282594000722447
1654 2.1550293738344917 -6.019236330304183 -10.25653412156698
1083 -1.3568489201638303 -0.4060093313690972 4.146611966379418
1655 -8.442724713343644 7.857909854448067 16.085133995868844
1046 0.39732698115255927 9.893229319975292 -7.2279294908433185
1047 -1.7355232191281866 -3.0607696817265673 -6.756385638603208
1228 3.6466069268006103 6.123334664208515 -17.18786692068163
1230 2.4482196861613597 -0.3574394365026424 0.4980188588840069
1229 -2.197094198142331 -8.6113701530397 -8.556630004717404
1810 -12.59174077833924 -8.426398998294378 0.8021190463606975
979 -4.0501604689166815 -10.28712218470293 -1.1106732743936438
1862 13.380870945150837 -0.04458035855771361 1.2091689433797923
1874 -0.25767535281172954 7.988718059244393 9.06843783878867
1861 0.7408662766523064 1.6341480773026789 0.27833013803778656
1863 -3.1814626936033736 -3.9497480361196518 -0.3396295223124465
1873 7.8292476418991654 0.2622020571237939 0.6438777593287429
839 0.7194564474849894 7.344829481795059 6.760473944329765
1558 -6.426863236840305 4.06352840254919 -10.279595229320083
994 -1.7995912956985356 1.1317196785226857 7.000478976030149
937 6.027580125467297 -1.0556085655786764 -5.934217038398745
938 -9.324728667703711 0.4519353985395268 -5.257397991808459
1875 -1.307426531243945 2.1456434126204633 3.987608221887091
838 -0.29449731310292077 0.796194251912834 -4.633377199690059
840 -1.1837746366885875 1.9752231922056243 -3.4275352333756985
1559 3.049521288721554 3.3044067424258294 -2.235992431994219
1560 -3.310332127395005 0.7388987712471459 -6.246896530714746
996 -1.0718261269751328 2.7753108722436197 4.049511300704783
1449 1.6726676016218005 -0.32084566291249533 -2.2719496367569785
1366 3.8410391601406038 -3.636839155734141 2.957730169621488
1546 -0.023569883460462366 -1.3982157559021284 -8.910582800686425
1669 1.0286799535147597 6.525036800916221 -1.083267543373505
1548 -0.9246453714386581 -0.0798462499278395 -0.1301400703132033
939 1.9446977055783754 0.015387247652873725 -3.4331341947129896
1448 0.9818366408163586 11.828588798825455 3.3269869570868957
1514 7.591048382651349 8.826550055221128 -3.5181209837206713
1547 8.4818896456702 13.039858302331112 8.39138396935464
1447 -0.9345062899809375 0.53015817605282 7.909561703585464
1513 -1.829487018824577 -7.259239446160354 -4.0218767163534475
1515 0.3262871002696825 2.1432586486623966 -2.213221012214266
1660 1.1135940115133236 5.121760253578061 -7.437618896634833
1662 0.2490273096686702 -0.055020647363914967 -3.1012882860555373
1661 0.3932009497796869 8.72330611744004 6.578400361159197
1368 -2.116820200880747 0.00843422919103609 -0.6023200650498676
982 -19.5728542770716 3.9999870667106787 13.305236023930203
1578 -0.6513333171455429 -0.4480672623782022 -3.259570103388053
971 0.45557150279654063 4.8772634038501295 -2.770959182302267
1520 -5.4481789578697795 2.5360554210669806 -10.414726711977803
1521 -2.158670319889229 -0.26360382470310445 -2.28822064843769
1577 -7.155992480888176 1.0025343556595403 -11.002044527447133
1015 -7.5343857647301045 -4.561757470017758 -15.863048310091205
1576 11.020174836882301 -4.636067207254154 4.276510749438313
1009 6.293968744772693 2.2975800565997853 -14.603792197753032
1010 -12.47233120542135 -5.235914370919946 -11.436894850079616
1519 -3.3177030796003226 1.9490256435392488 7.721557295075226
1998 3.6992472727821695 -1.0492505663267297 1.6428448862952394
884 -6.640440117607885 3.673111690706246 0.09907539713761505
1676 -1.6773477025609471 -8.37311383857827 -3.8593960864897427
1053 -1.5240778858618336 -1.779845653579061 1.4522443154354479
1011 2.1347967943646537 1.352260685125478 -3.2181788996894016
1834 0.7738748092095163 6.051189057548693 -8.576609460408692
1045 6.260118309189447 -2.9761336154227322 4.207040517004884
1051 -8.101572510208813 0.4326769045789715 -4.937821328549628
1835 -7.976716047681493 -9.391886722526731 -9.16073046193043
1836 -0.7807774847529082 0.28891740654668285 -3.2593097664320476
1924 3.4301624312179735 -6.003335789311386 12.31228323843198
1790 -1.2558877123962877 4.57317522005592 10.973635092977124
1033 -4.295139094368551 2.951774273854018 -9.040131777737615
1404 -2.061130938385436 0.7166124437775703 0.19388307130063023
1789 2.777154337539289 -2.613887625117058 10.539408379001424
1035 2.6233166413501228 5.057586167214199 -1.2076768959174715
1791 -4.834252340416702 -0.8189575050498646 0.5163935418899168
1765 -8.029362116296676 -7.311057366532227 6.906603637127291
1499 -10.40194835619425 0.7816436961718355 4.771415405800921
1402 8.262319502268332 0.06972113628766459 -2.6412393112959194
1431 -0.5798437455237863 1.500408645097999 -2.4286968335428463
1733 3.083921327085222 3.2886187029112905 3.853129900278612
1783 -0.3755981863182212 3.6157185589420244 -7.381055913315241
1785 -1.0445051376655012 3.748687641333073 -2.6276004658827747
1457 2.319734164785577 -10.487138364626167 -4.779755419890721
1754 6.536412763017477 -2.640042031572142 1.38899702946239
1299 -0.21513570699566698 -4.343883101662507 -5.5657569569052665
1019 12.350596407773715 14.91737299864561 3.3108002020635388
1119 0.9358469387541786 -3.43204318891325 -0.6056000813860356
1755 1.8859853208002106 0.24637857758628093 2.511336043067076
1732 -20.734670212887313 12.647284374708756 -12.673364353946651
1007 -4.228477814173034 -0.1199893661225236 -16.868352591582397
1429 -5.7033997852841765 -4.414919664203881 1.660577101699445
1430 0.5779086006928071 10.235173442593517 1.8253215030393881
1688 1.2749064662104788 -6.88161790239923 -5.739726066032821
1689 2.1470226112724635 1.696618411267741 -6.297804279056549
1694 -8.883911739695344 1.0969741208169055 3.935417338015546
1734 -2.7355651198129842 4.035735430851657 -2.358906386119676
1319 -10.786573900660757 -13.364034643153763 -2.618295574072882
1601 -7.494292597733551 13.813684732969065 5.626768309465296
1602 -0.7653554429363638 2.9718272067267217 -3.8574245491634485
1724 2.8509808877742113 1.8516519959259088 0.5540755181751412
1725 0.8227586490309985 -0.8456441734852803 -0.744803318098535
1753 -3.969943184353571 -3.0912290655212056 5.3183014796233605
1723 3.3383519939276693 11.127306740187365 0.9632497482146537
1367 -0.6750916050114104 -13.825508990181556 -4.742453001382876
1016 -1.8159614958257835 -2.3002882761762518 7.0204768674583935
1017 -3.196149235312667 -1.583476317371865 -2.925713446961615
1996 -7.605152870864442 7.881340320519307 0.048094148984195506
1997 1.290941196154639 2.1026682767530995 10.94947397806643
1249 4.4978781245398505 5.688658059223454 5.198181064099482
1743 -0.6878169416611911 -2.2251735707524354 -3.581618314819931
1637 6.843095573957634 3.7150374018587984 -8.676821956980506
1925 -16.18410026627044 -6.924683831228866 -18.520049184578497
1052 -11.288411891790904 3.1457816444453077 2.113867345414364
1403 7.481606588122385 -4.243781742052715 -5.982567860781681
1766 5.525189576249343 16.96467473996985 -0.8363367601058983
1767 2.4889757708029716 -1.1300663692549573 -2.3187766964561636
1784 -12.445855090484017 -16.571199980487823 5.347492889592677
970 -5.073772258600696 5.621531879157483 -7.778805740086335
1510 2.530664840787183 -5.703919499286846 3.909681974433574
1512 2.0364118148479 -1.8512229270261977 -1.9881464346786955
1903 11.837468828306758 16.473864855473803 5.211009761763776
1926 1.9421644334583834 -0.3433537896301919 0.8405961475728104
1904 -5.342681819564791 2.1008370910555314 0.5860342968537909
961 -7.454406049171803 -12.830335611548971 -8.33181661727034
962 -4.152570961659869 7.282170952460905 -9.423573120739743
963 -2.342632324721907 -3.140091574908594 0.02000696667921781
1069 7.202504698675688 -8.231932979060668 -14.467363710238274
1511 7.629961715064874 -2.9424420733204704 -20.8328587642744
1413 3.5820650947940944 1.5284285629165364 -0.22076730412813245
1105 -0.8537288631002896 2.1412566200654277 0.16318611576047132
1870 3.5423625798438376 1.4442769194412934 -7.93003703118466
1872 0.9848770988724121 3.3700491822255567 3.778530764230992
1518 3.052937179537721 2.787309166468153 1.853910855799749
1107 -0.9752527383658731 -3.7249602796538457 2.525713451435661
1517 -2.132990020889524 10.747131756020067 10.66432964794549
1691 -4.291117935355051 -2.655281437218564 2.026805408680805
1692 0.8537745034970579 1.7141742034693201 2.358423609557118
1690 -2.2787412824205546 -4.451330468123825 -9.64071416259453
1516 10.11477987599003 -5.561248918761763 11.29711092196893
1838 -8.9700567528112 -2.351607555522962 -2.9217151620328576
1378 16.760207989084037 14.404508285326525 2.6861398044542777
1380 4.528895691113643 1.1804762087002572 -1.8898768998320206
1837 -15.941899029774278 9.22792498607937 13.236425382253081
1613 -13.024873932133826 -2.3934852542134166 16.800621021917802
1006 1.0962711299839738 7.838596718692478 7.184697728044912
1008 0.37906067164466917 0.006221015510306882 -1.4309241328243143
1345 6.9064822041871645 10.665311394549372 -0.6556355798337943
1346 -9.394244233512168 1.356561623947047 -8.557393306493946
1347 -2.3760406287180893 -2.1692609849149713 0.6960849529272679
1379 -14.95488419728098 -2.696864876502554 -0.7964577380223564
1612 -7.415307298721969 -4.016399426229237 -1.884280709945206
1823 -3.1855168829373977 3.0315383902972597 -21.608317004912372
1824 3.7931551214143555 3.8587934976923104 3.90605844138398
1242 -1.1175912758002085 1.3839333743066602 4.694536997996456
1822 0.12891925583321692 7.59655115971331 -5.912704482762233
1990 3.5998957766184367 -0.7386318163221016 -8.133231068868279
1614 -1.4313960592430086 2.0205184137457928 0.10905167402141785
1961 -1.1137908239580512 15.115930273093179 14.797587933779843
1664 3.2731313124189927 10.378028924897938 -7.2428110923951
1630 -5.475510702854218 -0.5476937735227456 0.7973368940141048
1821 0.1923280398993442 1.1592755940854937 -1.9586860188111703
1685 -6.328438514586174 -2.3166620492385666 -0.5583760461454197
1820 8.89564525727729 -9.714384750489335 -2.7155386525442395
1686 -0.3334263576090214 2.359394330776969 -0.9154421949187032
1910 1.3801699471165592 13.930917464230188 -2.107150123373098
1819 1.5171595799376263 6.578751927176953 -11.692575198723828
1031 13.23422771535415 -5.594476968808383 -6.1569876490924935
1032 1.6083086293683222 1.9346267700012412 -5.549773370888998
1663 -6.7520613141366095 9.574911020811891 -8.051206084733227
1909 1.9616139058843776 2.3296988982668814 8.778550937169063
1684 8.893212268298171 -1.2445754043517097 -5.09893951664837
1991 4.9137859925640575 -6.570815011151567 3.323671539639567
1911 -0.7457619722183958 -0.26837597297775956 -4.431403593878762
1128 1.971059434997912 0.7087263732994058 -1.0293980408376522
1960 0.293154343376684 -8.45864147355329 8.21201666466508
1651 2.650583996974504 2.328500903552212 -3.549373564408645
934 -0.8326300256130487 -4.46605410322723 -2.216739357327403
935 1.0887018283250471 7.684422158815277 3.3014421611163702
936 -0.7456193608615719 -0.8907296698942899 5.541855743411553
1127 -2.6647393892104816 -3.28122194388767 16.89884383419093
1225 -4.7021465917666925 3.0806503001448773 -1.0515828037231045
928 4.073745293228322 8.315126438893826 0.1284320173089532
1139 4.013026430205065 -3.525059356324837 3.7374840105052622
1184 14.561504165976823 -9.21948035015413 -7.0811723706558976
1994 -2.583274200642872 -7.270865311508445 -2.892532366100428
1722 0.19254477972943618 -0.7542020013340467 -1.967617970093239
1715 -5.845761718776415 3.8338549581359227 -6.402802740084761
930 -2.495676382022495 -4.177676912758438 0.42256445955298433
929 3.167099124822602 -6.725128815272969 -3.026279415997899
1890 0.9300512290070156 2.3855242423842746 1.6509864363063447
1631 11.013857513636193 -1.2520784433400147 -18.821227212845105
1665 0.9323462129899838 -1.8921716519591698 -0.738646468296315
1254 -0.9591198597609435 1.0766556737830446 0.2791513525304629
1632 -3.974660963182908 0.7789714139690361 0.25350728349000456
1992 0.30340932713526836 1.898318235613641 -0.033669567618116784
947 -2.4520279716559092 -3.932739777941036 14.275064676230915
1675 -2.474743971075786 -9.899349241006728 -2.1172016125637976
1677 -5.264965354687926 -5.978145524175145 -1.2440058089706016
1339 -5.586868731672809 -18.570299288885913 3.339314921250293
948 -0.5702320844254098 -0.9488829686741842 -2.6880491709638763
1057 -9.20635330829936 9.042677039925813 2.9854351226891227
946 10.828326093207915 4.023056077058996 8.726910465723103
1058 -2.5484803800736096 -11.524748909209151 1.731002223621205
1059 0.1378545466966031 -0.14269840339633394 2.9716308864758023
1340 3.120114060041098 -2.174623621380792 5.796426909768577
981 2.355738867149281 0.14900143707223612 1.9319227846517188
1811 6.678647245893826 -8.393821275154748 -6.480379676220291
980 8.450439193325664 7.1518453553955625 -8.212866334215036
1108 2.8135091269173267 -3.663360843981301 -2.972073118612348
1109 -5.8889390410282525 0.526212437174172 -5.241520735526535
1110 2.966372395361306 1.4901689629783719 -0.8783555697192899
1634 -11.11856784992623 2.5016378078431636 2.6085081373514045
1169 5.432569327955032 1.8441907425588073 -1.187350289650178
1633 -1.9586827112536425 7.554439080510806 -5.288532900659342
1170 5.894552760258693 0.4253518607017932 -1.227413059676299
1795 -10.139609050733437 -2.20130692991469 5.834864284584983
1635 2.9522879607514385 1.9973945597693032 0.9050133482676821
1151 0.06886402826181405 4.4979876374240035 1.2640148388386767
995 4.2857072625916315 -2.6061210827323453 -17.15731808882559
1168 0.20334186953643957 3.913545429603819 -5.605144086081236
1313 11.507418020885412 -3.6636169142105754 -0.14636200196357185
1314 -3.3356977611323075 1.704366367610936 -0.01408315264095105
1063 -11.840479667922674 4.726528801291498 4.9883938200147675
1065 3.26464644018827 0.18600210286978996 0.37609619743775485
1193 12.827642622617235 -4.729494165001576 3.6897157972251047
1406 -3.036495136471829 0.49602269556615536 -6.15160561335341
1475 -3.706134670413067 11.415595415952104 -1.7548564006359253
1828 1.284843337309738 7.496599816878954 0.17993516767010023
1192 10.498302018900677 2.578753422512968 -1.5355876661203538
1076 12.548575744643188 -5.476479139136042 -1.4063406982673488
1407 -0.5599330450919868 -1.3697932723455706 0.06013690278427775
1194 4.894060127160165 -2.305889750160389 -4.437284959867443
1077 0.479551952641614 0.43515403397579117 -3.329034521869052
972 0.24954493822872903 -1.861394269954033 -5.683019995900175
1330 4.186641691406159 -2.8575316963759927 -3.0931353368598513
1331 11.749252314386363 2.0644067605492977 3.810569502254444
1332 0.8186712766625914 -0.3725147220449112 -0.824697230022845
1742 1.6644787522384104 -3.6611707856559206 -5.761904973068294
872 -3.6463613854107 0.13981137583056255 2.2621085372603
873 -1.5285382269404932 -3.4486714536783403 1.0480060971327576
1070 1.393902014902409 -4.6280620753917345 -10.155392519554743
858 1.3297841235690402 -0.8419171421646607 1.0081099516663201
1432 -2.9395853589948393 4.192015129987142 -0.7867482725400607
1071 -1.2283516829101802 2.9022976808831884 -4.992134828299037
1621 8.0385894037034 5.078145960558669 0.11215517847846962
871 -7.311123418908331 -3.794675389992249 -19.249438994754335
1696 -2.5246571005800487 -0.9085110913299559 -19.557152248060312
1697 6.8194848712100535 -2.391562381573257 13.22115232951161
1433 2.5279094023496453 -2.434783525634875 -3.7732164558220136
1812 4.338639662117739 1.5972723987028241 0.9380142990051246
1506 -2.6853705954477833 1.6561823007956082 1.3692842852363092
1505 3.6199267210558133 4.092733584678133 -3.465527283314078
1034 2.32035217369447 1.4783568974694783 -12.996731238194242
1312 5.937067253830275 2.717663704045072 -10.561644086939069
1988 5.482787652670212 -9.974257425977395 -0.6516498624632414
1020 -0.5511450615071453 1.1465259837764648 -0.12522366494459902
1781 -5.302297533823216 4.241860505088115 0.052505956325509535
1458 0.9186918966924373 -0.9370478058167064 -0.7218607385896683
1018 1.2529709189592355 -0.3867570977449251 -0.028783909109568812
1951 -6.608177626922509 5.989015501601567 5.600696118546413
1987 1.9553199592452546 -5.753786822029034 -9.053561279752431
1320 1.712531275108962 -1.481714287928461 1.7972419323010966
1648 3.879137825410941 0.2126174267555642 -3.3676682867316967
1649 1.9823116754168029 -8.535559349204286 6.00864434357157
1650 -0.829345499143181 0.39000681550391286 0.8829160459324868
1780 -7.10969864834875 2.9059695053048373 -7.631355235627524
1782 0.1094962452831219 0.6103793127673951 1.1715879955879096
1600 -4.783302712013918 9.823864144248287 -3.5811235080771944
1989 -1.174219265314052 -0.8535060336348045 -0.03664140114418787
1952 -9.842518314259697 -3.7213006108176296 -7.5554554118285
1695 2.80854249903768 -2.7503190837935887 1.1484770181351367
1693 -3.6521046701597233 8.343542018860495 -3.450971750916244
1741 -4.619284646584789 9.144246789775025 -5.815832563505813
1687 -8.626231184592802 11.696575644146415 5.746108421419101
1211 3.9593975217659607 1.026966457632328 -12.915085365573512
1075 -0.05636840599400571 -6.041613781238838 -18.491829224381178
1210 1.9821646789173788 1.0180493343548627 1.4683140883076327
1212 0.4757478404006566 0.6974831470097617 -4.912686900404024
857 1.0878728257254342 1.9655317771939094 -0.5778681663451753
1623 -0.4371789883029419 0.7021529508986243 -0.2245001753655128
1251 2.294779842291566 2.8207048065693443 -2.0227366660348802
1394 2.5789560578760677 4.474484419572267 5.8954501341042755
1622 2.990147453982546 2.417481945212406 -2.921884580815506
1395 -2.2714023846455147 -0.8116393687096153 0.5645406054105369
1393 -2.311548407553124 -5.461221529723796 -11.799268037878504
1250 0.5106383380798085 -3.1067794218068467 -1.2502841742481645
1434 -0.5360098008630119 -4.44977006685952 -3.0421614950051366
1844 -4.376970245941809 8.257254587840773 2.0885231928586965
1845 -1.1789431306042553 -4.852397099828146 -2.1142896524854664
1351 -3.934382229547849 -1.1974402165706914 -16.69028870317484
1843 0.5628596984276459 2.4611293456743217 -8.774485315460556
1353 -4.562450880055066 4.833871827851147 0.47193709996903915
1352 -6.709495425990348 -0.6141199506527949 -1.6122286624551956
2006 -2.4630344244506412 1.0501009314060301 2.240950886919338
1348 9.158865176881132 8.3769290434273 2.48622311227467
1152 -1.7759368287985446 1.031291172839683 0.5307616018764636
1953 0.2985462324663993 2.856553029148444 -0.9938891941862122
1456 -6.002896655623258 2.264993047389326 1.7057100057240642
1318 -7.325752522863031 -2.3414544218192828 -4.584151973187969
1159 -9.881326636503372 -3.352399888331176 -19.52716843188966
1160 -7.223017144047512 4.207568507585149 -0.49929400049450945
1161 -2.0556436268812925 1.3005772447936677 -2.4266455253926575
1865 0.9624217984480592 2.280203767983574 -5.894101681948526
1866 1.0302899532390881 0.6527285158572629 -0.5361361390219298
1871 -2.96992965824118 4.9750768592670385 -3.3238520032584997
877 -1.1878447187387509 1.0349162347029637 0.41887476424401116
878 -0.6459420043849584 7.671173672589207 -9.270510272849883
1864 -6.002622490624755 8.734835094929007 7.967796530170639
1357 -2.1502160901858374 -0.5652243397996051 -1.2670111869599314
1111 0.7630169139149298 1.0515304097975384 3.7737432714859613
1150 0.7919183236183932 -4.443323141535436 -1.9764213627818465
1827 3.3636152628584584 -0.05900345928265543 -0.7272945056934749
879 0.07766185677218712 1.374402632764776 -1.4444189006270811
1222 -1.165810207141124 3.909005888913055 5.068350725349895
1224 0.08313803302277765 1.2445077019411976 -0.464248786602551
1272 -2.6537206162818863 -0.7482963851814213 2.164202095810525
1815 -1.7635876852538885 -0.1950584211422689 -1.8891433768046915
1826 -4.970358000165839 -0.1436815080627031 -8.297943006202297
1728 0.26762856936062296 -2.834686315283974 1.9142598842227392
2005 1.591783121607151 0.6076871665014203 -1.3124893497547219
1813 -2.6033891883091425 -0.7546425098052845 0.3601484593139098
1271 0.8633947419923462 6.072881360023081 3.001696452495299
1030 -0.5838309835646093 -3.269987665776632 -6.262339045512602
1270 2.157719701587064 -4.115419829378407 4.498122274963483
1814 -1.660495940677215 -1.9369978421948015 6.590832173650303
845 -2.8603430505219394 16.262651968170065 -9.821045377784321
846 2.8843398597284238 -3.9170048705433 -1.2778386979995404
1739 -4.8307234395841885 -2.568705644914084 8.190122416961621
1740 -1.5228565679203911 4.693428636553439 -2.5045584361280793
1771 -6.895888040993747 -12.980594295224744 -0.9816758138388175
1772 -15.910183550468163 0.8469337870575859 -1.7898225066565783
1773 -1.5164120136469779 4.676791727673773 -4.3371487633347865
1738 -10.875644275654501 6.32744596240871 11.358869744831011
844 5.5170831530391125 1.0531981897232932 -3.5885862947260483
940 -3.779730562860357 1.3814787212214177 -1.3978336713521675
941 5.874680750358225 4.117825838066815 -4.8789255781477845
1138 -2.4091553832279233 -3.9540577861096464 -1.810614582093214
1720 -19.088350882439713 -8.534733896009739 -2.9167710163829983
1140 -1.9568961041235002 -5.451067058215638 2.538363749388729
1922 -5.424029239057456 -8.320727240988116 -7.926308353729239
1183 17.284773704957065 -12.894982274494865 -0.09579404263392104
1185 1.3159347641560768 -2.694764897149653 -1.232397589605364
1721 5.573551606042318 -9.773124154621161 -10.866341381449065
1061 14.988514674631487 6.259895170969742 -2.2891455488483095
1358 4.184763765215506 -3.6648825493360433 -1.1087043514217292
1359 1.7788814007749552 -0.6858185202562658 -2.5413473193729215
1303 5.146532211806829 3.4709018915532908 -4.679198625728487
1062 2.666186711783731 1.9837012200102366 0.6609380042636114
1239 -2.2139235012543996 3.391949743057801 -0.16104883858119123
1060 -7.342048317946178 -0.1380498718666136 -0.47147598692655357
1238 3.6981249095835556 -1.325476222579399 4.867208713386466
815 5.310861942787069 -0.35681727607810254 2.3674599645490444
816 -2.5639303923505103 -0.7507478839183321 -1.765783777427343
1978 -12.57632056876363 -11.114520088850217 3.240315626495481
1064 -2.2233874917497918 -1.8563661676803556 -7.793307738130342
1729 -1.0527750212086577 7.691541090605299 9.102065759475433
1178 -10.253294355628826 2.5070540284265594 -5.923755227614575
1731 -0.4972974896553684 -1.4598965403658337 2.0831584817464064
1730 0.8745901476106233 -11.731526541761149 0.5855733581842502
1365 -0.7813769595180686 0.24251563261684492 -0.17682635314409348
1179 -3.286090139843804 3.0100922919353867 -0.49337822233925843
1993 -8.930161850678582 -9.693420107513107 -6.005523953497684
1341 0.792208951679373 0.5348162646859638 0.1899481861386453
1177 12.407056313515344 14.380855349326076 -1.7803866445445458
920 6.744569653921911 0.938501825393878 2.4598724107404726
1137 -1.729448778751146 0.42509531793348926 -6.259475588643141
1995 -1.0463803476920612 -1.2529394364603983 -1.818327073617369
1135 -7.084302700826043 2.1200789595825005 -5.753000387375839
1136 -0.6649052534610785 2.6591589944150122 -15.390309545971363
1363 -12.876831436904958 -13.865787114818193 -9.811737727782067
1979 0.21153504042598692 3.7810509586134304 3.879566013489794
1980 -0.5001781156879235 1.1264720980172647 -2.717181468714891
834 -1.510346848270847 0.27941010959666046 -0.7967052199222513
1424 -3.549287394243846 3.666569923360062 -7.609646796138586
1425 0.8421967621955325 1.6098980472673219 -0.4356457499677675
1736 4.499813106458105 -6.1738605906834785 -0.25736715093381757
1737 -3.167448451855515 1.717269469309992 -0.24250823093466256
1797 1.6358884009351162 -1.8023590574488875 -1.8757742105923523
1967 -8.756026637367816 3.2279413229567417 1.928755378332666
1975 -0.42037761534604806 -2.2394032009402283 -2.3484855753006983
1900 -5.105992314759236 2.6366152439547084 -7.096119179887927
1147 4.673736853310577 3.8830604872522536 11.162775985884007
1148 -13.307255534169546 0.6986458999258848 4.107760468299561
1796 -3.882392932712882 1.006284662509833 -5.671270294044588
1439 -5.911252546531719 -7.225753136347941 -11.969197907874639
1180 -1.791264823038447 4.4659433802427015 -3.8401077231905645
1977 3.2971076792231484 -0.47770970465256757 -0.7498901875272934
976 3.518817673422535 2.366561085416969 -3.0855177633752433
1590 0.8666402858423333 0.15192826650733884 -1.944894642351337
1405 -0.36496169478134033 -0.7689930378516232 1.7723242041079468
957 -0.7436827474926124 5.397780052423921 -1.7871634582425315
1588 -0.26047033207870823 -7.289251231539426 6.824646455839928
1465 -4.075837951595602 1.7924847335199843 3.2732657207226117
1829 -3.0799177406711773 -7.195444870070472 -2.0575504186114735
812 4.367986346192959 -2.2312514283783647 -6.635386442937441
813 3.700452240341242 -0.9348376215242624 -0.4694391941445123
1024 -1.8886109652373295 12.483181538374994 1.5880373165156585
1591 4.621427462109309 -12.57366495811377 -3.2772943426570698
1592 4.437300750125186 2.407778387839252 -6.414830671533696
811 2.1031350334723395 -1.3479028175375063 -8.747678293297646
1589 0.07533623379867989 -2.445725780783341 -1.548407710540022
1681 5.777273215581351 -7.5238974470889595 -6.047732329103692
1467 0.8829158470669459 0.9968649644993661 -2.250588793199594
1593 1.759868797986564 -4.616251577358489 -3.5791911783751016
1830 2.022750001617845 -3.448522590210168 -2.3372581057057222
1682 -8.035266132253948 -7.5643079776847975 0.8531464645900171
1026 0.603824910438243 -0.27625970052374077 2.2511348488611342
955 10.029534028742194 2.2174630646681046 -0.14290806168169928
1466 -10.444571122129467 -0.00020778507455557256 0.19578731632777116
888 -1.7708810039773366 0.15645800390390896 -1.5203008031920648
1025 -8.33816509907354 1.800373582064317 -11.21182797549056
1446 1.7106569884140597 0.9601986975756707 -0.1053248069167443
856 3.3229442541803342 -4.275755810328228 7.448890582739773
1444 0.9508197639347344 -2.6538288132432037 -3.6877159565725024
1445 6.478125970945009 8.18214830087659 8.750023486576392
910 -3.4090037626495144 -1.7239174308968286 -7.895936475024404
911 -2.2989082200654467 7.75603484362358 -8.870370887828761
1942 4.152032568536553 3.33864614619816 -3.1544285801705314
1944 1.0899149936856196 3.524404725858826 0.060485351507646376
887 1.8677442801469977 2.3885324773351146 -0.8583499522548179
1698 3.5197134466864513 -3.1334082023838614 0.172301907749552
1121 -0.3184558180637882 -2.4479327516737697 7.442455387928732
1122 -1.6945745380946275 -1.2453313290946586 -1.8947459670628521
832 11.605333461005591 3.4835738707311212 -12.010284141299932
1902 2.2889813248448365 -0.1450264934533193 0.6775385083200179
1471 -8.621738293009974 -9.068234795941688 -1.0242187633781583
1901 -3.0190726998507995 -0.20827426027979912 0.2535130535301344
1941 0.5669724881324592 3.3248774779238013 -1.6008290803135106
1939 2.2341160175610284 -0.1246546993034286 2.351590040015313
1202 -5.191543649743852 9.268618919462691 -4.261517702634319
1735 12.37192327017062 -3.429947784039204 -6.314745238573431
1707 2.9330110016833175 -1.0734407136870943 -2.9775117967869544
1282 -1.236725016689679 -2.8190300003992133 3.032396419887157
1336 -6.689835194126244 -1.7480027635720485 5.6458384958644325
1338 2.211612214064486 -2.823033308179288 -0.11224461189427869
1879 3.057859399387925 -3.7504735953281303 -2.2805000528568917
1880 10.82575394993349 6.698565279744266 0.4505989843276225
1881 2.887345098616329 0.954102615878613 -3.447919480568721
1283 -1.1661249421678916 5.181870000838097 -7.858920503284215
1284 1.8436987075564988 -0.6881020403076344 -2.920284559209648
977 -8.422273376331402 -11.41592951042832 0.5437599369399608
1182 4.120997910879909 -4.395446053296515 3.468179974160334
1337 -0.009117627394083741 -6.930321441198642 3.300604059719618
1399 -1.8606312646536318 3.82512928914192 5.724190303935884
1705 -2.803810742163238 4.2640028532271055 1.1321556421902177
1401 0.9667195233573291 -1.83315087358742 2.781025312271558
978 2.489090425137063 -2.849749315247972 -3.062472978924131
1181 -4.670146906854787 -0.793326226621387 -11.01431860310091
1706 3.8672851349112056 2.3021529891477406 2.7481887273254646
1727 6.5918736336375 0.41434773664320934 -9.730258050874026
1846 -3.504970288889964 0.9242691152106797 -13.136072641633785
1377 2.5662981635063873 1.782131375465931 -3.0139705287493865
2008 0.6684035479917343 1.4114092173102157 -4.1684200812265075
1289 -0.710029907301063 13.051588496156024 2.3094496040597785
1419 -0.47120095423034486 -3.553060058857233 -0.5124819352783453
1683 -1.7638843656614245 2.5669328984586723 -0.997976906357679
1541 -1.8421641283802623 -0.9998212534877585 0.3441913828766073
1417 -14.908652037584377 -5.465846907851456 3.13063260085118
1084 9.278146975542844 8.86545102340392 -5.663885972107317
1085 -1.4015269854446597 -3.782427674160226 -8.535503962194783
1086 -2.3719195762199994 -5.718861867755685 -4.225227148197031
1418 -4.660368212844031 -2.2269233863444877 -3.895220052740469
886 -1.9628558751009775 -1.9589885752832026 17.755871980060586
1913 -1.8750723819566841 8.117534815682047 6.149830361562238
1914 3.1889063839637184 -0.8001515428102707 -0.8628920243148894
1540 -7.239852316475806 9.781491758864929 3.096176386816754
1452 0.9593895031615469 -0.10931917118081537 2.2616196430411817
1921 -5.400515555290925 -4.2052494766118675 -6.951989789804071
1350 -4.451065699083057 -1.2796556665480776 -4.737941537560447
1201 -4.541739251634817 -6.390529810514795 -4.44702062539774
1203 -1.1711954260372937 0.16170410041101088 -1.1812002924548903
1940 1.4486980646427745 -0.2140649431518023 10.804697171669071
1349 -1.1631060721111237 -0.2945152038592143 -2.2790389280050376
1335 0.6122994977111246 0.7713694019768719 -5.010831579080196
823 4.305446307459244 7.221748338927512 4.6397246935266026
1333 -5.92161469487299 -0.6236170966236662 -3.329436408658259
1334 -3.2387109946624437 -6.188309448007522 -15.777672245679735
825 -0.4707915661133447 -1.7079246763761256 -5.989169319384136
1036 -5.439422034380299 -7.147093070900345 -0.42992032805464314
1923 2.2310674089828653 1.5507362792622612 -2.7661395949441427
1305 0.26296127509265477 1.2850839419708047 0.26413873246510167
1112 9.762370660367313 4.23793458636571 5.2219497800082495
1304 7.593472443721659 5.43894193545906 5.530952225969426
1628 -4.77903870015637 0.31927283793913497 4.71227834514365
865 -6.611337348888024 -8.787996321130452 -0.27499238407647225
867 -1.965386575935095 0.04439583217322401 -0.7742488780943123
1247 -3.2494075167967624 1.9036435604490676 -10.460630732437357
1627 1.7337727600174695 6.093307292647476 4.540073454225107
1629 -1.849784450264978 -0.13424240540218638 -1.457908005299758
1300 -7.342516440979814 11.342889879887212 3.110239629504425
1246 -1.1842726762016147 -3.962603955463798 -4.659304610232213
1248 -0.47318659151346415 -0.007737264686273117 -1.5458398209229773
908 1.1942914479698643 -9.715595514672525 2.2294452073060778
909 -0.18263258827386428 -1.1234859183946608 2.1990881608360406
1551 0.7902132807659514 2.083049215441841 0.9099121038993494
866 4.644759321868483 -1.022592434921275 -4.484442209245663
1825 10.08989741883001 6.896898005994462 4.7847164594871785
1726 -0.6460874677905071 -3.59824042760604 -3.2104202832696345
1223 1.0231828295329821 10.24561077475622 -0.28908233048602233
2007 2.135405841804403 3.3881394971990746 -0.5110857977832309
1550 5.634372767350914 -10.2258746226011 -2.286554257371258
1207 -6.6001854357825875 -6.197265195914802 4.299852875568368
1375 -8.130068230000017 3.0683248534446985 -5.081702236021105
1376 2.8111649469870144 -1.8011888112037349 -1.0207239439798512
1549 -1.017645568521522 -6.910957613297116 -6.46946176669462
1847 2.704856291346711 -10.256399186571489 0.006071967645066156
1208 -4.115615933031226 -4.5499622833437625 -2.3204743349826447
1199 0.915228167723279 8.058993307639618 5.3240126130381284
1209 -1.0630501977785014 -0.43507027874852033 0.03868774968561247
1198 4.330311323177019 3.318525262517683 6.6534034813777865
942 2.57295389340756 0.001576650124871547 0.35465610082506244
1568 -11.151069569381376 5.393447430384423 -9.68783436785005
1543 -9.45796480074463 -8.317071284231087 3.239183165811778
1542 -0.5636523136722482 2.0219323982192074 -1.7879981160272604
1296 2.0311593496967544 -0.7626953647166804 0.0034052913748981615
1567 -2.1459040129513594 5.824693267141061 -3.667062894290681
1569 -0.24708359338384206 -4.021722413967503 -0.9080266294373879
1912 7.968793467013174 -3.508489217656569 -3.810869908189701
1794 -0.7516483376102735 0.6203412075377366 -1.7377771241795532
1295 -8.836008928217264 5.612278246990591 -12.491516387552377
1544 6.468758089096854 4.903216478731855 -0.2097737345123355
1586 -0.07046117666630926 14.29110827759641 -20.45918706721532
869 0.06672802205747402 -18.896794332081775 6.863991055105336
1792 4.65028842023418 -7.895750820551021 -18.384181758803628
1237 2.67979635105698 1.6316184513470984 -3.3731065863804712
1134 2.8926107253737965 -2.2449445169576627 -1.964732012662733
1294 -4.244298315654082 10.26122158306981 -6.849510713867544
1571 -7.524795419415073 -4.250820136047479 -3.046310391426165
824 -3.4186141580675735 -1.918152660489473 -4.433321745958993
851 -0.6689179892556406 -6.864736401548182 -5.434294264371845
852 -0.32955399571787225 1.912778832021304 -3.1498428667207206
1037 -4.040048682100203 3.877815540715929 3.143409154153261
1038 -0.23446490057414554 1.0044796444432331 -3.06470362740749
2002 -7.298207562584816 -2.3644564340236065 -2.9838181245881983
2003 -7.32593188053649 5.364235343321402 2.7321297084860188
2004 -2.6303044228733223 1.3222333306082603 0.008037181219058234
850 5.060257484760299 11.763278527759175 -11.04702636362299
1854 -1.4578687661161023 -1.1554028184134186 1.0364316626236039
814 -3.88727408260883 -8.629813179097916 -2.180759111371494
1853 -2.8497800369526414 1.5593104526560284 4.2531349624584704
1113 0.8215719128686161 -2.5932957304447037 -1.006043149205504
1504 -1.9015394386898137 -5.994149549834546 -2.6266354200261586
1968 -0.9222849908930002 -1.4350190230476583 -5.186212748013794
1423 -6.376528377475177 -0.059139180597499987 9.981746284847471
1966 7.422451951206484 8.06406871738999 5.855080642120091
1438 -3.4305172910048336 0.09728708515926159 5.938892557631426
1440 -1.348468090085625 -0.27698274206795237 -1.1833293367238988
1976 0.5756539194509709 -3.2990828142955184 -7.198760201315587
1474 -6.243297970743436 2.9757781092436186 -4.494208905064605
1476 1.7658381828384522 1.32945117164465 1.5556538589676463
1072 0.9111399848061926 -0.6128194277805323 4.217413154389176
1073 -5.160135681557413 7.393069015863525 -3.7516982633610483
1384 3.861756357372748 2.8991984078550117 2.415910204880962
1385 -1.6363741198947748 7.772857592124682 -7.094192009968073
1386 -1.7298692339576605 -1.84097080792699 -1.706065050341622
1963 1.930994610532271 5.2064141323706155 1.5720520158056541
1964 -3.1741550784676327 5.97499426331468 1.4382790458314219
1965 0.18704582206751721 4.003205842676135 0.09998664820662428
1074 2.2465479163175166 -1.4408351936702095 1.9129596175313615
1545 -0.2503632928466926 3.4792492657957066 -1.4583185126155198
956 -14.791577953486433 -3.7620658061235384 -3.7231908807270324
919 -11.588022795499 -7.635281890233592 -13.8708502001566
1200 2.9003858202836788 0.47832620381977936 -3.2310280796495716
1585 -15.429558083506716 3.597103669318091 8.038252717036256
1587 -0.30055320741233554 -1.1247620845814659 -1.0735634044974094
868 -5.498804782798691 0.29569235466450666 9.951176775845335
1133 -1.8042842676292798 11.991478382597172 -0.5796694755967348
870 2.6319005802549396 -0.7237645297222971 -2.168449267001015
1364 4.019020974995294 8.511977167627995 14.2930696211599
1116 -1.2371492432329538 1.040570794450935 -6.264577449138823
1793 -2.295086733468651 -2.047210718566746 -8.916233765479326
1144 -7.619970978871204 5.673524096894654 -12.786843001230954
921 1.1703248434301492 -1.41244689500264 -0.23972244303079662
1132 0.6533187995071649 -3.131358414371502 6.781935282216571
1115 2.1921345708642197 2.05018513074015 -11.51649923242195
833 4.132051958007344 0.2814808972147782 -0.29686378156140547
1472 -12.296080087213635 3.609564435430835 2.176455262318842
1187 -3.3126015196135765 -6.885131054417579 -8.295146803952031
1954 0.7253755118919245 7.722346921373321 -12.7348634670517
912 -0.635581773407257 0.4921388424455338 1.6451667586573226
1943 -3.9229023976385964 1.9599294875125715 -1.9032453243534462
1146 -4.8795196341353515 -1.5520720894240752 -4.246671029706315
1145 8.671870680557655 4.95415800816758 -0.21304511878312785
1114 -9.380730585829118 5.041127980454106 5.668380509271581
1120 -7.439268374545814 9.097479343343643 1.2904047614454064
1473 1.3504790185237625 1.6155392255782228 3.8484328877864553
1149 3.1302425681048964 3.5147754906920525 -2.153446682374256
1607 -20.251544605942083 -23.792476338465683 -7.353430269811697
1608 -1.1462419969645343 -1.010441431649724 -2.5941471516149632
1609 -0.7868276478640036 -25.99645857131116 22.593224216315498
1774 -3.1324937645229793 -10.166388888404974 11.24508031277704
1606 -16.024631907961034 -9.255708616898907 7.921935734849076
1495 2.4968547211947407 12.479907001133897 0.32582728197772537
1841 2.21838220650655 0.7814296437861704 19.582909207435208
1268 -3.6397848711815985 1.2622781831941865 -3.1876964957994884
1460 -37.450226068572306 -4.924626364337174 3.095361028578658
1840 -1.4812350739162554 -10.5468652347005 -0.23941342151687164
1842 -0.9653127550355225 -3.0431278924111402 1.6530772877559923
1156 12.208213773499745 36.254582820126636 22.644049698589676
848 4.40043498673147 14.119064442633062 -22.733463267380742
849 -0.513313719047658 4.528120749112585 1.0133119960474508
1459 -12.529559281917836 23.07249463347475 -3.905295709553254
1040 2.756464277013034 1.9654153384858868 -6.155974553353227
1315 4.733032276911367 -5.036967251324708 -7.5749492930837565
1937 13.646215530278175 5.229820273409941 7.0205830580542425
1938 4.2479543109293605 -1.3602514421231622 -3.20621023584055
1850 -8.501941375094942 -12.645377660160419 18.245888102919736
1851 0.5381336282557236 7.838581356308589 -3.7388888498401815
1478 11.095923893049529 -1.2426108986545943 3.7522504813177293
1849 23.819520218328154 -9.302911519354101 8.98216693959109
1877 7.648322526416013 -6.160900754789059 -2.8070505474969294
1479 -0.874129133479809 -1.146216499922874 -2.3682336454072086
1461 3.3903300796650604 5.311261595591956 -3.3470002767292653
1188 0.49585028859601576 0.44812475642626437 -1.497878164861848
1768 -12.311200097458709 -2.446253134577987 -0.7238045443774138
1317 -0.7416020592591928 -1.5771463189309596 -5.3236689456867285
1770 -0.9652911677749287 1.1663208824440623 -2.3728941971535153
1752 -2.0291295645081306 -1.1917935223705214 -4.201171468961444
1769 -0.5256530453933353 -8.981317109425131 -0.7884047363104927
1534 6.0220763833211475 -6.285726910025871 -1.822979686430143
1751 4.785519592873548 -6.578291992524504 2.9832796839524605
1190 -2.3087402798490575 -9.90050926201576 4.9971912030945465
1316 -11.860066968855723 7.755683015521288 -6.3760499927897865
1776 2.31419712820717 0.9840080241591488 2.0554037790847364
1067 2.2229621583364785 0.9460023588558669 -0.13518657427603065
1556 1.8581583505739223 0.553023812403894 0.05917665355553576
1639 -1.4142636254996217 13.402507813972736 10.864905371176189
1641 -0.2663656763341309 0.333793238664145 -1.338443791115328
1125 4.655721958554854 -1.8905779342842017 -5.098476611023583
1215 2.155341740479275 -2.1285302442532026 1.5908901693593487
1124 -0.9443900225693932 4.386165576557953 -7.0949749889808045
1400 2.1050635839209435 4.030317224064774 -7.125246650862201
1580 -1.3976344950827604 -4.566059160723001 -5.662648325978359
1581 -0.13353998901646896 2.660947774248598 0.5108141038351737
1701 3.892740328094365 0.6570754265257285 -2.2438161803560885
835 0.8734148843747683 -4.695476473922027 -2.367153246125489
837 3.143074948174828 1.2819730595479206 -2.4412844383634553
836 -1.7774667864656657 3.444203561307294 -4.613937653758505
1276 15.70752996644562 7.900179061531323 -1.7467855464834543
1278 2.7337412786638935 3.4483830882331197 -1.881517743347186
1700 7.03613999777683 6.136184968808281 -9.753016344646387
1277 13.961962693921425 -11.303613952250448 1.443595511471704
1806 5.443378298326029 -0.9842386039137118 3.587451267149647
1970 3.4902526836982366 6.788299671610421 3.337319166569739
1971 4.985763385836175 3.0186242424776566 1.0439960796722587
1805 -11.487528709559932 -1.3655045670380124 -3.041683287415095
1760 5.523878764811494 -10.77255120435407 -2.83306465793699
1761 7.02259303818486 -0.6014141194038842 -1.9772988613459
1699 11.043464979404774 -4.321475160027188 -2.980705220314055
1290 3.079547308108317 2.3140935760037507 -3.2243599073211815
1288 -3.451121892024613 16.1370779947262 -4.156181887116447
965 -0.7155574345001318 12.337959711655559 10.005201640743689
1528 -11.825299045842735 -29.24739260622672 4.393829208312744
1529 -13.777571134776604 11.418574632500592 5.8509898688936826
1451 6.334340197682764 -7.300507355781604 -3.7112950828218763
1087 -6.2667276701740935 -16.973890374913008 3.568851344235728
853 -15.464639814450209 -8.679538515539413 17.67285400377875
1131 -4.970483574762119 1.5970745542620302 2.4949263973955302
1709 6.029015330662538 -18.863961568635588 -0.18415095573444978
1129 1.3491435247520918 2.1682169020883975 -18.39954888542696
1066 11.17706342069615 9.956328197111974 -5.530780886724797
1450 3.484926909304524 -3.4783355033345393 20.211393637584514
1068 -3.7249872567389755 3.4152018364598242 -4.046573788047311
966 -3.875751921651603 1.0635700275897535 3.7577059200139247
1530 -3.305498318210345 -1.0238563897617392 -2.3180795281197253
998 6.96932495715944 13.563591481245446 4.237909546162773
999 -5.462339531598434 5.5694265781895425 -2.277653700015615
964 -14.324648656928916 21.16448852806771 7.346594596158004
997 6.743869287812912 21.567135402793244 -3.0454036357384835
1802 -16.33125600581091 14.392448584503484 11.99844879394293
1803 -16.508052765749657 -2.6354044443180205 3.5444637188781276
1572 1.7306175646453963 0.2966850716040933 2.2239381711438786
1328 -0.4167790318461435 -21.198626641062667 2.685070980412362
1801 -24.448361966167244 -8.25759554472936 14.506806020770357
1570 -21.220503248322956 2.659815262253561 -5.115551103533264
1667 25.688093281960594 -6.902469586024688 7.405238231924163
854 -16.815094930913936 16.736736589894097 2.7126667323577296
907 -10.379702294733592 -14.073024216103123 -7.446648500046781
950 -2.063213835253681 -5.092362131558789 11.580518939243946
1883 6.388883960557809 -0.16279780999186405 2.88617931096254
1884 1.6915452225491467 0.4939144340828918 0.10467027080406757
1301 2.035585280292605 -0.5829631672463709 -6.079913143703693
1603 -6.4506002048593665 7.805042533530752 -1.360089847607401
1604 -5.5428722046978205 11.603859351222393 1.3585418105595577
1605 -0.8322822945492226 1.0412696510898396 3.2446486906109544
1969 -15.533458814838344 -0.5270471551819157 8.402542992147955
1986 -0.04322309628956713 0.6961420373333536 2.1134527834343415
1747 -2.4234140122963583 -3.3933845337470974 -4.05662080261168
926 12.484339934266842 9.097143487064717 7.476590944611375
1748 -0.11215561646263392 2.1195164277119756 5.100396050058887
1749 -3.071295328260307 -0.6371976858387197 2.2000625315734523
925 10.088751560867498 -1.5099031134154197 3.3827000764684843
927 2.174844291989304 -0.4028023480319883 4.801194842334792
932 -18.587960611321325 -12.107035276645584 10.016869849001544
1984 2.7052060770862316 0.36270711170631464 6.870533151524926
1848 -0.21062003470922278 1.9401466619313767 0.8221149862631586
933 -1.665379288095096 2.2164254159310874 -0.9981818797703634
1255 0.1938952847872147 -5.889662374883061 16.410304630644642
1257 -5.267388403938601 0.1499138077585404 4.498481789489407
820 -1.5608124077361007 10.182554331123843 -19.263982066753186
1708 6.991025350259769 6.575884826497706 13.307902187072154
1710 2.0751092141255025 -1.590629037844292 5.598832937506052
1858 7.828184053390056 9.959037680194417 -4.470596547015383
1859 9.507730319218677 5.045924251324648 11.211632887031511
1860 2.984328188521063 3.560526909439978 -1.4566658525466147
822 2.859490946068156 1.656741504145026 1.6115533767631365
821 -16.534617610852273 5.2791580379221985 5.633039458584119
862 -0.2887860161830159 -12.33415347246627 5.783212480813329
863 -11.8690379443677 7.882352404652301 10.305716676063449
864 -1.660198512846261 -1.188407144567857 2.4591527697377424
1927 15.671959497926435 8.323134762272494 -5.7175050993119
1678 -19.861381159279578 10.294676929687702 3.375261659861488
1130 9.10756778623116 0.1165118978310737 22.847456353745912
1703 -14.242370143594455 1.676290266178093 -4.33570058822616
1454 4.206970865912779 -0.8784697748527971 5.327280285550211
1575 9.536609220914915 0.8649789272207689 -2.91476758372116
1574 -15.239928290846006 -10.632463374739888 -17.162241325238806
855 2.3350927002160407 2.5819685292425767 -1.0114613390092557
1327 -0.3060073616494526 5.445682010300278 -25.294745862933375
1329 -1.9354134597162895 -0.6542458729362239 4.506310273740859
1680 0.10401673130261747 -1.5928353604898415 1.9218550514126493
1907 2.2299179924121963 -5.966325275953677 -1.7272884303148088
1908 -1.7747146515549284 -1.6251058338381896 1.8266374178598257
1409 14.5291003492502 0.3446961197354196 -2.94875402455122
1455 -1.6392120466136388 -0.7021812331505929 -2.367520847268207
1679 -10.148042669773359 -5.475042620335403 6.638403159902042
1852 -1.807265299828951 2.132543582862188 -5.425295588057963
1668 1.2522536375676856 -4.178188593580928 -8.473137934426534
1453 6.009975017237057 3.2034324051966054 -2.1940963996653227
1882 -1.69491935253148 -8.049897691006015 9.059602689036488
1302 2.2383207342754616 -0.7833683792497251 0.2202887414056489
1408 1.1193556893641459 -0.6215116827092237 7.01811370425286
1410 2.595358302425033 1.9909917140936695 -2.990070892189278
1274 4.730734203831604 5.569753709274792 -3.0947141557595663
1273 2.088094925701947 -2.555770246130855 -15.89822065641076
917 8.893668429489717 -1.201785666529352 1.8319401172059855
1275 -3.4345824713302227 4.655870410044804 3.355844167462416
918 0.3155039335898063 1.7616539437439385 -3.137391518438001
1497 1.0560665044975008 1.4611691936454734 2.3431071426178205
1496 5.411346827202056 -2.1362686823638932 -6.946558525766474
1929 1.166131549346876 -2.395933826898395 1.464861486203921
1713 4.636461035571915 1.1074497032985111 -0.09450465302698907
1711 0.3628985082594899 0.6760629907580729 -6.021957472863275
1809 2.6538073363641117 0.36497757672547654 0.47555639641099146
931 -15.307340326597073 -15.949224052840155 -0.35053174149271166
1269 2.9555066441610736 -1.2982678183038217 -0.33433740037311815
1236 3.6368000598705024 -2.1110496201230355 -1.3685293191010106
1267 5.874938847081821 -4.251785406328884 11.185898136530271
1712 5.19951256282784 -2.4891358050075048 -4.657370681398924
1807 1.871534948641308 3.2464638289464474 -4.941477824963643
1808 12.967088031949451 0.4143165025598905 5.422718100186827
1928 13.41879296082457 -12.08759643007819 3.076024490989912
1949 7.0631506955767565 12.482876110611668 -4.379308630653682
1906 0.21520992490449212 -0.7310634941629183 -1.40800863960767
1244 -13.503694424744165 -11.218158966434418 5.228626044983243
1562 12.493509040103529 10.52376987395945 -2.7922117818731422
1563 0.8207700214443012 -0.4919238134472759 2.758331947996381
1561 -1.7554251566855836 -4.683646104204174 -11.300657998301844
1536 0.029724989894434412 1.2516553545421827 -0.955597197080327
1955 3.9691582185972263 11.599532154456092 -6.934427375660059
1750 -3.4041790962959304 -3.5776575355188514 -2.3728629500619576
1186 4.938964015524075 7.338093806445397 -5.958574153697188
1956 -1.6901515224227175 0.425843802724521 -3.9954625822335283
1535 0.4951768371034362 5.197945153931292 -4.61580925276297
360 -16.07080702242373 -29.934368306543277 2.382079634168808
1171 19.284543450564875 5.128747825107388 -15.20504572978567
1173 2.178859906772147 -1.7425503459067242 0.4715377183289307
1610 -6.730766425888302 3.9412175296571883 -7.620199014974144
1899 4.849941808945516 -3.3672600702190354 -7.1660593527652185
1898 -0.8721712170968186 -3.8613073225811982 -21.727245138780276
1616 5.656407636483069 21.867716210795564 -15.719769582984073
1322 13.321651706824438 -14.040597539412923 9.805094486211377
1172 0.4767562866457265 -5.873574788160407 -12.927283987059353
847 -1.1977539008283715 10.905464294968331 10.11548650638213
1897 -16.40313194869409 -2.170810555766309 -21.413589948791024
630 0.5490299785284722 13.275565345527324 -30.127403658281157
1321 -14.816436814246414 -17.7858671990456 6.173708838598239
1323 5.806772127412965 -2.324302369660622 -10.391392663083819
1286 14.168306177479721 -14.152447960966661 -3.356839317275578
1021 18.71918276428645 -8.793203759767204 15.251363089645066
1477 9.251510770531548 3.3891212631184504 -7.196950676465031
1041 -3.2350103842728286 -0.3935780065762515 0.2987546412697654
1167 1.9575582104774336 5.832563468438322 4.090900176208745
1936 8.83643930618335 20.78464221072577 -10.25193249239769
1293 0.9056510555122659 -4.178505854549056 4.259294624343125
333 -1.6123434249933517 11.19918050330052 15.653643265404618
1291 4.796952112986404 -5.1170971594924115 0.28892394124028337
1292 -4.86503755592308 -9.714206447833867 14.908218472483812
1189 -2.210516612802683 -2.1888660111023324 4.793570878770823
1191 0.01067806368710121 -2.0345975459972645 -5.7831581406656385
1483 -9.299853851798256 -16.916113826923194 -1.7444565128795424
1484 -1.7431467293305145 2.563886583128374 6.557953785541421
1485 -1.214164309076357 1.1531365653631196 -0.36536707110378835
1537 13.411962320367294 13.986692859871038 15.868735296409644
1538 -8.595911181822371 13.492342159629636 3.837656260466539
1539 1.0984745618480558 5.40309493264576 1.4421118361022096
1141 23.975723841480256 7.526491198514914 -3.3623759290224076
1143 0.7640613222879361 -4.645781716438952 1.4811048832326723
1213 3.168198385014743 11.324052622301789 19.075630338794884
1640 -4.139367462020346 -17.373245341512952 7.848161726275323
1611 0.9432606320212849 1.5192945639606288 -6.115461122586204
1775 -8.032626325691727 3.6850751561059307 -5.127635959032082
1214 -2.8247854134656425 -0.046406594655423204 -15.165613295191912
595 1.4881302914458907 -7.729585000441581 17.29763596929968
1287 1.7278178307908092 0.672849731148344 -1.2793099362395068
1285 -11.783664833588924 10.314092828869946 6.222970871337156
55 -44.29153691740918 5.866856320359317 -25.687321987438843
1981 20.11635949928028 20.938653122782004 3.335627808695352
1421 -1.58043729351424 36.56816565217993 24.731095535319945
1014 3.7958177192567946 -0.5832494767806645 12.031608181415564
1876 23.08958524409758 9.07157101997592 11.516091184128584
1983 2.182883369996594 6.035394137240637 2.417788702446972
1013 6.666481192612067 -5.892861183305836 -9.542343020768477
1878 -9.240031986232335 -4.099926957391955 1.2343498179506318
1919 40.15907704334631 -9.82615804178588 -10.928673372796545
1039 34.39975836881819 -29.62764722913841 30.16558913526777
1158 8.499023606544553 11.66163922739889 -6.454248427502604
1157 -12.799398902355833 -43.816600928282284 -27.95070604783461
1360 -24.246462388426654 -22.54205784360718 16.055248643035142
1361 -11.080862593412677 13.152584359575021 -129.3881489440377
1362 -2.0568606933908384 -10.350375515806334 2.437661207150768
1420 -23.152354094195765 41.15175746522551 -14.590428375373529
1918 -41.966270439576135 -16.162843551336575 22.86965638729935
1920 5.298954671440471 4.763100240903689 6.9477957409297995
1279 -20.468294374677253 -2.357642875357135 8.513924819785716
1012 -23.930559234040178 6.959469735980413 20.14002940221086
1089 -2.5546729231454446 3.3109490799716927 7.925646927677767
1088 -14.835214977566494 1.0588491012990817 15.441721263871012
1763 -19.581072825497916 -10.588414411377375 17.839717417383707
424 5.6194269035003765 27.68914960255036 -11.363551476008796
1142 -34.26864436028992 3.2141571438436607 24.393808947257174
913 3.320518291940588 -9.450319277229298 -11.839279898550382
914 -3.0805472055031835 -25.15936015432612 -13.387564687981467
915 -10.20055137612288 4.431147102229317 -2.4836472051943623
1280 -3.514132502788859 -13.599350060588323 -5.4654314424659685
1281 0.09141330619050649 5.0009638418931255 1.7804633747268397
1764 -1.356424120056425 9.500844996398028 6.0093699345137015
1973 -5.360455475004535 -25.556993964947594 21.218523631182055
1762 2.904020492417523 -11.366023593280957 19.27878794788265
1256 -4.862266100783474 -5.737941340326222 -6.619022025238829
826 -29.29953624320271 -12.47288828535933 -4.643605988185179
1557 -2.6549579729224106 5.902761902066051 5.4096156359016785
1233 1.0893041859913706 -3.0806782241631425 -5.672620810106353
1985 7.8795511776164275 -16.973233096095093 -10.973685563610042
1757 15.76437670048807 3.8368715490066734 -5.285512487660623
1758 -1.273617081552066 1.278629734947532 -0.7316813970735526
1804 0.5402607557823973 -19.805709017715383 -2.979422514260108
1915 9.924163908580768 -2.554083282782209 -10.115183813198492
1916 -11.474281666618145 16.075064712038348 -5.261941379584847
1917 -4.52513982757456 1.7594162651209835 -1.818523537496395
828 -5.7647447126968885 -2.782062672672063 3.5269426484589173
1972 1.095942342071595 3.483815011783537 -20.410795898674856
1974 -2.4312266022035836 0.8573712444519382 -3.387428893928162
472 -1.7384060933007506 3.879095151935479 -5.123741738527678
1950 7.826332937080039 2.2676996829941585 -0.9216704229067342
1531 -3.637409715751987 -27.461542849027804 7.56498246105452
1573 17.53661397051095 -8.417921657527627 -5.725098236194071
1666 27.696281107325078 -4.439049417537595 1.211937642912934
742 -2.6886729328719463 2.0022354047270388 -0.5628733949056416
1532 -16.96363824072487 -8.07308475729276 -2.0394582060088973
882 5.012311430713473 -0.16281471671472314 -1.9311527657385446
818 0.7377769318821558 -12.812369865451053 12.681348277481138
1356 -1.0415601965993253 1.2026356750573417 0.49946182818802776
244 23.242382226761755 -7.351859137247341 0.6385119722042606
1428 6.01175766786744 8.673443353016335 5.171789787440203
1231 -21.546902348250757 20.077536381626096 30.091962071506778
1579 23.84297206729816 5.729050161661617 -10.578753423279684
1533 -5.031300984352945 -3.077016078203928 -2.5856095387771534
904 -16.79897001970231 1.3740465823855172 -7.2661266546478
906 4.168940798580244 -3.7878207212625536 -3.2580359186437815
905 1.9867281984816345 -8.154461202698831 21.416651648308623
881 -11.464857120384327 13.353645367490637 -11.999007094961515
1232 5.516037891151976 17.32321832520063 -19.957302399807215
1042 33.35145008695643 17.849421799305944 -10.794864048531496
1787 -8.350252768431112 -14.810633576174073 5.923529239180645
1584 6.069591872177267 -1.7715727115841946 -1.1981904113906174
1582 12.068538416019118 -8.863453394292016 -25.51118737338807
1718 -15.415948727074491 -10.128437381735782 37.37002923170925
1717 2.2249216130173193 4.643603321818271 15.770622546762851
916 -21.239358986651126 -4.659190939559596 15.509160926352298
1079 24.38135773623785 2.7311263575839306 28.695324468830943
1259 -15.773294198270513 14.199850991875266 -1.7875278271747275
1260 -7.499408294063485 2.3695800431485603 -4.64151080349821
923 -24.1440677594915 -2.371038095192654 17.99413731960448
1078 -16.07893531177076 -19.613582605753717 13.231149235176273
1080 1.9256429991558701 0.7151928444574144 -7.38214189531997
1258 -16.52916080942918 7.948303097412239 8.15468434349761
1719 0.16715447150112778 5.041399977720992 -0.4681133789572601
1948 -1.4224775674799877 0.18524031986038855 0.4686614085090292
782 -4.673075782704935 2.257545542257068 -1.3188760447265702
1245 3.468095784447825 -1.6920573035482191 1.654221167105779
1243 -15.069214107130017 16.69859559819842 5.833244879102266
1355 -19.203781581716694 -3.9655674211784477 12.660793978003783
1702 5.950774370986499 -14.033454911826446 2.010296935208797
1092 -0.928783708744044 -5.30204549496105 -3.049637670148726
1091 2.7210770115418335 4.844714310475295 7.105546557743287
242 3.9896168265752534 3.9344064986078875 3.7208397267963207
243 1.110252742878064 22.841289427341742 -14.529761153812643
783 7.838985011249751 10.710086394213977 -2.2869392742538803
784 -2.0475755979955865 -15.283442296421162 3.490227493093065
810 -10.541794255133283 -7.424503971654322 -0.3751516512208453
1896 -2.0223655723576175 2.41127008069254 -0.5554675898325427
951 -2.2023485848223516 1.5769977940347437 2.0504973423875756
1043 23.721599964869913 4.298980164908867 5.2006668280236665
1583 -7.362039634924736 -20.604755611669017 -9.371606120690414
332 1.113323563630851 2.9618167772638837 -5.530033381797511
897 1.2615524375552771 9.595958826023264 -11.174111248522456
949 14.26260926403399 0.666189095663621 2.923316222780088
1786 15.65388592485108 -13.382561179442344 -6.4771288072398985
1788 -3.4809535090876724 -3.714308337744378 2.8494121321117327
