molecular system: BT.h.03.00.cif
1990 atoms
9 atom types

  0.000000  20.670614 xlo xhi
  0.000000  18.645070 ylo yhi
  0.000000  56.742657 zlo zhi
-12.224289   0.000000   0.000000 xy xz yz

Masses

1  40.080000 # cah 
2  12.010000 # co  
3   1.007800 # h*  
4   1.007800 # ho  
5  16.000000 # o*  
6  16.000000 # ob  
7  16.000000 # oc  
8  16.000000 # oh  
9  28.086000 # st  

Atoms

     1      9  16.984207   2.209277   3.402789 # st  
     2      9  15.426807   2.899897  22.451469 # st  
     3      9   1.951877  18.452357  17.974569 # st  
     4      9  11.838207   5.508167   7.702219 # st  
     5      9  16.501007   4.520327   1.414519 # st  
     6      9   6.583077  17.409957  24.493169 # st  
     7      9  13.120207   1.658747  15.680469 # st  
     8      9  14.899807   1.330707   9.801769 # st  
     9      9  14.663007   5.974877   3.116669 # st  
    10      9  17.216307   0.315216  22.384369 # st  
    11      9  11.689107   3.339527  17.863169 # st  
    12      9  13.509207   3.048787   7.564169 # st  
    13      1  17.040207   2.720987   6.790509 # cah 
    14      1  15.498307   3.096787  18.926069 # cah 
    15      1  13.792107   0.141443  21.389869 # cah 
    16      1  11.223607   5.623827   4.378149 # cah 
    17      1  13.493307   2.616927   4.510709 # cah 
    18      1  11.950007   3.095947  20.952669 # cah 
    19      1   5.377617  18.620957  19.316169 # cah 
    20      1  15.054007   5.902447   6.525699 # cah 
    21      1   0.699183  18.345657  12.661569 # cah 
    22      6  16.672007   3.206767   2.243939 # ob  
    23      6   7.193787  16.318557  23.621069 # ob  
    24      6  13.685007   0.579023  16.558969 # ob  
    25      6  15.247607   0.029779   8.931449 # ob  
    26      6  17.952907   1.042827   3.024749 # ob  
    27      6  16.288007   1.573107  22.750469 # ob  
    28      6   2.604537  17.141257  17.445769 # ob  
    29      6  12.810807   4.339297   8.123959 # ob  
    30      6  17.765907   3.079557   4.475939 # ob  
    31      6   8.064017  16.279957  21.136469 # ob  
    32      6  15.085507   0.732342  18.828469 # ob  
    33      6  16.704207   0.205760   6.924739 # ob  
    34      6  15.683807   1.531087   3.916609 # ob  
    35      6  14.258507   2.563567  21.476069 # ob  
    36      6   0.597995  18.116357  18.731269 # ob  
    37      6  10.724307   4.881337   6.816449 # ob  
    38      8   5.659157  16.813257  25.719269 # oh  
    39      8  16.550407   4.370177  56.536469 # oh  
    40      6  14.082207   1.004787  11.033269 # ob  
    41      6  12.410407   1.282817  14.406669 # ob  
    42      6  15.214007   5.333907   1.781869 # ob  
    43      6   5.653387  18.302857  23.625969 # ob  
    44      6  12.263707   2.594917  16.566769 # ob  
    45      6  14.148307   2.259867   8.804919 # ob  
    46      6  13.644107   5.023457   3.807399 # ob  
    47      6   4.130307  18.074657  21.448269 # ob  
    48      6  10.860307   2.356537  18.730669 # ob  
    49      6  12.522007   2.092147   6.782359 # ob  
    50      6   7.467757  18.564457   4.588589 # ob  
    51      6  18.390507   0.792367  21.445869 # ob  
    52      6   4.630637  16.194557  18.796769 # ob  
    53      6  14.625207   3.461857   6.543779 # ob  
    54      8  11.139607   4.938717   0.585999 # oh  
    55      4  11.786507   4.144527   0.285819 # ho  
    56      8   1.163932  17.916157  24.878769 # oh  
    57      4   1.477277  18.570157  25.646869 # ho  
    58      8  14.434607   2.630387  15.264069 # oh  
    59      4  15.107007   2.167357  14.618369 # ho  
    60      8  16.285207   2.069257  10.307269 # oh  
    61      4  17.020307   1.869657  11.039069 # ho  
    62      5  14.286807   1.590607   1.374999 # o*  
    63      3  14.690707   1.037297   2.100909 # h*  
    64      3  14.441207   1.161877   0.448319 # h*  
    65      5  12.226107   2.266757  23.752769 # o*  
    66      3  11.512407   2.210997  24.449869 # h*  
    67      3  12.974707   1.654507  24.028169 # h*  
    68      5   5.911537  17.578657  16.112069 # o*  
    69      3   6.504907  17.925657  16.895969 # h*  
    70      3   5.851217  18.346457  15.426469 # h*  
    71      5  16.373307   4.772197  10.292369 # o*  
    72      3  16.516207   4.915587   9.304269 # h*  
    73      3  16.465507   3.745987  10.371169 # h*  
    74      5  13.559107   4.271217  10.852669 # o*  
    75      3  14.572007   4.193857  10.908669 # h*  
    76      3  13.355907   4.458437   9.880669 # h*  
    77      5   2.629377  16.788657  14.592369 # o*  
    78      3   2.378707  15.802657  14.530769 # h*  
    79      3   2.375727  17.193457  15.497069 # h*  
    80      5  15.706007   0.999079  13.499069 # o*  
    81      3  10.699307   3.408157  14.235969 # h*  
    82      3  10.452407   3.943607  15.669669 # h*  
    83      5   4.636647  17.274757  12.929769 # o*  
    84      3   4.200757  16.685657  12.194869 # h*  
    85      3   3.863067  17.062457  13.581469 # h*  
    86      5  11.423107   2.043127  12.025469 # o*  
    87      3  11.781207   1.859847  12.965969 # h*  
    88      3  12.143807   2.461577  11.475569 # h*  
    89      4   4.758577  16.353757  25.503969 # ho  
    90      4  15.676707   4.164337  56.029869 # ho  
    91      9  13.064507   8.712317   3.211999 # st  
    92      9  11.464807   8.966607  22.285469 # st  
    93      9  10.002347   5.842957  17.858069 # st  
    94      9   7.620027  11.756157   7.688299 # st  
    95      9  12.216607  10.619357   0.993849 # st  
    96      9  14.399407   4.611967  24.798869 # st  
    97      9   9.458477   8.155277  15.878569 # st  
    98      9  10.517507   7.321027   9.872269 # st  
    99      9  10.702807  12.153357   3.242299 # st  
   100      9  13.136507   6.327217  22.715169 # st  
   101      9   7.551307   9.576737  18.027569 # st  
   102      9   9.117737   9.138207   7.696749 # st  
   103      1  12.621307   8.928727   6.323759 # cah 
   104      1  11.137107   9.266007  18.889969 # cah 
   105      1   9.564807   5.979927  20.939469 # cah 
   106      1   7.323787  11.946457   4.656879 # cah 
   107      1   9.437407   8.829087   4.267189 # cah 
   108      1   7.745847   9.305577  21.284469 # cah 
   109      1  13.332007   6.060337  19.454369 # cah 
   110      1  10.938407  11.961657   6.534609 # cah 
   111      1   9.496527   5.973067  13.023669 # cah 
   112      6  12.735807   9.388507   1.840969 # ob  
   113      6  14.912607   3.605637  23.773769 # ob  
   114      6   9.614087   6.720287  16.592069 # ob  
   115      6  11.221707   6.262487   8.961219 # ob  
   116      6  13.979207   7.396917   2.987359 # ob  
   117      6  12.295707   7.726477  22.909869 # ob  
   118      6  10.811407   4.533967  17.429269 # ob  
   119      6   8.396777  10.445757   8.111009 # ob  
   120      6  13.833507   9.675827   4.117529 # ob  
   121      6  16.417707   3.835467  21.584769 # ob  
   122      6  10.944107   6.674967  18.833369 # ob  
   123      6  12.707807   6.442347   6.834179 # ob  
   124      6  11.759407   8.202967   3.876309 # ob  
   125      6  10.149937   8.501537  21.678869 # ob  
   126      6   8.744287   5.489777  18.711169 # ob  
   127      6   6.292417  11.465557   6.974749 # ob  
   128      8  13.705107   3.878257  25.988069 # oh  
   129      8  11.285607  10.045657  56.496369 # oh  
   130      6   9.488947   6.700427  10.843369 # ob  
   131      6   8.736727   8.056327  14.551369 # ob  
   132      6  11.396307  11.578857   1.910539 # ob  
   133      6  13.448607   5.638877  24.101369 # ob  
   134      6   8.458957   8.955167  16.875669 # ob  
   135      6   9.899707   8.379937   8.896299 # ob  
   136      6   9.633337  11.278157   3.882189 # ob  
   137      6  12.246907   5.422797  21.810569 # ob  
   138      6   6.563217   8.600947  18.628469 # ob  
   139      6   8.191887   8.142717   6.928809 # ob  
   140      6  15.850007   6.139357   4.153109 # ob  
   141      6  14.393307   6.729677  21.824669 # ob  
   142      6  12.894607   3.891557  18.665169 # ob  
   143      6  10.217097   9.560547   6.616939 # ob  
   144      8   6.330747  11.215157   0.264509 # oh  
   145      4   7.035497  10.671357  56.474569 # ho  
   146      8   9.702447   6.098997  23.769769 # oh  
   147      4  10.514707   6.481567  24.264969 # ho  
   148      8  10.824807   8.972407  15.874869 # oh  
   149      4  11.334707   8.779247  14.979769 # ho  
   150      8  11.595507   8.142247  10.794969 # oh  
   151      4  12.605707   8.151367  10.640569 # ho  
   152      5   9.480267   8.657627   1.543239 # o*  
   153      3   8.956347   7.847997   1.275669 # h*  
   154      3   9.996687   8.994237   0.753169 # h*  
   155      5   7.534387  10.683557  27.286169 # o*  
   156      3   8.095437  11.483957  27.000069 # h*  
   157      3   6.631787  11.113657  27.551869 # h*  
   158      5  13.616907   5.089987  14.539769 # o*  
   159      3  14.102007   4.221637  14.746069 # h*  
   160      3  14.189207   5.950277  14.433869 # h*  
   161      5  11.224307  11.703057   9.135189 # o*  
   162      3  11.055807  12.572657   9.617869 # h*  
   163      3  11.433807  10.957957   9.757869 # h*  
   164      5   7.224167   7.960327  11.212969 # o*  
   165      3   7.410307   8.849697  11.625269 # h*  
   166      3   8.077047   7.458337  10.932269 # h*  
   167      5  12.141507   5.657537  12.575869 # o*  
   168      3  12.656907   5.367707  11.759169 # h*  
   169      3  12.619507   5.248567  13.403669 # h*  
   170      5  11.843307   8.196477  13.541369 # o*  
   171      3   7.191497   8.517637  14.781269 # h*  
   172      3   5.813047   8.526367  13.896969 # h*  
   173      5  16.762607   4.014587  14.034069 # o*  
   174      3  16.536607   3.109687  13.742169 # h*  
   175      3  16.819507   4.115667  15.022469 # h*  
   176      5   8.076897  10.006057  12.788769 # o*  
   177      3   8.053297   9.215037  13.434869 # h*  
   178      3   7.604027  10.826357  13.148569 # h*  
   179      4  12.634507   3.719417  25.974469 # ho  
   180      4  11.102307   9.004547  56.487269 # ho  
   181      9   9.043417  14.760457   3.251269 # st  
   182      9   7.332577  15.469857  22.240569 # st  
   183      9   5.740297  12.215457  17.937669 # st  
   184      9   3.530747  17.884257   7.646259 # st  
   185      9   4.669117  14.169657  15.756869 # st  
   186      9   6.995947  13.957057   9.856769 # st  
   187      9   6.468807  18.364957   3.394489 # st  
   188      9   8.955427  12.801157  22.274869 # st  
   189      9   3.358647  15.745057  17.994869 # st  
   190      9   5.220617  15.309257   7.698909 # st  
   191      1   8.740457  15.147857   6.687749 # cah 
   192      1   7.017277  15.594657  18.967669 # cah 
   193      1   5.629937  12.539757  21.149869 # cah 
   194      1   2.936457  17.886257   4.328599 # cah 
   195      1   5.413147  14.960257   4.471789 # cah 
   196      1   3.629447  15.817957  21.313069 # cah 
   197      1   9.045787  12.576057  19.175069 # cah 
   198      1   6.954627  18.139757   6.861059 # cah 
   199      1   5.005797  11.845957  12.671469 # cah 
   200      8   8.576957  15.363057   1.863869 # oh  
   201      8  11.012107   9.936787  23.530669 # oh  
   202      6   5.325747  13.014257  16.665169 # ob  
   203      6   7.315177  12.569057   9.002859 # ob  
   204      6  10.010277  13.507057   2.952099 # ob  
   205      6   8.298297  14.217057  22.508569 # ob  
   206      6   6.648287  10.873957  17.537369 # ob  
   207      6   4.319307  16.565457   8.100929 # ob  
   208      6   9.768317  15.634057   4.298639 # ob  
   209      6  12.290607   9.797567  21.345469 # ob  
   210      6   6.724157  13.067257  18.830069 # ob  
   211      6   8.553267  12.532957   6.736409 # ob  
   212      6   7.648427  14.181657   4.000419 # ob  
   213      6   5.932237  15.090557  21.780169 # ob  
   214      6   4.611697  11.772557  18.900669 # ob  
   215      6   2.309947  17.548057   6.769759 # ob  
   216      6   6.591267  13.661457  11.283669 # ob  
   217      6   3.940947  13.557957  14.606569 # ob  
   218      8   7.410937  17.902757   2.164969 # oh  
   219      8   9.188907  12.162557  23.708069 # oh  
   220      6   3.715967  14.903957  16.777469 # ob  
   221      6   5.759427  14.619557   9.036359 # ob  
   222      6   5.374947  17.260357   3.618889 # ob  
   223      6   7.909987  11.944957  21.478069 # ob  
   224      6   2.354827  15.111957  18.982369 # ob  
   225      6   4.277157  14.374357   6.810299 # ob  
   226      6  11.911607  12.415257   4.227239 # ob  
   227      6  10.189627  12.962257  21.391369 # ob  
   228      6   8.546507  10.075957  19.109269 # ob  
   229      6   6.421647  15.764757   6.813419 # ob  
   230      8   5.847847  15.188857  15.267669 # oh  
   231      4   5.919077  16.199357  15.613369 # ho  
   232      8   8.219037  14.944057   9.768169 # oh  
   233      4   9.148217  14.712957  10.259069 # ho  
   234      5   4.874207  15.937057   1.278359 # o*  
   235      3   5.171217  16.118157   2.239379 # h*  
   236      3   3.940487  16.290757   1.236049 # h*  
   237      5   2.302557  15.367757  29.607569 # o*  
   238      3   2.922767  16.104157  29.314769 # h*  
   239      3   1.407327  15.752857  29.307169 # h*  
   240      5   9.073797  13.121257  14.437169 # o*  
   241      3   8.452737  13.767857  13.956969 # h*  
   242      3   9.903647  13.663357  14.686269 # h*  
   243      5   7.031367  17.687357   9.216769 # o*  
   244      3   7.240427  18.136057  10.137769 # h*  
   245      3   7.682027  16.946857   9.161769 # h*  
   246      5   3.554387  16.194057  10.822569 # o*  
   247      3   2.541697  16.486357  10.754869 # h*  
   248      3   3.857387  16.443057   9.887569 # h*  
   249      5   6.794247  11.785357  14.385869 # o*  
   250      3   7.658327  12.302057  14.556369 # h*  
   251      3   6.661917  11.317157  15.282769 # h*  
   252      5   7.227817  15.333657  13.173069 # o*  
   253      3   0.669500  15.469957  13.577269 # h*  
   254      3  -0.888353  15.465557  13.516269 # h*  
   255      5  10.592607  10.518557  11.588869 # o*  
   256      3  10.919707   9.607357  11.291269 # h*  
   257      3   9.607057  10.315357  11.841369 # h*  
   258      5   3.403077  13.533057  11.869669 # o*  
   259      3   3.333807  13.828557  12.837869 # h*  
   260      3   3.901317  14.263057  11.341169 # h*  
   261      9   2.998917   2.233207   3.334699 # st  
   262      9   1.674347   2.642567  22.429469 # st  
   263      9 -11.788093  18.592357  17.686669 # st  
   264      9  -2.070183   5.557537   8.083139 # st  
   265      9   1.809857   3.860907   1.055599 # st  
   266      9  -7.943043  16.758757  24.434969 # st  
   267      9  -0.736199   1.828147  15.424169 # st  
   268      9   0.854480   1.133577  10.341069 # st  
   269      9   0.763684   5.842577   3.160989 # st  
   270      9   3.196957   0.079691  22.414469 # st  
   271      9  -2.035373   3.350417  17.767469 # st  
   272      9  -0.354724   2.912067   8.153569 # st  
   273      1   3.006027   2.557267   6.572089 # cah 
   274      1   1.329787   3.256967  19.183869 # cah 
   275      1   8.408537  18.631757  20.904769 # cah 
   276      1  -2.358313   5.711157   4.265809 # cah 
   277      1  -0.265408   2.611827   5.027889 # cah 
   278      1  -1.766613   3.248797  21.211669 # cah 
   279      1   3.445597   0.096314  19.136969 # cah 
   280      1   1.106112   5.544637   6.468479 # cah 
   281      1   7.143047  17.838557  13.097269 # cah 
   282      6   2.434677   2.735097   1.996089 # ob  
   283      6  -7.103633  15.858257  23.489769 # ob  
   284      6  -0.046633   0.673853  16.378569 # ob  
   285      6   1.576647   0.052317   9.375169 # ob  
   286      6   3.749907   0.805184   3.096899 # ob  
   287      6   2.316737   1.283567  22.826069 # ob  
   288      6 -10.691993  17.384457  17.451169 # ob  
   289      6  -1.178523   4.260247   8.422639 # ob  
   290      6   4.012957   3.220987   3.980449 # ob  
   291      6  -5.679343  16.269357  21.356469 # ob  
   292      6   1.113255   0.965085  18.630469 # ob  
   293      6   2.913647   0.218042   7.263719 # ob  
   294      6   1.822107   1.799837   4.284039 # ob  
   295      6   0.483249   2.367337  21.481869 # ob  
   296      6   7.562537  17.971257  18.307669 # ob  
   297      6  17.228907   4.986687   7.683949 # ob  
   298      8  -8.964503  15.720057  25.331769 # oh  
   299      8   0.657243   3.174487   0.137979 # oh  
   300      6  -0.337502   0.502286  11.146569 # ob  
   301      6  18.810007   1.132877  14.513669 # ob  
   302      6   1.136425   5.080887   1.809919 # ob  
   303      6  -8.723303  17.808557  23.613769 # ob  
   304      6  -1.488683   2.848387  16.364869 # ob  
   305      6   0.248948   2.264557   9.407569 # ob  
   306      6   0.061743   4.824887   4.130489 # ob  
   307      6  -9.813993  17.851157  21.375969 # ob  
   308      6  17.863407   2.317037  18.488669 # ob  
   309      6  19.345107   1.980247   7.374209 # ob  
   310      6   5.893687  -0.020916   4.202749 # ob  
   311      6   4.595817   0.612270  21.853269 # ob  
   312      6  -9.014553  16.223157  18.924369 # ob  
   313      6   0.696853   3.305447   7.048149 # ob  
   314      8  -2.814173   5.404137   1.721929 # oh  
   315      4  -2.572573   6.050747   0.959239 # ho  
   316      8   7.651047  18.275557  25.261569 # oh  
   317      4  19.665707   0.591063  25.563169 # ho  
   318      8   0.440375   2.459437  14.583769 # oh  
   319      4   1.368297   2.032127  14.470469 # ho  
   320      8   1.825517   1.809157  11.342469 # oh  
   321      4   1.724137   1.761267  12.370469 # ho  
   322      5  20.088207   0.793252  56.698669 # o*  
   323      3  -0.030103   0.361493  55.936869 # h*  
   324      3  -0.017196   1.573937   0.305889 # h*  
   325      5  19.119207   1.798687  26.431069 # o*  
   326      3  -0.969053   2.517957  26.908269 # h*  
   327      3  18.827007   2.320407  25.613569 # h*  
   328      5   4.052567   0.532787  16.318069 # o*  
   329      3   3.697847   1.401437  16.683769 # h*  
   330      3   4.517167   0.103824  17.138869 # h*  
   331      5   2.986117   4.136857  11.487469 # o*  
   332      3   2.629547   3.170917  11.463069 # h*  
   333      3   3.980277   4.054747  11.342769 # h*  
   334      5  18.389507   2.046277  12.086569 # o*  
   335      3  19.139007   1.587887  11.572669 # h*  
   336      3  18.331207   1.651097  13.057869 # h*  
   337      5 -11.128893  17.589457  13.424869 # o*  
   338      3 -10.529393  18.336857  13.766069 # h*  
   339      3 -10.580093  16.730257  13.338869 # h*  
   340      5   2.800347   1.210387  14.073269 # o*  
   341      3  16.305407   0.260359  13.132869 # h*  
   342      3  15.118207   1.117907  12.684469 # h*  
   343      5  -6.821383  17.769657  14.656969 # o*  
   344      3  -6.721383  16.837157  15.101669 # h*  
   345      3  -7.280053  18.388957  15.373169 # h*  
   346      5  -1.543153   4.705497  12.661369 # o*  
   347      3  -1.947023   3.789907  12.505069 # h*  
   348      3  -0.638526   4.662917  13.127169 # h*  
   349      4  -9.726943  16.201057  25.857469 # ho  
   350      4   0.072498   3.893777  56.362569 # ho  
   351      9  -0.851183   8.364547   3.345179 # st  
   352      9  -2.318213   9.215207  22.537769 # st  
   353      9  -3.715283   5.994547  17.961969 # st  
   354      9  -6.025903  11.838857   7.644999 # st  
   355      9  -4.904273   7.954897  15.763269 # st  
   356      9  -2.787013   7.900567   9.854369 # st  
   357      9  -3.277273  12.247157   3.058819 # st  
   358      9  -0.687239   6.630957  22.445769 # st  
   359      9  14.224307   9.322857  17.877969 # st  
   360      9  -4.534143   9.126977   7.584679 # st  
   361      1  -0.935973   8.694137   6.716699 # cah 
   362      1  -2.682733   9.239597  19.419169 # cah 
   363      1  -3.982583   6.186127  21.189769 # cah 
   364      1  -6.368653  11.915257   4.712289 # cah 
   365      1  -4.422413   8.618497   4.561209 # cah 
   366      1  -5.862113   9.247637  21.148269 # cah 
   367      1  -0.382292   6.373787  19.132369 # cah 
   368      1  -2.786223  11.877857   6.203099 # cah 
   369      1  -3.705583   5.975447  12.704869 # cah 
   370      8  -1.201403   9.203957   1.899469 # oh  
   371      8   1.260007   3.495137  23.676669 # oh  
   372      6  -4.159243   6.891297  16.796569 # ob  
   373      6  -2.193183   6.530747   9.366969 # ob  
   374      6  -0.246253   6.990547   2.926979 # ob  
   375      6  -1.384103   7.925607  22.832669 # ob  
   376      6  -3.007733   4.651177  17.540269 # ob  
   377      6  -5.182143  10.497557   8.071869 # ob  
   378      6   0.009445   9.222737   4.298029 # ob  
   379      6   2.769867   3.415057  21.574969 # ob  
   380      6  -2.875623   6.844357  18.975769 # ob  
   381      6  -1.407563   6.313977   6.933259 # ob  
   382      6  -2.169003   8.035287   4.090569 # ob  
   383      6  -3.511483   8.750227  21.652369 # ob  
   384      6  15.693307   5.557837  18.806669 # ob  
   385      6  -7.293763  11.275457   6.878619 # ob  
   386      6  -3.299503   7.852987  11.273969 # ob  
   387      6  15.281307   7.213497  14.505469 # ob  
   388      8  -2.825883  11.754457   1.631719 # oh  
   389      8  -0.098644   5.890537  23.828569 # oh  
   390      6  14.636107   8.608797  16.574369 # ob  
   391      6  -3.817243   8.416917   8.805269 # ob  
   392      6  -4.139913  11.171957   3.767719 # ob  
   393      6  -1.693613   5.629157  21.809969 # ob  
   394      6  13.363507   8.401857  18.758369 # ob  
   395      6  15.079007   8.276927   6.905559 # ob  
   396      6   1.934057   6.417057   3.980419 # ob  
   397      6   0.489363   6.940837  21.447369 # ob  
   398      6  -0.870943   3.901077  18.683269 # ob  
   399      6  -3.535173   9.505447   6.466719 # ob  
   400      8  -7.177503  11.336957   0.341269 # oh  
   401      4  -6.297193  10.818457   0.182769 # ho  
   402      8  15.707707   5.386077  25.311369 # oh  
   403      4  15.837707   5.845097  26.221669 # ho  
   404      8  -3.719943   8.989227  15.430769 # oh  
   405      4  -4.009483   9.771867  14.808769 # ho  
   406      8  -1.522153   8.847727   9.694669 # oh  
   407      4  -0.595313   8.876987  10.177369 # ho  
   408      5  -4.488613  10.627857  56.367769 # o*  
   409      3  -3.868233  11.069457  55.729169 # h*  
   410      3  -4.647173   9.685967  55.963869 # h*  
   411      5  14.483407   9.316187  23.760769 # o*  
   412      3  13.711407   9.111287  24.377069 # h*  
   413      3  -5.645053   9.969047  24.281469 # h*  
   414      5  -0.419824   6.794207  16.143069 # o*  
   415      3   0.308121   7.452717  16.432369 # h*  
   416      3  -1.288563   7.292367  16.228569 # h*  
   417      5  -2.704043  11.672357   8.825509 # o*  
   418      3  -2.204093  12.067057   9.615669 # h*  
   419      3  -2.735073  10.718257   9.077349 # h*  
   420      5  -5.300803  11.342957  11.212369 # o*  
   421      3  -5.350933  11.309457  10.220769 # h*  
   422      3  -6.260393  11.614057  11.378869 # h*  
   423      5   0.746505   5.088357  14.166769 # o*  
   424      3   0.314805   5.748727  14.810569 # h*  
   425      3   0.932918   4.281507  14.787769 # h*  
   426      5  -1.983223   9.624367  12.728669 # o*  
   427      3  11.684807   8.156807  12.532669 # h*  
   428      3  12.108807   7.226387  13.762369 # h*  
   429      5   0.646335   5.807497  11.174369 # o*  
   430      3   1.239627   4.978237  11.263769 # h*  
   431      3  -0.269867   5.463587  11.395969 # h*  
   432      5  14.718307   8.069737  11.856269 # o*  
   433      3  14.670907   7.885157  12.864769 # h*  
   434      3  -4.921063   8.193657  11.706069 # h*  
   435      9  -5.000463  14.901857   3.325639 # st  
   436      9  -6.557843  15.218557  22.210569 # st  
   437      9  -7.885223  12.132657  17.793169 # st  
   438      9 -10.267793  17.942557   8.063729 # st  
   439      9  -6.047293  16.836657   1.139389 # st  
   440      9  -3.185763  11.293757  24.574269 # st  
   441      9  -8.294883  14.331857  15.808869 # st  
   442      9  -6.973373  13.793457   9.917469 # st  
   443      9  -7.584723  18.244057   3.389069 # st  
   444      9  -4.799183  12.652357  22.342169 # st  
   445      9 -10.169993  15.876457  17.790869 # st  
   446      9  -8.612573  15.295057   7.895399 # st  
   447      1  -4.987193  15.254257   6.531489 # cah 
   448      1  -6.610973  15.306957  19.054369 # cah 
   449      1  -7.893143  12.218057  21.261969 # cah 
   450      1 -10.802193  18.059357   4.583169 # cah 
   451      1  -8.427263  14.897357   4.813749 # cah 
   452      1  10.621607  15.298057  20.976069 # cah 
   453      1  -4.349083  12.455357  18.803869 # cah 
   454      1  -7.036443  18.065657   6.607169 # cah 
   455      1  11.462107  12.396757  12.699969 # cah 
   456      6  -5.401253  15.725557   2.069689 # ob  
   457      6  -2.647923  10.105557  23.735169 # ob  
   458      6  -8.042463  12.997257  16.476569 # ob  
   459      6  -6.434543  12.688957   8.925599 # ob  
   460      6  -4.116163  13.632257   2.997749 # ob  
   461      6  -5.618013  13.922457  22.544869 # ob  
   462      6  13.469007  10.693957  17.430369 # ob  
   463      6  -9.355033  16.595557   8.348789 # ob  
   464      6  -4.138273  15.780857   4.347659 # ob  
   465      6  -1.419363  10.195157  21.579169 # ob  
   466      6  -6.906763  12.921457  18.710469 # ob  
   467      6  -5.189583  12.707857   6.738819 # ob  
   468      6  -6.272643  14.463657   4.103899 # ob  
   469      6  -7.700073  14.624957  21.313169 # ob  
   470      6  11.436807  11.786257  18.444969 # ob  
   471      6 -11.427793  17.492257   7.156889 # ob  
   472      8  -3.781193  10.864157  25.956369 # oh  
   473      8  -6.574603  16.304757  56.451369 # oh  
   474      6  -7.485743  13.228657  11.220369 # ob  
   475      6  -8.936443  14.164057  14.413469 # ob  
   476      6  -7.119063  17.575457   2.069829 # ob  
   477      6  -4.216093  12.075857  23.699569 # ob  
   478      6  -9.421053  15.125757  16.682569 # ob  
   479      6  -8.205683  14.462957   9.110919 # ob  
   480      6  -8.371753  17.243357   4.349309 # ob  
   481      6  -5.569033  11.582657  21.546669 # ob  
   482      6   9.424587  15.042357  18.499669 # ob  
   483      6  11.066307  14.554357   6.920049 # ob  
   484      6  -1.958003  12.542457   3.920579 # ob  
   485      6  -3.486423  13.065557  21.454869 # ob  
   486      6  -5.190123   9.771187  18.679469 # ob  
   487      6  -7.287043  15.700257   7.102689 # ob  
   488      8  -6.994323  15.296157  15.634969 # oh  
   489      4  -6.362323  15.104857  14.831069 # ho  
   490      8  -5.808693  14.827957  10.110069 # oh  
   491      4  -6.048903  15.848157  10.075569 # ho  
   492      5  -7.789283  13.467257  55.668269 # o*  
   493      3  -7.211943  12.813857  56.219069 # h*  
   494      3  -8.503863  13.766557  56.337469 # h*  
   495      5   8.956757  12.827457  26.261469 # o*  
   496      3   8.811217  12.618757  25.279469 # h*  
   497      3   8.866887  13.837957  26.445569 # h*  
   498      5  -4.105433  12.369157  16.401969 # o*  
   499      3  -4.359493  13.071357  15.738269 # h*  
   500      3  -4.048253  11.608057  15.752169 # h*  
   501      5  -6.779103  17.133557  10.786569 # o*  
   502      3  -7.584573  17.126357  11.413869 # h*  
   503      3  -6.331813  18.025557  10.905569 # h*  
   504      5  10.543307  14.482257  11.227469 # o*  
   505      3  11.257207  14.429557  10.492169 # h*  
   506      3  -9.843393  15.310057  11.779569 # h*  
   507      5  13.026307  10.615757  14.021969 # o*  
   508      3  12.764907   9.644297  13.914569 # h*  
   509      3  13.026707  10.715357  15.039969 # h*  
   510      5  -5.687233  14.457657  13.301469 # o*  
   511      3   6.693997  15.244757  14.020869 # h*  
   512      3   6.916417  14.549557  12.607469 # h*  
   513      5  -4.007233  10.941957  13.651269 # o*  
   514      3  -3.431183  10.394957  12.977269 # h*  
   515      3  -4.842173  11.286957  13.222369 # h*  
   516      5  -8.556983  16.431957  13.037869 # o*  
   517      3  -8.693003  15.583157  13.583369 # h*  
   518      3  -7.865873  17.003357  13.553969 # h*  
   519      4  -4.172483  11.666557  26.489369 # ho  
   520      4  -7.064253  16.943757  55.804969 # ho  
   521      9  10.126457   2.407507   3.163749 # st  
   522      9   8.682147   2.908727  22.522169 # st  
   523      9  -5.151643  18.541957  17.828669 # st  
   524      9   4.822947   5.225567   7.719589 # st  
   525      9   9.660227   4.431657   0.953249 # st  
   526      9  -0.292903  17.259257  24.675269 # st  
   527      9   6.894247   2.376137  16.042769 # st  
   528      9   7.859697   1.160787   9.824269 # st  
   529      9   8.024117   5.778547   3.026099 # st  
   530      9  10.355907   0.245968  22.422369 # st  
   531      9   4.819017   3.457797  17.987569 # st  
   532      9   6.402757   2.676647   7.643869 # st  
   533      1  10.077247   2.627507   6.343909 # cah 
   534      1   8.256447   2.934617  19.392969 # cah 
   535      1   7.002257   0.084652  21.352469 # cah 
   536      1   4.313847   5.509827   4.186359 # cah 
   537      1   6.591517   2.392977   4.537389 # cah 
   538      1   5.128977   2.890167  21.490769 # cah 
   539      1  10.295107   0.123751  19.481769 # cah 
   540      1   8.183457   5.578627   6.628479 # cah 
   541      1   7.373597   0.172814  13.526769 # cah 
   542      6   9.788227   3.214887   1.911829 # ob  
   543      6  -0.024872  15.974857  23.878869 # ob  
   544      6   7.036947   0.902058  16.668469 # ob  
   545      6   8.569687   0.019809   8.898879 # ob  
   546      6  10.813907   0.994255   2.724379 # ob  
   547      6   9.472247   1.496617  22.876469 # ob  
   548      6  -4.278783  17.207857  17.617469 # ob  
   549      6   5.585947   3.903507   8.140769 # ob  
   550      6  11.026107   3.192337   4.163969 # ob  
   551      6   1.355007  16.376257  21.860569 # ob  
   552      6   7.773007   0.663344  19.050369 # ob  
   553      6   9.926377   0.236011   6.772119 # ob  
   554      6   8.817807   1.916017   3.996869 # ob  
   555      6   7.389387   2.503267  21.799069 # ob  
   556      6  -6.583483  18.211457  18.282069 # ob  
   557      6   3.427377   4.909047   6.946849 # ob  
   558      8  -1.042423  16.944757  26.060869 # oh  
   559      8   8.936317   4.054687  56.330869 # oh  
   560      6   7.194957   0.589296  11.091769 # ob  
   561      6   6.885287   2.386897  14.540769 # ob  
   562      6   8.805307   5.510307   1.733379 # ob  
   563      6  -1.191163  18.232557  23.743469 # ob  
   564      6   5.678177   2.952027  16.816969 # ob  
   565      6   6.847037   1.818617   8.851239 # ob  
   566      6   7.016787   4.638067   3.242059 # ob  
   567      6  -2.748153  17.858457  21.758869 # ob  
   568      6   3.769767   2.345417  18.264969 # ob  
   569      6   5.503347   1.968447   6.585259 # ob  
   570      6  12.930807   0.292831   3.853019 # ob  
   571      6  11.504407   0.773990  21.320569 # ob  
   572      6  -2.300823  16.330657  18.983069 # ob  
   573      6   7.730377   3.211007   6.903429 # ob  
   574      8   3.058997   4.401847   0.226049 # oh  
   575      4   3.919417   4.686257   0.725859 # ho  
   576      8  -7.049963  17.628757  25.557769 # oh  
   577      4  -6.687843  18.583457  25.345669 # ho  
   578      8   8.221407   3.118147  16.667369 # oh  
   579      4   9.114707   2.843027  16.214669 # ho  
   580      8   9.033347   2.165497  10.154269 # oh  
   581      4   9.837617   1.749177  10.642369 # ho  
   582      5   6.027897   1.546597  56.058669 # o*  
   583      3   5.209327   1.396827  55.520469 # h*  
   584      3   6.231927   2.548547  55.983069 # h*  
   585      5   4.560297   3.607927  24.133369 # o*  
   586      3   4.678497   4.426697  23.514769 # h*  
   587      3   3.989807   3.986087  24.886669 # h*  
   588      5  -1.534223  18.390157  16.770969 # o*  
   589      3  -1.477093  17.447657  16.325869 # h*  
   590      3  -0.679518  18.424257  17.332069 # h*  
   591      5   8.233797   4.800777   9.370169 # o*  
   592      3   8.698227   5.438257  10.033669 # h*  
   593      3   8.744757   3.925667   9.529869 # h*  
   594      5   5.793947   4.394557  10.948069 # o*  
   595      3   5.620737   5.362447  10.784569 # h*  
   596      3   6.076347   4.035717   9.994069 # h*  
   597      5   9.460457   0.932372  14.728969 # o*  
   598      3   9.747567   0.432440  15.560669 # h*  
   599      3  10.367507   1.189917  14.310669 # h*  
   600      5  10.163307   4.097147  14.711269 # o*  
   601      3   3.359037   1.381037  13.220669 # h*  
   602      3   3.425387   0.942974  14.793269 # h*  
   603      5  -1.633163  17.613457  11.324169 # o*  
   604      3  -2.386273  17.581557  10.675569 # h*  
   605      3  -1.989413  17.085357  12.121869 # h*  
   606      5   5.033707   1.472837  12.580969 # o*  
   607      3   5.485627   1.942717  13.365169 # h*  
   608      3   5.706867   1.426037  11.830569 # h*  
   609      4  -1.932963  17.448457  26.219369 # ho  
   610      4   9.087337   3.117587  55.919569 # ho  
   611      9   6.230077   8.493187   3.296989 # st  
   612      9   4.656217   9.238167  22.687869 # st  
   613      9   3.157427   5.990637  18.103869 # st  
   614      9   0.839135  11.563057   7.621769 # st  
   615      9   5.216797  10.434457   1.004539 # st  
   616      9   8.462647   5.318287  24.396369 # st  
   617      9   2.800547   8.343947  16.175069 # st  
   618      9   4.162367   7.402617   9.778569 # st  
   619      9   3.640777  12.100057   3.170509 # st  
   620      9   6.255777   6.453817  22.644369 # st  
   621      9   0.717243   9.751847  17.954069 # st  
   622      9   2.346227   8.927967   7.643959 # st  
   623      1   5.844077   8.666047   6.616509 # cah 
   624      1   4.130097   9.357237  19.483969 # cah 
   625      1   2.946707   5.878637  21.517169 # cah 
   626      1   0.197114  11.620657   4.318179 # cah 
   627      1   2.593227   8.739657   4.172569 # cah 
   628      1   1.045994   9.415947  21.578669 # cah 
   629      1   6.403547   6.285057  19.197269 # cah 
   630      1   3.996337  11.679257   6.516499 # cah 
   631      1   2.875977   6.137057  12.997669 # cah 
   632      6   5.813097   9.383377   2.131639 # ob  
   633      6   8.638417   3.808667  23.810569 # ob  
   634      6   2.930197   6.981867  16.977069 # ob  
   635      6   4.442697   6.085597   8.961339 # ob  
   636      6   7.190757   7.273867   2.837389 # ob  
   637      6   5.524317   7.918047  22.867269 # ob  
   638      6   3.972847   4.741847  17.588169 # ob  
   639      6   1.616797  10.232557   8.115129 # ob  
   640      6   7.097267   9.486067   4.208629 # ob  
   641      6   9.519047   3.599617  21.345869 # ob  
   642      6   4.093027   6.663977  19.221569 # ob  
   643      6   5.726287   6.084677   6.778819 # ob  
   644      6   5.009007   7.869647   4.122509 # ob  
   645      6   3.341277   8.750017  22.015669 # ob  
   646      6   1.822357   5.590047  18.784269 # ob  
   647      6  -0.310187  11.089857   6.685789 # ob  
   648      8   8.587887   5.267747  25.939169 # oh  
   649      8   4.347387   9.680347  56.655369 # oh  
   650      6   3.857087   7.306017  11.194869 # ob  
   651      6   2.555037   8.051967  14.634469 # ob  
   652      6   4.355467  11.431957   1.888839 # ob  
   653      6   7.128827   5.893017  23.849569 # ob  
   654      6   1.517367   9.015447  16.800969 # ob  
   655      6   3.011547   8.229397   8.995089 # ob  
   656      6   2.615157  11.006157   3.791369 # ob  
   657      6   5.166987   5.435587  22.199569 # ob  
   658      6  -0.261172   8.732297  18.571069 # ob  
   659      6   1.292027   7.960387   7.063509 # ob  
   660      6   8.920497   5.912847   4.278859 # ob  
   661      6   7.239257   6.586587  21.420369 # ob  
   662      6   5.805887   3.715707  19.112369 # ob  
   663      6   3.462137   9.302337   6.729009 # ob  
   664      8   4.061497   9.151527  16.381569 # oh  
   665      4   4.921007   8.937877  15.847569 # ho  
   666      8   5.483257   8.311297   9.415269 # oh  
   667      4   6.296657   8.087967  10.056369 # ho  
   668      5   2.130797   8.289997   1.587609 # o*  
   669      3   2.927777   8.233137   0.950759 # h*  
   670      3   1.329627   8.669027   1.115209 # h*  
   671      5   0.898488   9.639077  24.132469 # o*  
   672      3   0.374308   9.822477  24.972869 # h*  
   673      3   1.524617  10.445457  24.022069 # h*  
   674      5   6.558217   6.424817  16.615969 # o*  
   675      3   7.291447   6.098147  16.045369 # h*  
   676      3   6.763077   7.411077  16.801869 # h*  
   677      5   6.043467  10.738457  10.628669 # o*  
   678      3   5.648617   9.908747  10.197069 # h*  
   679      3   6.828807  11.088257  10.092969 # h*  
   680      5   0.909172   8.435367  10.882569 # o*  
   681      3   1.590117   8.597347  10.133269 # h*  
   682      3   0.725922   7.442147  10.771869 # h*  
   683      5   5.215077   5.876027  14.199269 # o*  
   684      3   5.231927   5.987467  15.206969 # h*  
   685      3   6.112307   5.586947  13.825269 # h*  
   686      5   6.176127   8.665467  14.843669 # o*  
   687      3  -1.092623   9.355997  13.147169 # h*  
   688      3  -2.367383   8.823617  12.212569 # h*  
   689      5   7.466607   4.739657  13.173769 # o*  
   690      3   7.758167   3.852807  13.583069 # h*  
   691      3   6.966197   4.487647  12.339569 # h*  
   692      5   0.584276   9.223407  13.461969 # o*  
   693      3   1.352737   8.715227  13.976469 # h*  
   694      3   0.731151   8.850077  12.515569 # h*  
   695      4   7.922487   4.620107  26.469869 # ho  
   696      4   3.700397  10.252157  56.003969 # ho  
   697      9   2.052297  14.725057   2.992349 # st  
   698      9   0.495210  15.293557  22.558969 # st  
   699      9  -0.832093  12.350957  17.939969 # st  
   700      9  -3.234993  17.918657   7.566039 # st  
   701      9  -1.623813  14.634857  15.979669 # st  
   702      9  -0.268862  13.502857   9.792369 # st  
   703      9  -0.474640  18.417057   3.063259 # st  
   704      9   2.208197  12.782257  22.568369 # st  
   705      9  -3.453103  15.938857  18.038569 # st  
   706      9  -1.411323  15.285357   7.559409 # st  
   707      1   1.980637  15.106657   6.347449 # cah 
   708      1   0.020019  15.639657  19.255269 # cah 
   709      1  -1.189473  12.534957  21.238169 # cah 
   710      1  -3.782623  18.232357   4.580999 # cah 
   711      1  -1.545043  15.067257   4.238509 # cah 
   712      1  -3.055523  15.319157  21.584169 # cah 
   713      1   2.293817  12.649957  19.426369 # cah 
   714      1   0.092096  18.359557   6.353199 # cah 
   715      1  -1.751573  12.218857  13.099569 # cah 
   716      8   1.701477  15.558957   1.646109 # oh  
   717      8   4.464207   9.918167  24.134969 # oh  
   718      6  -1.263993  13.405757  16.816869 # ob  
   719      6   0.264754  12.393357   8.820439 # ob  
   720      6   2.744027  13.360157   2.619939 # ob  
   721      6   1.333607  14.010957  22.921669 # ob  
   722      6  -0.006308  11.059857  17.353869 # ob  
   723      6  -2.465423  16.531957   7.936199 # ob  
   724      6   3.043837  15.604657   3.804239 # ob  
   725      6   5.272607  10.199457  21.619569 # ob  
   726      6   0.044813  13.075057  18.955769 # ob  
   727      6   1.765347  12.536457   6.832739 # ob  
   728      6   0.785656  14.437957   3.802679 # ob  
   729      6  -0.557221  14.830757  21.484069 # ob  
   730      6  -2.045993  11.786357  18.775869 # ob  
   731      6  -4.513153  17.632557   6.801349 # ob  
   732      6  -1.311733  12.952657  10.776269 # ob  
   733      6  -1.906693  14.481557  14.490269 # ob  
   734      8  -0.069206  17.633057   1.687959 # oh  
   735      8   2.576707  11.944657  23.941369 # oh  
   736      6  -2.860553  15.327957  16.722469 # ob  
   737      6  -0.905243  14.616257   8.905599 # ob  
   738      6  -1.314853  17.437157   4.011329 # ob  
   739      6   1.369467  11.860357  21.686869 # ob  
   740      6  -4.332003  14.920057  18.825069 # ob  
   741      6  -2.261563  14.381257   6.616249 # ob  
   742      6   4.598917  12.631657   4.237969 # ob  
   743      6   3.527277  13.161357  21.798069 # ob  
   744      6   1.678297  10.262457  19.039869 # ob  
   745      6  -0.204848  15.845857   6.793179 # ob  
   746      8  -4.954523  17.994957   0.797499 # oh  
   747      4   6.803357   0.192631   0.363519 # ho  
   748      8  -1.977283  12.333957  24.857069 # oh  
   749      4  -1.790723  12.467057  25.852969 # ho  
   750      8  -0.419561  15.717457  16.136469 # oh  
   751      4   0.016142  16.022657  15.246169 # ho  
   752      8   0.854614  14.235357  10.644069 # oh  
   753      4   1.649987  13.816157  11.150069 # ho  
   754      5  -2.664573  15.661857  55.272569 # o*  
   755      3  -2.110683  14.881257  55.618969 # h*  
   756      3  -3.568593  15.243157  55.108169 # h*  
   757      5  -3.294183  14.811457  24.049769 # o*  
   758      3  -3.877033  15.171957  24.811169 # h*  
   759      3  -2.784343  14.038657  24.447269 # h*  
   760      5   1.455927  14.127957  14.432969 # o*  
   761      3   1.038392  13.240257  14.615069 # h*  
   762      3   2.433517  13.837157  14.480569 # h*  
   763      5   0.960143  16.815057  10.478769 # o*  
   764      3   0.066838  17.271157  10.299469 # h*  
   765      3   0.767918  15.818257  10.369969 # h*  
   766      5  -3.715063  13.970257  11.732869 # o*  
   767      3  -2.860833  13.794357  11.174769 # h*  
   768      3  -4.445123  14.208757  11.028169 # h*  
   769      5   0.242824  11.540957  14.525669 # o*  
   770      3   0.135173  11.395857  15.552869 # h*  
   771      3   0.504428  10.587257  14.181169 # h*  
   772      5  -0.115358  16.106257  13.510569 # o*  
   773      3  -4.740473  14.195957  12.972669 # h*  
   774      3  -6.382103  14.401257  12.559069 # h*  
   775      5   4.159307   9.207587  12.946769 # o*  
   776      3   4.094917   8.495557  12.190369 # h*  
   777      3   3.527857   9.008917  13.728869 # h*  
   778      5  -3.209033  16.344257  13.045369 # o*  
   779      3  -2.954283  15.631857  13.748769 # h*  
   780      3  -3.502083  15.786757  12.278169 # h*  
   781      4  11.553307   9.807137  24.437269 # ho  
   782      4   9.580177  11.203057  23.655169 # ho  
   783      4   2.001137   3.917377  24.287069 # ho  
   784      4   0.321997   4.921947  23.751069 # ho  
   785      4   3.903457  10.787857  24.269769 # ho  
   786      4   2.636947  12.575857  24.771069 # ho  
   787      4   8.258947  16.342257   1.697519 # ho  
   788      4   7.437077  18.437357   1.278029 # ho  
   789      4  -1.847843  10.010157   1.886819 # ho  
   790      4  -3.446213  11.206357   0.999709 # ho  
   791      4   0.934988  16.305957   1.601389 # ho  
   792      4  -0.786533  17.377757   1.013799 # ho  
   793      3   5.608877  11.732857  52.978169 # h*  
   794      3   5.849867  10.142657  52.575469 # h*  
   795      5   5.434387  10.773057  53.271469 # o*  
   796      3   3.801597  14.118157  42.502369 # h*  
   797      3   2.231207  14.244057  42.703869 # h*  
   798      5   2.951687  13.827657  42.045869 # o*  
   799      3   8.041837   2.000027  50.503769 # h*  
   800      3   7.053417   1.665287  49.231669 # h*  
   801      5   7.512867   1.255457  50.022069 # o*  
   802      3   2.017347  12.172857  33.832369 # h*  
   803      3   3.059267  13.329657  34.405969 # h*  
   804      5   2.904337  12.357757  34.235069 # o*  
   805      3  -0.255909  12.657957  45.059669 # h*  
   806      3   1.010476  13.213157  44.168469 # h*  
   807      5   0.236305  12.542757  44.215069 # o*  
   808      3   2.468927  17.021857  24.415869 # h*  
   809      3   3.040107  15.503757  24.333369 # h*  
   810      5   3.185107  16.444257  24.002369 # o*  
   811      3  11.679507  12.079157  36.224869 # h*  
   812      3  10.907807  12.929357  35.010369 # h*  
   813      5  11.859307  12.660757  35.379769 # o*  
   814      3  15.143807   3.392117  31.342169 # h*  
   815      3  14.081707   4.287177  30.599269 # h*  
   816      5  14.583507   4.248097  31.480469 # o*  
   817      3  -3.652373  11.631157  48.845069 # h*  
   818      3  -2.323603  12.420257  49.385669 # h*  
   819      5  -3.071433  12.455757  48.688469 # o*  
   820      3   7.806717   4.995547  55.415369 # h*  
   821      3   6.672297   6.021537  55.201269 # h*  
   822      5   7.131967   5.276937  54.721269 # o*  
   823      3   0.060300   9.693317  55.603369 # h*  
   824      3  -0.273162   9.899547   0.514379 # h*  
   825      5   0.412719  10.019957  56.505269 # o*  
   826      3   8.815557   2.953657  39.742069 # h*  
   827      3   7.322567   2.658967  39.648669 # h*  
   828      5   8.079007   2.578517  40.327169 # o*  
   829      3  -2.026573   4.656587  24.851069 # h*  
   830      3  17.222107   4.407597  25.168669 # h*  
   831      5  -2.576693   3.943537  25.317569 # o*  
   832      3   2.818877  16.502757  40.420469 # h*  
   833      3   2.364467  18.004757  40.342769 # h*  
   834      5   3.145137  17.452857  40.666169 # o*  
   835      3  -1.974243   5.028507  27.639269 # h*  
   836      3  -2.593843   5.728487  28.970469 # h*  
   837      5  -2.564603   4.865777  28.432069 # o*  
   838      3  12.591707   7.381947  39.010869 # h*  
   839      3  12.582707   6.418287  40.278169 # h*  
   840      5  11.995107   7.058767  39.739769 # o*  
   841      3   7.231537   0.001930  53.466669 # h*  
   842      3   6.608817   1.347667  53.272969 # h*  
   843      5   6.369867   0.378657  53.156569 # o*  
   844      3  -1.175343   5.130667  43.358369 # h*  
   845      3  -0.029592   6.063147  42.779169 # h*  
   846      5  -0.939733   5.704787  42.566569 # o*  
   847      3  -0.844323   5.711347  49.992669 # h*  
   848      3  -1.588973   4.509267  50.932069 # h*  
   849      5  -1.292133   5.517297  50.871369 # o*  
   850      3   3.131467   9.728027  42.599769 # h*  
   851      3   4.011967   8.323187  42.751969 # h*  
   852      5   3.278097   8.907157  43.166369 # o*  
   853      3  -8.586803  18.507457  37.712269 # h*  
   854      3   4.294317   1.239737  37.255269 # h*  
   855      5   3.566447   0.563288  37.013769 # o*  
   856      3   8.907797  13.772357  31.778869 # h*  
   857      3   8.886087  13.727457  33.509969 # h*  
   858      5   8.591677  13.366357  32.621269 # o*  
   859      3  -5.624273   9.963387  49.034869 # h*  
   860      3  -5.315193  10.771857  50.430769 # h*  
   861      5  -4.857903  10.365857  49.586069 # o*  
   862      3   3.687087   0.166537  45.298869 # h*  
   863      3  -8.057833  17.678657  44.185769 # h*  
   864      5  -7.873003  18.612757  44.528169 # o*  
   865      3   3.313417   2.794897  34.350669 # h*  
   866      3   3.563757   4.390177  34.538469 # h*  
   867      5   2.861327   3.672877  34.474569 # o*  
   868      3   5.577617  12.563357  43.180969 # h*  
   869      3   5.979147  11.006657  42.939869 # h*  
   870      5   5.920917  11.903657  42.404469 # o*  
   871      3  -7.274693  11.960357  45.437069 # h*  
   872      3  -6.013133  11.635957  46.206069 # h*  
   873      5  -6.994073  11.454657  46.272569 # o*  
   874      3  -1.251633  12.933657  51.956969 # h*  
   875      3  -2.418493  13.807757  52.677669 # h*  
   876      5  -1.472913  13.405657  52.825269 # o*  
   877      3   3.597307   0.225801  32.049169 # h*  
   878      3   2.649567   1.193727  31.314869 # h*  
   879      5   3.457807   0.635971  31.136369 # o*  
   880      3  13.181007   9.994247  29.704869 # h*  
   881      3  12.118407  10.444257  28.608869 # h*  
   882      5  12.819807   9.716497  28.807769 # o*  
   883      3   2.219657  12.614757  50.422269 # h*  
   884      3   2.382297  13.074857  52.069769 # h*  
   885      5   2.629817  13.264057  51.099569 # o*  
   886      3  11.677907  12.612357  52.845769 # h*  
   887      3  -8.195453  12.809457  54.226869 # h*  
   888      5  -8.115033  12.367357  53.278469 # o*  
   889      3   5.524307   1.145717  44.641369 # h*  
   890      3   7.028427   1.615527  44.357769 # h*  
   891      5   6.245247   1.786337  44.989769 # o*  
   892      3  -8.343563  14.498057  26.581669 # h*  
   893      3  -8.287693  13.069157  27.194569 # h*  
   894      5  -7.712233  13.866657  27.063569 # o*  
   895      3  11.891007   8.865927  35.150669 # h*  
   896      3  11.252607   8.597587  33.693769 # h*  
   897      5  11.106107   9.140467  34.555369 # o*  
   898      3  -0.997573   9.188717  39.640069 # h*  
   899      3   0.331528   9.448527  40.602269 # h*  
   900      5  -0.013624   8.927547  39.794769 # o*  
   901      3   1.448857   5.301197  45.336769 # h*  
   902      3   1.303047   3.682047  45.056969 # h*  
   903      5   0.947692   4.451077  45.633469 # o*  
   904      3  13.589407   0.999211  32.390069 # h*  
   905      3  14.698607   1.188987  33.555569 # h*  
   906      5  13.739707   1.398447  33.316569 # o*  
   907      3  14.604507   2.737397  35.817969 # h*  
   908      3  15.336707   1.514457  36.695469 # h*  
   909      5  15.434207   2.175607  35.912969 # o*  
   910      3  -4.827383  11.679457  43.149969 # h*  
   911      3  -4.511193  13.165157  43.817669 # h*  
   912      5  -4.090743  12.279057  43.528669 # o*  
   913      3   8.477807  10.187557  55.409969 # h*  
   914      3   8.521347   8.659687  54.761269 # h*  
   915      5   8.066147   9.254207  55.474169 # o*  
   916      3   9.574177   1.127577  30.919469 # h*  
   917      3  -3.298043  18.351657  31.354869 # h*  
   918      5   8.960047   0.383310  30.594469 # o*  
   919      3  -4.051713   9.851327  32.349969 # h*  
   920      3  -4.795953   9.274917  31.168669 # h*  
   921      5  -3.881743   9.244407  31.572469 # o*  
   922      3   4.578777   2.775167  51.237969 # h*  
   923      3   5.198047   3.900747  50.283569 # h*  
   924      5   5.082827   3.672237  51.236569 # o*  
   925      3  13.255907   2.378457   0.341919 # h*  
   926      3  13.085707   3.245917  55.790169 # h*  
   927      5  12.521707   2.883277  56.552869 # o*  
   928      3   5.709657  14.663657  39.630169 # h*  
   929      3   6.421357  15.265457  38.504169 # h*  
   930      5   5.974257  14.372857  38.690069 # o*  
   931      3   0.114624  18.251557  38.814069 # h*  
   932      3  -0.080378  16.867557  39.432469 # h*  
   933      5   0.527056  17.650557  39.547669 # o*  
   934      3  -4.927673  15.447457  37.998669 # h*  
   935      3  -3.489203  15.961457  37.518669 # h*  
   936      5  -3.939923  15.179857  38.035869 # o*  
   937      3   0.787482  15.489257  43.273069 # h*  
   938      3   1.572987  15.787157  44.683469 # h*  
   939      5   1.444027  15.076857  43.950569 # o*  
   940      3  13.690807   6.633037  42.829869 # h*  
   941      3  12.921307   7.802067  43.695869 # h*  
   942      5  12.874907   6.808977  43.446869 # o*  
   943      3  14.234007   2.006907  26.315969 # h*  
   944      3  13.562807   1.268987  27.611469 # h*  
   945      5  13.723307   1.199777  26.595369 # o*  
   946      3   5.788397   5.724347   0.799489 # h*  
   947      3   5.964867   4.879367   2.189909 # h*  
   948      5   5.299007   5.079547   1.435949 # o*  
   949      3  -2.211343  12.603557  54.074669 # h*  
   950      3  -2.281073  12.214257  55.629269 # h*  
   951      5  -2.623013  11.927157  54.722669 # o*  
   952      3  -1.929753  13.772957  34.131169 # h*  
   953      3  -3.168743  14.602757  34.174169 # h*  
   954      5  -2.187083  14.718857  34.412769 # o*  
   955      3  16.259407   0.077677  41.240069 # h*  
   956      3  16.586207   1.114067  42.376769 # h*  
   957      5  16.777007   0.960191  41.367369 # o*  
   958      3  -0.030009  11.737357  50.077069 # h*  
   959      3  -1.385453  11.088357  50.698769 # h*  
   960      5  -0.965553  11.974657  50.429269 # o*  
   961      3   1.501867  15.220057  56.636369 # h*  
   962      3   2.430357  15.318357  55.366369 # h*  
   963      5   1.503677  14.979057  55.649569 # o*  
   964      3   0.093286  16.696157  41.431269 # h*  
   965      3  -1.174993  16.557857  42.070669 # h*  
   966      5  -0.230398  16.261657  42.272369 # o*  
   967      3  -0.122496   1.875287  30.779569 # h*  
   968      3  19.413107   1.878247  29.589669 # h*  
   969      5  19.561207   1.610907  30.591169 # o*  
   970      3   0.971556   7.593797  38.982969 # h*  
   971      3   1.153857   5.991907  38.512869 # h*  
   972      5   1.599137   6.894927  38.556069 # o*  
   973      3   5.015627   7.753977  49.793269 # h*  
   974      3   6.065177   8.573167  48.894069 # h*  
   975      5   5.898827   7.663827  49.338469 # o*  
   976      3   7.986047   9.769327  30.492369 # h*  
   977      3   7.452207  10.076357  28.992069 # h*  
   978      5   7.142217   9.851427  29.929469 # o*  
   979      3  -9.385813  15.655357  44.777169 # h*  
   980      3  -8.055943  15.678257  43.840769 # h*  
   981      5  -8.942183  16.122057  43.972069 # o*  
   982      3  12.595307  10.036257  45.406769 # h*  
   983      3  11.513107   9.189347  44.644969 # h*  
   984      5  12.438207   9.548647  44.538769 # o*  
   985      3  -3.305113   9.698717  27.503969 # h*  
   986      3  -2.955173   8.446167  28.454669 # h*  
   987      5  -2.599033   9.001157  27.717869 # o*  
   988      3  -1.537223   9.080467  35.085169 # h*  
   989      3  -0.082556   8.407547  34.905569 # h*  
   990      5  -1.080263   8.166697  35.000469 # o*  
   991      3   0.554609  15.427457  54.382569 # h*  
   992      3   0.069044  15.080357  52.789469 # h*  
   993      5   0.350416  15.806757  53.443569 # o*  
   994      3   3.417997   2.139447  39.998469 # h*  
   995      3   2.249427   2.444557  38.939069 # h*  
   996      5   2.429207   2.064247  39.894569 # o*  
   997      3   5.998427  11.734757  33.626269 # h*  
   998      3   7.176237  12.257457  32.769569 # h*  
   999      5   6.172817  12.285557  32.784669 # o*  
  1000      3   5.321837  10.831457  48.772869 # h*  
  1001      3   4.945177  10.101157  47.442469 # h*  
  1002      5   5.652977  10.082857  48.183469 # o*  
  1003      3  -9.158203  15.638657  31.594569 # h*  
  1004      3  -8.973163  14.907757  33.011169 # h*  
  1005      5  -9.680733  15.116157  32.295769 # o*  
  1006      3  -1.182073  12.598057  42.128069 # h*  
  1007      3  -2.681563  12.132557  42.427769 # h*  
  1008      5  -1.862243  11.944457  41.814569 # o*  
  1009      3  -1.211033  12.674057  37.590769 # h*  
  1010      3  -0.009108  13.048457  36.615169 # h*  
  1011      5  -0.434760  12.226457  37.062269 # o*  
  1012      3   6.601437  16.906557  52.546869 # h*  
  1013      3   7.787387  15.829057  52.590869 # h*  
  1014      5   6.934457  16.101057  53.063869 # o*  
  1015      3  -3.407613  12.090857  38.699669 # h*  
  1016      3  -3.255163  13.717857  38.359369 # h*  
  1017      5  -2.728793  12.843657  38.510469 # o*  
  1018      3   3.188807   4.556757  32.627569 # h*  
  1019      3   2.391897   5.718397  32.172969 # h*  
  1020      5   2.692257   4.801207  31.806469 # o*  
  1021      3   6.048177   7.227607  45.990469 # h*  
  1022      3   5.442907   5.878897  45.350369 # h*  
  1023      5   5.208187   6.809597  45.689069 # o*  
  1024      3   1.906777   0.517398  36.518669 # h*  
  1025      3 -11.493393  18.030057  36.362869 # h*  
  1026      5   0.899742   0.389984  36.471869 # o*  
  1027      3  11.253407   6.439367  56.599069 # h*  
  1028      3  10.794807   7.029187  55.132069 # h*  
  1029      5  11.057507   7.316717  56.087869 # o*  
  1030      3   1.926287  15.477057  31.671069 # h*  
  1031      3   2.654697  16.866957  31.805069 # h*  
  1032      5   2.133667  16.205557  32.384569 # o*  
  1033      3  -2.679003  10.613957  46.166869 # h*  
  1034      3  -3.460613  11.260357  44.951669 # h*  
  1035      5  -3.624853  10.767657  45.814469 # o*  
  1036      3  -2.193103   8.652157  41.493669 # h*  
  1037      3  -1.658973   7.697207  42.723569 # h*  
  1038      5  -2.331743   8.433707  42.478269 # o*  
  1039      3  13.802107   9.185487  52.351569 # h*  
  1040      3  12.881007   8.661367  53.488969 # h*  
  1041      5  13.604207   8.331007  52.858969 # o*  
  1042      3   2.006167   6.841547  52.460669 # h*  
  1043      3   1.806747   5.325307  51.900769 # h*  
  1044      5   1.736717   5.915887  52.702769 # o*  
  1045      3   6.578517  15.724657  28.911569 # h*  
  1046      3   5.985687  15.007157  30.254769 # h*  
  1047      5   6.086687  14.903857  29.251869 # o*  
  1048      3  10.713507   2.457137  50.533369 # h*  
  1049      3  12.171707   1.574537  50.504969 # h*  
  1050      5  11.650207   2.365117  50.132569 # o*  
  1051      3   5.142607   6.815677  27.782169 # h*  
  1052      3   5.845687   6.848257  26.386669 # h*  
  1053      5   5.391337   6.194797  27.020469 # o*  
  1054      3  11.889707   5.312217  42.585469 # h*  
  1055      3  11.076507   5.097847  41.178369 # h*  
  1056      5  11.404207   4.657607  42.000869 # o*  
  1057      3   6.727037  18.558857  31.115069 # h*  
  1058      3   6.460697  17.922057  29.803269 # h*  
  1059      5   6.287727  17.710157  30.779969 # o*  
  1060      3   2.622817   4.862107  49.787769 # h*  
  1061      3   2.916847   6.429977  49.991169 # h*  
  1062      5   2.849357   5.687207  49.261769 # o*  
  1063      3  -1.046943   6.824987  34.071169 # h*  
  1064      3  -1.649903   5.845727  32.903469 # h*  
  1065      5  -0.790033   6.162377  33.345269 # o*  
  1066      3  14.122807   1.558957  52.123969 # h*  
  1067      3  15.109107   2.831617  51.690469 # h*  
  1068      5  14.911907   2.139787  52.399169 # o*  
  1069      3   6.723367   2.009027  26.165969 # h*  
  1070      3   5.711777   2.478237  25.038169 # h*  
  1071      5   6.163667   1.670487  25.407069 # o*  
  1072      3  14.179707   4.658537  54.019169 # h*  
  1073      3  14.451107   3.169767  53.975869 # h*  
  1074      5  14.081907   3.855937  54.602369 # o*  
  1075      3   5.355767   6.724727  32.699669 # h*  
  1076      3   4.832257   8.215157  32.774469 # h*  
  1077      5   4.505967   7.271987  32.933869 # o*  
  1078      3  -6.664743  16.808557  50.466969 # h*  
  1079      3  -6.796143  17.661657  51.910669 # h*  
  1080      5  -7.296703  17.167957  51.192869 # o*  
  1081      3   3.898187  17.508557  50.060669 # h*  
  1082      3   3.657727  17.782257  51.640469 # h*  
  1083      5   3.172457  17.788757  50.749469 # o*  
  1084      3   9.773157   9.448047  42.925469 # h*  
  1085      3   9.117997  10.183957  41.592069 # h*  
  1086      5   9.899087   9.664277  41.937969 # o*  
  1087      3  15.711707   7.617597  47.529769 # h*  
  1088      3  -4.177603   8.675027  48.497269 # h*  
  1089      5  -4.047543   7.877397  47.936069 # o*  
  1090      3   8.099907   6.173887  39.614069 # h*  
  1091      3   8.441827   6.656147  38.030469 # h*  
  1092      5   7.851477   6.097497  38.625569 # o*  
  1093      3   3.914117   0.168714  54.680369 # h*  
  1094      3  -6.869233  18.345157  54.103669 # h*  
  1095      5  -7.646893  18.045057  54.671669 # o*  
  1096      3  -2.488973  12.516957  32.295569 # h*  
  1097      3  -0.898833  12.093857  32.433169 # h*  
  1098      5  -1.672123  12.579757  32.928969 # o*  
  1099      3   7.252417   3.775897  41.438269 # h*  
  1100      3   6.674627   4.481167  42.883269 # h*  
  1101      5   6.477037   4.302937  41.886169 # o*  
  1102      3   9.242907  13.100857  38.576269 # h*  
  1103      3   8.358387  14.268557  37.964969 # h*  
  1104      5   9.288167  14.020057  38.117669 # o*  
  1105      3  11.399207   7.828397  31.214069 # h*  
  1106      3  12.083807   7.139197  32.594369 # h*  
  1107      5  11.334407   7.776707  32.235969 # o*  
  1108      3  17.002807   3.686597  27.874369 # h*  
  1109      3  17.204607   2.120457  27.431369 # h*  
  1110      5  16.563107   2.753457  27.887569 # o*  
  1111      3   0.604965   3.591917  50.630569 # h*  
  1112      3   1.963427   2.965977  51.166369 # h*  
  1113      5   1.565107   3.823547  50.848069 # o*  
  1114      3   5.648367  12.662457  39.216969 # h*  
  1115      3   5.501087  11.946357  40.685769 # h*  
  1116      5   5.205567  11.874157  39.684969 # o*  
  1117      3  -8.866343  16.792657  54.991869 # h*  
  1118      3  -9.748333  15.441257  55.229769 # h*  
  1119      5  -9.750373  16.344557  54.762869 # o*  
  1120      3   0.311959   2.010297  43.863669 # h*  
  1121      3   1.143986   2.440537  42.670369 # h*  
  1122      5   1.289677   2.003977  43.558169 # o*  
  1123      3   2.533947  13.858557  30.617369 # h*  
  1124      3   3.435657  12.537357  30.643369 # h*  
  1125      5   2.593677  12.954757  31.070769 # o*  
  1126      3   0.525743   8.650647  43.077569 # h*  
  1127      3   1.896667   7.802207  43.567869 # h*  
  1128      5   0.897189   7.825957  43.523969 # o*  
  1129      3  -1.377853   9.362437  53.860769 # h*  
  1130      3  -2.175603  10.379357  54.847169 # h*  
  1131      5  -1.693873   9.468887  54.811769 # o*  
  1132      3   5.021747   7.845847  38.395369 # h*  
  1133      3   6.212407   6.875997  38.777569 # h*  
  1134      5   5.707337   7.689797  39.145669 # o*  
  1135      3  11.617707   9.931187  41.194569 # h*  
  1136      3  11.939507   8.770497  40.296169 # h*  
  1137      5  12.190907   9.756197  40.375769 # o*  
  1138      3   9.845567   1.972137  38.294869 # h*  
  1139      3  11.182107   1.126247  38.190469 # h*  
  1140      5  10.177927   0.999591  38.215069 # o*  
  1141      3  -1.245153   8.159177  45.972869 # h*  
  1142      3   0.293439   8.351267  45.949269 # h*  
  1143      5  -0.452274   8.195647  46.601769 # o*  
  1144      3  -6.972313  13.693357  43.630969 # h*  
  1145      3  12.274207  12.858957  43.406369 # h*  
  1146      5  -7.534543  12.909557  43.947069 # o*  
  1147      3   0.896955  15.257057  36.003469 # h*  
  1148      3  -0.307740  14.549557  35.099769 # h*  
  1149      5   0.499293  14.372557  35.661969 # o*  
  1150      3   5.537017   1.231857  38.983569 # h*  
  1151      3   5.448577   2.762357  38.798569 # h*  
  1152      5   5.928567   1.943497  38.408569 # o*  
  1153      3   6.501477   8.842427  50.684769 # h*  
  1154      3   6.786937   8.271867  52.076469 # h*  
  1155      5   6.687537   9.186447  51.617769 # o*  
  1156      3  10.795407  12.641957  47.834169 # h*  
  1157      3  12.073007  12.011657  47.013569 # h*  
  1158      5  11.187507  11.797257  47.446369 # o*  
  1159      3   4.434197   7.400427  51.565469 # h*  
  1160      3   3.006707   8.309997  51.696369 # h*  
  1161      5   3.657147   7.810147  51.063669 # o*  
  1162      3   2.088817  17.277257  53.536369 # h*  
  1163      3   3.375947  16.453557  53.839569 # h*  
  1164      5   3.053447  17.423157  53.676769 # o*  
  1165      3   7.632937  13.866357  50.759269 # h*  
  1166      3   6.394427  12.941857  50.997869 # h*  
  1167      5   7.286597  13.171257  51.408769 # o*  
  1168      3  11.599807   8.237007  28.939869 # h*  
  1169      3  10.152497   7.746227  28.679969 # h*  
  1170      5  10.974507   7.499477  29.258369 # o*  
  1171      3   0.269338  13.013457  53.555469 # h*  
  1172      3   1.441847  13.540457  54.539969 # h*  
  1173      5   1.263867  13.008857  53.701969 # o*  
  1174      3  -7.514893  14.347457  46.624169 # h*  
  1175      3  -6.319703  14.783457  47.623569 # h*  
  1176      5  -6.563303  14.667257  46.662669 # o*  
  1177      3  17.805907   0.455049  33.179169 # h*  
  1178      3  18.674307   1.570657  32.312769 # h*  
  1179      5  17.779507   1.357987  32.754669 # o*  
  1180      3  -5.338143  10.636657  52.723569 # h*  
  1181      3  -6.518943  11.772257  52.528769 # h*  
  1182      5  -6.050023  10.990857  52.088569 # o*  
  1183      3  10.337807   7.102087  37.117169 # h*  
  1184      3  10.309807   6.313317  35.715669 # h*  
  1185      5  10.579007   6.207607  36.672269 # o*  
  1186      3   3.862957  14.722357  35.450069 # h*  
  1187      3   3.734207  16.254657  35.070269 # h*  
  1188      5   4.264947  15.402157  34.826869 # o*  
  1189      3   9.420087  14.956657  49.537369 # h*  
  1190      3   9.540507  15.789857  50.851969 # h*  
  1191      5   8.825487  15.498257  50.187369 # o*  
  1192      3  15.985907   7.041697  36.131369 # h*  
  1193      3  -3.240673   7.656647  36.113069 # h*  
  1194      5  -3.981753   7.476547  36.753969 # o*  
  1195      3  13.661407   4.994527  32.498069 # h*  
  1196      3  12.319207   4.809117  33.200969 # h*  
  1197      5  13.016507   5.520067  33.118969 # o*  
  1198      3  -7.452863  14.131957  30.260669 # h*  
  1199      3  -7.140073  13.149657  29.164269 # h*  
  1200      5  -7.181763  13.139157  30.165069 # o*  
  1201      3   0.294233  18.551157  34.791269 # h*  
  1202      3   0.744467  17.660357  35.983769 # h*  
  1203      5  -0.083499  18.005957  35.545769 # o*  
  1204      3   3.232337   9.533687  45.102869 # h*  
  1205      3   3.011657   8.630867  46.494469 # h*  
  1206      5   3.465347   9.447597  46.098869 # o*  
  1207      3  -1.254643   9.169357  29.309169 # h*  
  1208      3  -0.346149   8.678187  30.617369 # h*  
  1209      5  -0.411426   9.332387  29.838469 # o*  
  1210      3   7.401837  15.344057  26.279369 # h*  
  1211      3   8.836147  15.998257  26.848569 # h*  
  1212      5   8.131907  15.249557  26.953969 # o*  
  1213      3   8.279707  13.508457  41.485669 # h*  
  1214      3   7.460197  12.077057  41.578869 # h*  
  1215      5   8.376697  12.484157  41.383469 # o*  
  1216      3  15.201707   7.781897  27.748169 # h*  
  1217      3  15.155907   6.283217  28.240169 # h*  
  1218      5  15.585207   6.869297  27.561869 # o*  
  1219      3   7.071737  12.813257   0.243009 # h*  
  1220      3   7.595897  14.327157   0.603419 # h*  
  1221      5   7.604087  13.619057  56.623169 # o*  
  1222      3   5.777407  17.174457  32.345769 # h*  
  1223      3   4.940337  16.358557  33.428569 # h*  
  1224      5   5.509777  17.204157  33.310769 # o*  
  1225      3 -11.462793  17.592257  33.057469 # h*  
  1226      3   9.549527  16.105057  33.057769 # h*  
  1227      5   9.258157  16.824857  33.707169 # o*  
  1228      3  -1.381213   4.036417  47.194169 # h*  
  1229      3  -0.737591   2.644507  47.418169 # h*  
  1230      5  -1.617403   3.016947  47.111669 # o*  
  1231      3  10.438007  12.196957  28.885269 # h*  
  1232      3  10.414607  12.075857  27.342369 # h*  
  1233      5  10.835407  11.642057  28.147169 # o*  
  1234      3   9.078267  17.291057  49.201669 # h*  
  1235      3   0.675540   0.254476  48.729969 # h*  
  1236      5 -11.713193  17.935557  48.452469 # o*  
  1237      3  -7.470583  16.883057  48.582969 # h*  
  1238      3  -8.801433  17.159857  49.395369 # h*  
  1239      5  -8.519383  16.885157  48.461369 # o*  
  1240      3   8.815767   0.646793  25.131869 # h*  
  1241      3   8.183557   0.025734  26.404469 # h*  
  1242      5  -3.327533  18.465857  25.702169 # o*  
  1243      3   4.485957  16.471957  40.584869 # h*  
  1244      3   6.021897  16.225757  41.099169 # h*  
  1245      5   5.232507  15.772557  40.650869 # o*  
  1246      3   9.803867  11.603557  55.743069 # h*  
  1247      3   8.455917  12.568457  55.727869 # h*  
  1248      5   8.966427  11.806757  55.237269 # o*  
  1249      3  15.152407   0.779686  44.177669 # h*  
  1250      3  15.399607   2.322337  44.500269 # h*  
  1251      5  15.782707   1.569927  43.951069 # o*  
  1252      3   7.447717   4.543377  44.694169 # h*  
  1253      3   6.212417   3.534327  45.053069 # h*  
  1254      5   6.442057   4.470017  44.716169 # o*  
  1255      3   3.160817  15.695257  46.621269 # h*  
  1256      3   4.538647  16.571257  46.359569 # h*  
  1257      5   4.130587  15.654157  46.309569 # o*  
  1258      3   5.795457  14.697157  43.330369 # h*  
  1259      3   5.166817  14.317957  44.690569 # h*  
  1260      5   5.135007  14.011157  43.704369 # o*  
  1261      3  12.928607   9.734687  26.911669 # h*  
  1262      3  12.944807  10.973957  25.942769 # h*  
  1263      5  12.767107   9.987187  25.952569 # o*  
  1264      3   9.772937  11.896857  51.589469 # h*  
  1265      3   9.034997  12.836457  52.652569 # h*  
  1266      5   9.928957  12.727657  52.181969 # o*  
  1267      3   9.545727   0.475799  54.409569 # h*  
  1268      3  -2.747813  17.432157  54.267669 # h*  
  1269      5  -2.961543  18.362657  53.841369 # o*  
  1270      3   6.103747   3.310097  47.859069 # h*  
  1271      3   6.042777   2.112337  46.621569 # h*  
  1272      5   6.023767   2.305147  47.654969 # o*  
  1273      3  11.126507   8.338847  52.279769 # h*  
  1274      3  11.065107   7.732397  50.802569 # h*  
  1275      5  10.505707   7.848757  51.662769 # o*  
  1276      3   4.472157   0.443374  40.876569 # h*  
  1277      3  -6.752373  17.963357  40.359069 # h*  
  1278      5   4.993777   0.164098  40.025069 # o*  
  1279      3  15.764107   0.363931  30.848369 # h*  
  1280      3   4.604037  17.874057  31.234969 # h*  
  1281      5   3.591357  18.079457  31.264069 # o*  
  1282      3  -1.428043   3.600607  45.114269 # h*  
  1283      3  18.193707   3.011297  44.239069 # h*  
  1284      5  -1.786873   3.773227  44.212769 # o*  
  1285      3   8.083837   1.159187  33.434669 # h*  
  1286      3   8.588847   1.245117  34.905069 # h*  
  1287      5   8.738167   1.715567  34.006869 # o*  
  1288      3  -7.080823  15.981257  30.779969 # h*  
  1289      3  -7.846553  16.484157  29.522269 # h*  
  1290      5  -7.920433  15.774157  30.229869 # o*  
  1291      3  -3.403943  11.105457  35.455569 # h*  
  1292      3  -4.750663  11.535057  36.221969 # h*  
  1293      5  -4.393353  11.354457  35.296169 # o*  
  1294      3  -2.930923   7.244737  46.549069 # h*  
  1295      3  -3.641993   7.548527  45.107969 # h*  
  1296      5  -2.770773   7.212717  45.558269 # o*  
  1297      3   2.312487  14.207057  27.860969 # h*  
  1298      3   2.104757  12.564457  27.786069 # h*  
  1299      5   2.761877  13.340857  27.610869 # o*  
  1300      3  12.355607   4.279337  50.006769 # h*  
  1301      3  13.122907   5.183277  51.216369 # h*  
  1302      5  12.934307   5.079617  50.224169 # o*  
  1303      3  -2.428843  15.336957  38.614669 # h*  
  1304      3  -1.071593  14.609957  38.809269 # h*  
  1305      5  -1.450493  15.555557  38.908469 # o*  
  1306      3   6.814317   8.085077  56.127769 # h*  
  1307      3   5.197267   8.094707  55.902569 # h*  
  1308      5   5.984837   7.504647  56.076869 # o*  
  1309      3   4.923537  13.155057  49.063969 # h*  
  1310      3   4.248087  12.865157  50.511269 # h*  
  1311      5   4.866217  12.496457  49.822169 # o*  
  1312      3   5.588987   8.618077  29.303369 # h*  
  1313      3   4.032797   8.321617  29.634469 # h*  
  1314      5   4.931417   7.875447  29.546769 # o*  
  1315      3   2.816477   6.362037  47.572869 # h*  
  1316      3   3.284017   6.688367  46.009569 # h*  
  1317      5   2.520697   6.786807  46.680369 # o*  
  1318      3  15.172407   5.872887  41.657069 # h*  
  1319      3  14.434107   5.860337  40.238469 # h*  
  1320      5  14.358307   6.223147  41.172369 # o*  
  1321      3   5.775677  13.182257  28.291069 # h*  
  1322      3   4.385517  12.423557  28.145969 # h*  
  1323      5   5.410287  12.264057  28.091469 # o*  
  1324      3   6.911697  16.781457  36.878469 # h*  
  1325      3   7.423187  17.494057  38.239669 # h*  
  1326      5   7.389517  16.568957  37.771569 # o*  
  1327      3  -4.141233  16.640757  35.592669 # h*  
  1328      3  -5.219413  17.653357  35.820969 # h*  
  1329      5  -5.159533  16.685557  35.463069 # o*  
  1330      3   4.073257  18.171357  38.509569 # h*  
  1331      3   4.585937  17.851557  37.076669 # h*  
  1332      5   3.813547  18.322857  37.538169 # o*  
  1333      3   4.869187   5.095857  48.781869 # h*  
  1334      3   6.127857   6.019207  48.824669 # h*  
  1335      5   5.835737   5.046517  48.882169 # o*  
  1336      3   1.303387   2.945727  27.715569 # h*  
  1337      3   0.297482   4.211287  27.995269 # h*  
  1338      5   0.326091   3.201457  27.774669 # o*  
  1339      3  -0.777093   6.543887  47.141469 # h*  
  1340      3  -0.183848   5.216137  46.744269 # h*  
  1341      5  -0.891643   5.558387  47.411869 # o*  
  1342      3   1.383457  14.504457  48.963669 # h*  
  1343      3   2.358367  14.704257  50.301069 # h*  
  1344      5   1.849117  15.182757  49.542969 # o*  
  1345      3   0.667149  18.373157  44.469169 # h*  
  1346      3   1.623807  18.342557  45.739269 # h*  
  1347      5   1.631097  18.509057  44.734969 # o*  
  1348      3  10.827807   3.386727  29.075469 # h*  
  1349      3  10.329707   1.806207  29.160369 # h*  
  1350      5  10.776507   2.491327  28.565969 # o*  
  1351      3   1.240917   3.832197  34.084469 # h*  
  1352      3  -0.149632   4.567797  33.818569 # h*  
  1353      5   0.276227   3.623847  33.753869 # o*  
  1354      3   7.523907  18.304757  41.530569 # h*  
  1355      3   7.635397  17.298457  40.344369 # h*  
  1356      5   7.362147  17.319857  41.313269 # o*  
  1357      3 -10.679293  16.434057  41.247569 # h*  
  1358      3 -10.046493  16.033457  42.551769 # h*  
  1359      5   9.894367  15.682757  41.923369 # o*  
  1360      3   7.279077   9.985667  47.031369 # h*  
  1361      3   7.861697  11.099457  46.128569 # h*  
  1362      5   7.573987  10.143657  46.061069 # o*  
  1363      3   7.006457   9.169337  26.444169 # h*  
  1364      3   7.070777   8.411017  25.059369 # h*  
  1365      5   6.634167   8.326087  25.984569 # o*  
  1366      3   9.986067   4.311537  33.886469 # h*  
  1367      3   9.995457   2.776137  34.346869 # h*  
  1368      5  10.614707   3.558567  34.185669 # o*  
  1369      3  13.565707  10.754757  41.740769 # h*  
  1370      3  -5.951743   9.967607  42.573369 # h*  
  1371      5  -6.138133  10.797657  42.049869 # o*  
  1372      3   9.715367  10.568157  31.732669 # h*  
  1373      3  10.213467   9.033547  31.941169 # h*  
  1374      5   9.489017   9.626607  31.512069 # o*  
  1375      3   2.601127  17.203057  36.889569 # h*  
  1376      3   2.285017  15.566357  36.813869 # h*  
  1377      5   2.043097  16.493057  36.453569 # o*  
  1378      3  15.106807   2.360557  40.189869 # h*  
  1379      3  14.455107   3.369897  39.251169 # h*  
  1380      5  14.295907   2.427377  39.608569 # o*  
  1381      3   8.571257   6.273917  49.580169 # h*  
  1382      3   9.394357   6.718067  50.889269 # h*  
  1383      5   8.728597   6.021177  50.512869 # o*  
  1384      3   3.177507   4.026757  28.842869 # h*  
  1385      3   4.147577   3.316667  27.752169 # h*  
  1386      5   3.173217   3.413007  28.035969 # o*  
  1387      3   8.633737  16.324857  36.811969 # h*  
  1388      3   9.354397  16.450957  35.163369 # h*  
  1389      5   9.474387  16.300957  36.201569 # o*  
  1390      3  11.882507   1.985067  48.434769 # h*  
  1391      3  12.741907   1.191267  47.333169 # h*  
  1392      5  12.284507   2.087967  47.472369 # o*  
  1393      3  17.972107   3.195027  37.241869 # h*  
  1394      3  18.807007   2.707087  35.958169 # h*  
  1395      5  -2.063983   3.529467  36.497069 # o*  
  1396      3   3.881417   9.247427  25.853269 # h*  
  1397      3   2.359017   8.618787  25.801469 # h*  
  1398      5   2.987157   9.179857  26.346369 # o*  
  1399      3   1.218563   3.868777  37.497569 # h*  
  1400      3   2.622617   3.694237  36.656269 # h*  
  1401      5   2.148367   3.438907  37.511369 # o*  
  1402      3   2.162087   0.020323  41.684369 # h*  
  1403      3   1.995557   0.090222  40.037169 # h*  
  1404      5 -10.379893  18.175557  40.874369 # o*  
  1405      3  -0.941553   4.516937  37.152669 # h*  
  1406      3  -0.910023   4.820227  38.693069 # h*  
  1407      5  -0.277052   4.743777  37.908769 # o*  
  1408      3   5.534927   5.001147  35.807769 # h*  
  1409      3   5.995327   3.759787  36.917269 # h*  
  1410      5   6.015957   4.104147  35.958069 # o*  
  1411      3  -0.319574  16.735557  27.619469 # h*  
  1412      3   0.323999  17.740957  28.594169 # h*  
  1413      5   0.359874  16.731257  28.346069 # o*  
  1414      3   4.050647  14.004757  31.888169 # h*  
  1415      3   5.587097  13.791057  32.138669 # h*  
  1416      5   4.939037  14.496057  31.804569 # o*  
  1417      3   7.057477   7.617667  32.674669 # h*  
  1418      3   7.425677   7.140197  31.214569 # h*  
  1419      5   7.121027   6.769147  32.101669 # o*  
  1420      3  13.926407   8.854577  47.475969 # h*  
  1421      3  13.377507  10.337157  47.787569 # h*  
  1422      5  13.792907   9.518147  48.242869 # o*  
  1423      3  -2.264023  16.161957  35.350169 # h*  
  1424      3  -1.734253  17.350357  36.126269 # h*  
  1425      5  -2.568633  16.775957  36.132169 # o*  
  1426      3  -1.651083   8.002527  55.829269 # h*  
  1427      3  -1.546923   7.944197   0.708449 # h*  
  1428      5  -1.646393   7.338267  56.631969 # o*  
  1429      3   9.226077  17.063057  45.327069 # h*  
  1430      3   9.214207  17.216557  46.912469 # h*  
  1431      5   9.197297  16.488557  46.184269 # o*  
  1432      3   8.788547  14.331557  28.592769 # h*  
  1433      3   8.426307  12.953957  29.324469 # h*  
  1434      5   9.182587  13.578857  29.130269 # o*  
  1435      3   5.054987  14.821657  47.295469 # h*  
  1436      3   6.540557  14.163357  47.228369 # h*  
  1437      5   5.760817  14.345057  47.888969 # o*  
  1438      3   4.494837  18.358057  53.339969 # h*  
  1439      3  17.907207   0.686242  53.817369 # h*  
  1440      5  17.640407   0.068229  53.040169 # o*  
  1441      3  -2.044383  17.664657  44.995269 # h*  
  1442      3  -3.226523  17.664957  46.026369 # h*  
  1443      5  -2.885203  17.125057  45.242469 # o*  
  1444      3  -0.168925   1.215947  35.594469 # h*  
  1445      3  -0.639267   2.187407  34.322569 # h*  
  1446      5  -0.980783   1.518827  35.013569 # o*  
  1447      3  -4.308613   7.349547  54.873869 # h*  
  1448      3  14.899707   8.043057  54.636469 # h*  
  1449      5  -4.904653   8.155337  55.101069 # o*  
  1450      3  -8.824583  14.306657  50.444969 # h*  
  1451      3  10.580007  13.528357  50.813969 # h*  
  1452      5  11.047407  13.890857  49.993969 # o*  
  1453      3  14.228307   3.556947  45.798769 # h*  
  1454      3  14.255607   2.910707  47.185769 # h*  
  1455      5  14.819507   2.917187  46.321269 # o*  
  1456      3   7.550767   4.652437  33.924969 # h*  
  1457      3   8.176507   5.813597  32.979869 # h*  
  1458      5   8.407367   5.119487  33.687869 # o*  
  1459      3   4.243527   1.290257  52.392869 # h*  
  1460      3   2.904787   0.814968  51.778669 # h*  
  1461      5   3.726087   1.368047  51.557969 # o*  
  1462      3  -7.088693  11.540557  37.018169 # h*  
  1463      3  -6.677633  12.972057  37.431869 # h*  
  1464      5  -6.261593  12.108557  37.121669 # o*  
  1465      3   8.269307  15.025757  46.191169 # h*  
  1466      3   8.371977  13.380657  45.957869 # h*  
  1467      5   7.788037  14.123357  46.285469 # o*  
  1468      3  -2.583043   6.426557  30.740169 # h*  
  1469      3  -3.317193   7.899337  30.762369 # h*  
  1470      5  -2.784143   7.255417  30.171769 # o*  
  1471      3   8.407847   6.543077  42.063169 # h*  
  1472      3   9.625967   6.972087  40.939569 # h*  
  1473      5   8.932697   6.273127  41.189969 # o*  
  1474      3  -5.559123  11.372057  38.662869 # h*  
  1475      3  -5.656033  11.123557  40.282869 # h*  
  1476      5  -5.020803  11.253657  39.501969 # o*  
  1477      3  11.218307   5.596297  29.422569 # h*  
  1478      3  12.648607   4.881007  29.124069 # h*  
  1479      5  11.789607   4.780687  29.625769 # o*  
  1480      3   8.972117  17.860957  26.147969 # h*  
  1481      3 -10.519693  18.209557  26.985769 # h*  
  1482      5 -10.950993  17.357057  26.627669 # o*  
  1483      3  -5.675113  10.866057  29.310169 # h*  
  1484      3  -4.890643  11.761157  28.254669 # h*  
  1485      5  -4.747793  11.044257  29.005969 # o*  
  1486      3   6.197347   4.735827  27.293569 # h*  
  1487      3   6.710997   3.416897  28.116269 # h*  
  1488      5   6.806377   3.888597  27.212869 # o*  
  1489      3   9.527387   8.333607  48.217669 # h*  
  1490      3  10.762707   7.379607  48.512169 # h*  
  1491      5   9.860217   7.409897  48.006069 # o*  
  1492      3  13.357807   1.755177  38.215769 # h*  
  1493      3  12.877307   1.484477  36.661869 # h*  
  1494      5  12.751707   1.157867  37.628969 # o*  
  1495      3   8.626287   6.734667  27.059969 # h*  
  1496      3   7.768717   7.582767  28.027769 # h*  
  1497      5   8.712367   7.416257  27.797169 # o*  
  1498      3  -2.812233  15.298357  48.990769 # h*  
  1499      3  -3.769223  14.065857  48.707169 # h*  
  1500      5  -3.768063  15.093057  48.651969 # o*  
  1501      3   1.161769   0.186668  43.545769 # h*  
  1502      3   8.867947  17.450757  43.008269 # h*  
  1503      5 -11.277693  17.871257  43.800669 # o*  
  1504      3  -1.811843  14.026457  27.232269 # h*  
  1505      3  -1.695293  15.568357  26.970169 # h*  
  1506      5  -2.376463  14.884857  27.315769 # o*  
  1507      3   3.332917  13.995957  26.060269 # h*  
  1508      3   4.609477  13.396157  25.612469 # h*  
  1509      5   3.911597  14.036657  25.261469 # o*  
  1510      3   3.843927   9.028537  37.396569 # h*  
  1511      3   2.803627   7.774187  37.672869 # h*  
  1512      5   3.716517   8.038447  37.259369 # o*  
  1513      3  -4.996413  17.088857  39.971969 # h*  
  1514      3  -5.940873  15.919857  39.431969 # h*  
  1515      5  -5.605383  16.346157  40.286169 # o*  
  1516      3  -0.023104   4.018537  41.137569 # h*  
  1517      3   1.237817   3.073967  40.672169 # h*  
  1518      5   0.544706   3.244497  41.414369 # o*  
  1519      3  -2.597153  18.367057  40.900669 # h*  
  1520      3  10.828507   0.667866  41.746469 # h*  
  1521      5  -1.968963  18.446257  41.708269 # o*  
  1522      3  -3.050283   9.622797  49.962469 # h*  
  1523      3  -2.747583   8.672177  51.243469 # h*  
  1524      5  -2.381233   9.495577  50.717469 # o*  
  1525      3  14.969807   4.820997  43.755469 # h*  
  1526      3  13.455507   5.363687  44.073569 # h*  
  1527      5  14.067807   4.541397  44.117969 # o*  
  1528      3   5.475407   5.828027  52.875669 # h*  
  1529      3   6.084687   5.865507  51.445769 # h*  
  1530      5   5.901897   6.459447  52.226469 # o*  
  1531      3  10.086057  12.797357  42.051069 # h*  
  1532      3  10.722807  14.202357  42.551269 # h*  
  1533      5  10.836807  13.223557  42.592269 # o*  
  1534      3  -5.345073  13.822457  33.538469 # h*  
  1535      3  -5.212963  15.400357  34.244769 # h*  
  1536      5  -4.876193  14.733157  33.532569 # o*  
  1537      3   0.975976  15.822057  47.782469 # h*  
  1538      3   1.551827  17.222957  47.282669 # h*  
  1539      5   1.214893  16.304757  46.924869 # o*  
  1540      3  -9.524183  16.164257  53.016469 # h*  
  1541      3  -8.954843  16.780857  51.676369 # h*  
  1542      5  -9.708033  16.206557  52.010569 # o*  
  1543      3   5.947367  17.455257  27.474969 # h*  
  1544      3  19.021307   0.180226  27.367069 # h*  
  1545      5   6.428107  18.160757  28.059069 # o*  
  1546      3  13.804207   6.392047  46.928269 # h*  
  1547      3  14.406407   7.165147  45.615569 # h*  
  1548      5  14.235607   7.262367  46.609369 # o*  
  1549      3   1.318397  11.519157  48.715469 # h*  
  1550      3   1.248137  10.094457  49.635569 # h*  
  1551      5   1.414407  11.119557  49.611769 # o*  
  1552      3  -2.748753   5.371017  48.194269 # h*  
  1553      3  16.789507   6.011287  49.131269 # h*  
  1554      5  17.108707   5.129997  48.782269 # o*  
  1555      3  11.482607  12.031757  23.893169 # h*  
  1556      3  -8.699843  13.538857  24.311169 # h*  
  1557      5  12.287307  12.616357  24.008269 # o*  
  1558      3  -0.445819   2.049567  41.728569 # h*  
  1559      3  18.700907   1.477557  41.378269 # h*  
  1560      5  19.532607   1.302687  41.954269 # o*  
  1561      3   6.559157  13.706757  55.193169 # h*  
  1562      3   6.377767  13.929757  53.521969 # h*  
  1563      5   5.971607  13.613457  54.385369 # o*  
  1564      3   7.930407   1.928037  42.118069 # h*  
  1565      3   8.782687   0.765649  42.806169 # h*  
  1566      5   8.059647   1.448637  43.020969 # o*  
  1567      3   0.677783   0.493746  52.992069 # h*  
  1568      3  -0.082297   0.424459  51.581069 # h*  
  1569      5   0.827096   0.618538  52.019369 # o*  
  1570      3   6.803067  10.414757  38.683869 # h*  
  1571      3   6.872107   9.105547  39.545469 # h*  
  1572      5   7.492877   9.805287  39.120069 # o*  
  1573      3  -4.307483  16.726057  25.710769 # h*  
  1574      3  -5.663103  16.368757  26.618869 # h*  
  1575      5  -4.829213  15.927057  26.151669 # o*  
  1576      3  17.764407   2.388597  55.330169 # h*  
  1577      3  18.679307   1.353037  56.012469 # h*  
  1578      5  17.862907   1.398977  55.365769 # o*  
  1579      3   2.037297   1.658247  54.484669 # h*  
  1580      3   3.266467   2.731157  54.331469 # h*  
  1581      5   3.033687   1.733177  54.239369 # o*  
  1582      3   6.947067  17.688657  47.315269 # h*  
  1583      3   6.417957  18.253057  45.887769 # h*  
  1584      5   6.186237  17.632457  46.671369 # o*  
  1585      3  16.384707   3.285257  34.613169 # h*  
  1586      3  17.503907   4.290847  34.976969 # h*  
  1587      5  16.801007   4.156897  34.269169 # o*  
  1588      3   0.408668   6.652627  26.973569 # h*  
  1589      3   0.263363   6.747877  28.544469 # h*  
  1590      5   0.241733   6.081467  27.812969 # o*  
  1591      3  17.527207   2.233837  47.634869 # h*  
  1592      3  16.072007   2.157877  46.898869 # h*  
  1593      5  16.689907   1.634737  47.551369 # o*  
  1594      3   6.783627   9.734837  44.715769 # h*  
  1595      3   5.529047   8.936637  44.411669 # h*  
  1596      5   6.172937   9.524727  43.913369 # o*  
  1597      3  -3.330863  17.815257   0.632559 # h*  
  1598      3  -2.421613  16.894057  56.444269 # h*  
  1599      5  -2.428603  17.805857   0.134493 # o*  
  1600      3  -2.779833  16.902857  39.646469 # h*  
  1601      3  -2.817503  18.460557  39.143469 # h*  
  1602      5  -3.407363  17.697357  39.545869 # o*  
  1603      3  12.493007  10.735157  38.826669 # h*  
  1604      3  11.047607  11.220557  38.449369 # h*  
  1605      5  12.013807  11.240457  38.079069 # o*  
  1606      3   7.185047   1.522447  28.283169 # h*  
  1607      3   8.383157   0.580759  28.404769 # h*  
  1608      5   7.581917   0.722596  27.841669 # o*  
  1609      3  -4.816613  16.367857  30.382269 # h*  
  1610      3  -5.126543  15.877857  31.958169 # h*  
  1611      5  -5.395313  16.490257  31.201669 # o*  
  1612      3  -5.671323  11.888757  34.368569 # h*  
  1613      3  -7.214053  12.411757  34.243869 # h*  
  1614      5  -6.377523  12.179657  33.687069 # o*  
  1615      3   2.581797   9.499367  53.511969 # h*  
  1616      3   1.193263   9.263797  52.770269 # h*  
  1617      5   2.123677   8.823037  52.909869 # o*  
  1618      3   4.044527  11.531057  38.037769 # h*  
  1619      3   2.703447  10.892757  37.707469 # h*  
  1620      5   3.657057  10.881557  37.399469 # o*  
  1621      3  -1.271683  11.355157  35.845369 # h*  
  1622      3  -1.591683  11.300257  34.207969 # h*  
  1623      5  -1.708683  10.817257  35.100169 # o*  
  1624      3  -6.778263  11.002557  32.064869 # h*  
  1625      3  -7.209783  11.572257  30.741269 # h*  
  1626      5  -6.917113  10.665557  31.149869 # o*  
  1627      3  -8.149893  17.506157  34.187369 # h*  
  1628      3   3.967217   0.302283  34.912869 # h*  
  1629      5  -7.869903  18.463357  34.123469 # o*  
  1630      3  18.763807   1.751047  50.343669 # h*  
  1631      3  18.053007   2.867637  49.517169 # h*  
  1632      5  18.369807   2.682067  50.436069 # o*  
  1633      3   5.846527  17.475257  34.870969 # h*  
  1634      3  18.762307   0.124295  35.459669 # h*  
  1635      5   6.134227  17.896857  35.778869 # o*  
  1636      3   0.095730   8.571467  48.358169 # h*  
  1637      3   1.287577   7.688737  49.086669 # h*  
  1638      5   0.596536   8.444047  49.222769 # o*  
  1639      3  -0.361196  13.282957  56.718469 # h*  
  1640      3  -1.793583  13.187157   0.701769 # h*  
  1641      5  -1.353713  13.517157  56.610469 # o*  
  1642      3  -9.865893  15.901757  37.135969 # h*  
  1643      3  10.780307  14.974857  38.210469 # h*  
  1644      5  -9.194383  15.650957  37.850269 # o*  
  1645      3  -8.800933  15.454757  47.276369 # h*  
  1646      3  10.549007  15.288057  46.436069 # h*  
  1647      5  -9.252853  14.790557  46.629069 # o*  
  1648      3  11.027907  14.133257   1.325809 # h*  
  1649      3  10.117647  15.131457   0.725469 # h*  
  1650      5  10.924907  14.561557   0.428569 # o*  
  1651      3  -2.201913   3.482697  39.756469 # h*  
  1652      3  17.783507   2.042597  40.290169 # h*  
  1653      5  18.353807   2.488767  39.570869 # o*  
  1654      3  -3.644213   6.407137  43.200669 # h*  
  1655      3  17.277707   4.841037  43.507369 # h*  
  1656      5  16.563607   5.515147  43.239069 # o*  
  1657      3   4.371337   6.699127  34.562369 # h*  
  1658      3   4.349647   6.840877  36.128769 # h*  
  1659      5   4.381247   6.123917  35.397769 # o*  
  1660      3  -8.722883  15.851857  35.948669 # h*  
  1661      3  -8.380613  14.562857  35.018969 # h*  
  1662      5  -8.481043  15.559357  35.004769 # o*  
  1663      3   1.004120  11.498257   0.249649 # h*  
  1664      3   1.760917  12.532457   1.251349 # h*  
  1665      5   1.024460  12.458657   0.586949 # o*  
  1666      3   7.167987   3.738677  53.653669 # h*  
  1667      3   6.311527   3.416357  52.284069 # h*  
  1668      5   6.944027   3.009217  52.980169 # o*  
  1669      3   5.964157   9.583457  34.252669 # h*  
  1670      3   7.419547   9.472717  34.000169 # h*  
  1671      5   6.595687   9.142977  33.553069 # o*  
  1672      3  -2.345363  10.763557  40.865969 # h*  
  1673      3  -3.571913  10.508557  39.988369 # h*  
  1674      5  -2.663753  10.066857  40.206369 # o*  
  1675      3   8.795427   2.568137  52.120869 # h*  
  1676      3   9.154847   4.027047  51.494869 # h*  
  1677      5   9.325147   3.032597  51.392169 # o*  
  1678      3   1.208351   3.195267  47.034469 # h*  
  1679      3   1.866547   1.946447  47.812069 # h*  
  1680      5   0.996313   2.487787  47.743869 # o*  
  1681      3   0.730468  10.984657  43.010469 # h*  
  1682      3   1.746947  10.544857  41.863169 # h*  
  1683      5   0.855477  10.317357  42.259169 # o*  
  1684      3   9.089507   9.652577  45.132369 # h*  
  1685      3   9.420947   8.075107  45.074969 # h*  
  1686      5   9.680197   8.976207  44.679869 # o*  
  1687      3   2.521447  18.502357  48.969469 # h*  
  1688      3  15.447507   0.391196  47.667269 # h*  
  1689      5   2.427507  18.461257  47.963769 # o*  
  1690      3  -4.128113  14.871757  51.165669 # h*  
  1691      3  -4.699483  14.789657  52.755969 # h*  
  1692      5  -4.027773  14.410757  52.056069 # o*  
  1693      3   9.403297   4.820267  42.970269 # h*  
  1694      3   9.789717   3.699807  44.196369 # h*  
  1695      5   9.254357   4.512997  43.931669 # o*  
  1696      3  -4.939353  16.344957  48.681469 # h*  
  1697      3  -5.315723  17.853757  48.668069 # h*  
  1698      5  -5.748453  16.969957  48.825869 # o*  
  1699      3   2.462037  14.565057  40.694769 # h*  
  1700      3   1.321187  14.483257  39.491869 # h*  
  1701      5   2.206257  14.953657  39.749469 # o*  
  1702      3  -1.758883  15.987657  32.834169 # h*  
  1703      3  -2.730523  16.292957  31.567869 # h*  
  1704      5  -2.140093  16.727957  32.259569 # o*  
  1705      3  -0.895823   5.800837  56.143169 # h*  
  1706      3  -0.556938   5.572967  54.591769 # h*  
  1707      5  -0.545484   5.084907  55.483669 # o*  
  1708      3  -5.668853  15.541157  43.577169 # h*  
  1709      3  -5.993023  15.866457  42.037369 # h*  
  1710      5  -6.300933  15.299857  42.833269 # o*  
  1711      3   1.207713  11.953457  31.426369 # h*  
  1712      3   0.451834  10.639057  31.059869 # h*  
  1713      5   0.357651  11.436557  31.634769 # o*  
  1714      3  11.946707  10.712357  53.297869 # h*  
  1715      3  11.761107   9.967047  54.712569 # h*  
  1716      5  11.701407   9.800187  53.712169 # o*  
  1717      3   6.638337   1.726547  30.293069 # h*  
  1718      3   6.099917   3.289747  30.056769 # h*  
  1719      5   6.432107   2.467537  29.622469 # o*  
  1720      3   5.260877   3.834637  40.868469 # h*  
  1721      3   3.964067   4.541147  40.080469 # h*  
  1722      5   4.752257   3.936017  39.980069 # o*  
  1723      3   2.247907   8.163157  31.213269 # h*  
  1724      3   3.171147   9.421257  31.071169 # h*  
  1725      5   2.517417   8.876577  30.534369 # o*  
  1726      3   8.899717  10.825357  39.144369 # h*  
  1727      3   9.288677  12.024657  40.133569 # h*  
  1728      5   9.635207  11.517757  39.322969 # o*  
  1729      3   9.104647   5.912077  45.273269 # h*  
  1730      3   8.958227   6.957087  46.535169 # h*  
  1731      5   8.543097   6.676207  45.614269 # o*  
  1732      3  -1.246943  15.997157  50.486669 # h*  
  1733      3  -0.124079  15.239957  49.875769 # h*  
  1734      5  -1.115263  15.329157  49.724069 # o*  
  1735      3   8.830537  11.659357  34.875769 # h*  
  1736      3   9.518547  10.206757  34.694569 # h*  
  1737      5   8.611567  10.667157  34.791169 # o*  
  1738      3  16.568507   1.949217  29.778169 # h*  
  1739      3  16.790807   1.835907  31.381769 # h*  
  1740      5  16.096307   2.037867  30.651869 # o*  
  1741      3  -2.934453   8.259667  39.530769 # h*  
  1742      3  -3.381433   7.393917  38.201169 # h*  
  1743      5  -2.896413   7.344327  39.103069 # o*  
  1744      3   1.667397   7.592737  33.338969 # h*  
  1745      3   0.580009   6.666947  32.586269 # h*  
  1746      5   1.442127   7.223277  32.414869 # o*  
  1747      3   0.734397  11.963757  40.165069 # h*  
  1748      3  -0.667077  12.470357  40.461969 # h*  
  1749      5   0.156864  12.769457  39.992469 # o*  
  1750      3  -1.088223   9.775207  27.055869 # h*  
  1751      3   0.359905  10.187557  27.651169 # h*  
  1752      5  -0.229850  10.280857  26.829269 # o*  
  1753      3   2.365397  10.044357  27.769969 # h*  
  1754      3   1.920627  10.207657  29.214569 # h*  
  1755      5   1.860547  10.730457  28.347169 # o*  
  1756      3  -5.847983  17.738357  28.306069 # h*  
  1757      3  -6.930593  17.588257  27.142169 # h*  
  1758      5  -6.708113  17.313357  28.119169 # o*  
  1759      3   7.935217  10.015657  24.237969 # h*  
  1760      3   9.164167   9.051197  23.707169 # h*  
  1761      5   8.158747   9.179457  23.752869 # o*  
  1762      3   3.328177   4.637427  55.360969 # h*  
  1763      3   2.455247   4.773967  54.036369 # h*  
  1764      5   3.260437   4.295287  54.410569 # o*  
  1765      3   8.285087   1.110447  46.540169 # h*  
  1766      3   8.903907   0.960477  47.993069 # h*  
  1767      5   8.576167   0.440104  47.208769 # o*  
  1768      3   3.328337   2.165087  42.556069 # h*  
  1769      3   4.169097   0.887546  43.240969 # h*  
  1770      5   3.934467   1.381157  42.375269 # o*  
  1771      3   3.027057   0.239895  29.024369 # h*  
  1772      3   2.899527   1.628297  28.097269 # h*  
  1773      5   2.845477   0.625295  28.120469 # o*  
  1774      3  -0.831623  12.980157  28.424769 # h*  
  1775      3  -0.630880  11.855657  27.273469 # h*  
  1776      5  -0.727993  12.867957  27.404269 # o*  
  1777      3  13.905907   4.088907  27.646369 # h*  
  1778      3  15.153507   3.728427  28.639969 # h*  
  1779      5  14.278207   4.271797  28.591269 # o*  
  1780      3  -5.186113  14.902357  45.732569 # h*  
  1781      3  -3.872423  15.698057  45.035969 # h*  
  1782      5  -4.547763  14.945257  44.909969 # o*  
  1783      3  -6.077343  14.169957  54.397669 # h*  
  1784      3  -5.896373  15.297757  55.335969 # h*  
  1785      5  -5.438233  14.979657  54.468369 # o*  
  1786      3   8.153837  17.386157  54.196769 # h*  
  1787      3 -10.892493  17.441857  54.430069 # h*  
  1788      5 -11.741393  17.995457  54.454369 # o*  
  1789      3  -3.741063   8.890027  43.713769 # h*  
  1790      3  -4.495993   9.366807  44.904969 # h*  
  1791      5  -4.607483   8.681247  44.169669 # o*  
  1792      3  10.317307   4.116317  37.762369 # h*  
  1793      3   8.935187   4.434857  38.580469 # h*  
  1794      5   9.577867   3.693767  38.322269 # o*  
  1795      3   7.917467  10.025357  51.180469 # h*  
  1796      3   7.892677  11.616257  50.858769 # h*  
  1797      5   8.491257  10.793357  50.821869 # o*  
  1798      3  12.645107   8.412067  49.009469 # h*  
  1799      3  12.703907   6.986167  49.806569 # h*  
  1800      5  12.082107   7.698997  49.464269 # o*  
  1801      3  14.063707   9.581917  35.541869 # h*  
  1802      3  14.335507   8.218507  34.743969 # h*  
  1803      5  13.653107   8.683357  35.310869 # o*  
  1804      3  16.056107   5.885687  34.045869 # h*  
  1805      3  14.497507   6.239507  33.846669 # h*  
  1806      5  15.371807   6.600987  34.211769 # o*  
  1807      3   2.397857   9.165827  34.732269 # h*  
  1808      3   1.274567   9.544437  35.747869 # h*  
  1809      5   1.390907   9.257207  34.773069 # o*  
  1810      3  -0.980223   9.441967  51.613169 # h*  
  1811      3  -0.659699   8.220607  52.589569 # h*  
  1812      5  -0.449548   9.197827  52.415969 # o*  
  1813      3  12.694807   0.329184  30.199169 # h*  
  1814      3  12.231707   1.612487  29.260769 # h*  
  1815      5  12.739907   0.724268  29.259169 # o*  
  1816      3  -7.616293  15.855257  37.607069 # h*  
  1817      3  -6.231423  16.004657  36.811169 # h*  
  1818      5  -6.588233  15.790257  37.717869 # o*  
  1819      3  -2.334133  13.787957  45.929569 # h*  
  1820      3  -2.192813  12.958557  47.299869 # h*  
  1821      5  -1.731923  13.138257  46.401969 # o*  
  1822      3   3.062167   5.028597  26.504869 # h*  
  1823      3   2.283317   6.055917  25.625369 # h*  
  1824      5   2.751837   5.142517  25.562569 # o*  
  1825      3  11.650107   2.659467  45.701269 # h*  
  1826      3  12.034407   3.641537  44.422769 # h*  
  1827      5  11.308607   3.044417  44.817269 # o*  
  1828      3   1.059464  17.713057  32.277969 # h*  
  1829      3  -0.486423  17.433857  31.693969 # h*  
  1830      5   0.302735  18.076357  31.703169 # o*  
  1831      3   7.293867   8.034397  43.214269 # h*  
  1832      3   7.887357   6.832177  44.160769 # h*  
  1833      5   7.584707   7.058867  43.203069 # o*  
  1834      3  14.626907   5.464367  38.205569 # h*  
  1835      3  16.035107   5.515667  39.080569 # h*  
  1836      5  15.176107   5.046317  38.946769 # o*  
  1837      3  10.103317   2.688297  32.208169 # h*  
  1838      3   9.562947   3.653997  31.066069 # h*  
  1839      5   9.829087   2.694407  31.225769 # o*  
  1840      3   1.640517  18.574357  50.967769 # h*  
  1841      3   0.205125  18.246457  51.612269 # h*  
  1842      5  12.993307   0.387310  51.317269 # o*  
  1843      3   0.256107   6.218347  53.017369 # h*  
  1844      3  -1.083283   6.061137  52.395569 # h*  
  1845      5  -0.693181   6.594607  53.186269 # o*  
  1846      3  -2.823493  15.175457  29.110469 # h*  
  1847      3  -2.933933  14.046557  30.250769 # h*  
  1848      5  -3.141773  15.029657  30.061369 # o*  
  1849      3  13.010507   2.550117  34.510669 # h*  
  1850      3  12.113307   3.619097  35.433369 # h*  
  1851      5  12.844207   2.909047  35.455969 # o*  
  1852      3  -0.109171   0.834111  38.038969 # h*  
  1853      3  19.270007   1.024137  39.032069 # h*  
  1854      5  19.896907   0.357889  38.623569 # o*  
  1855      3  17.628907   2.981537  51.993269 # h*  
  1856      3  16.441007   2.820697  53.068169 # h*  
  1857      5  17.201207   3.481637  52.794069 # o*  
  1858      3  -0.576371  12.264957  30.428069 # h*  
  1859      3  -2.204643  12.493857  30.315569 # h*  
  1860      5  -1.313963  12.811957  29.953969 # o*  
  1861      3  -5.620613  13.616157  26.808569 # h*  
  1862      3  -4.122213  13.821257  27.408369 # h*  
  1863      5  -4.846523  13.130357  27.283869 # o*  
  1864      3   7.344937   0.979029  37.036269 # h*  
  1865      3   8.773127   0.154045  36.730369 # h*  
  1866      5   7.890867   0.422106  36.373569 # o*  
  1867      3   4.105127   5.026817  30.783569 # h*  
  1868      3   4.894357   6.076337  29.994169 # h*  
  1869      5   4.629717   5.080497  29.886669 # o*  
  1870      3   4.354647   1.748757  48.009969 # h*  
  1871      3   3.691337   0.365872  48.005169 # h*  
  1872      5   3.517857   1.319167  47.750669 # o*  
  1873      3  13.372307   7.523667  36.601269 # h*  
  1874      3  12.423107   6.313407  37.041769 # h*  
  1875      5  13.340107   6.706817  37.206769 # o*  
  1876      3  10.998507   1.874847  55.890269 # h*  
  1877      3   9.764617   0.814686  56.189369 # h*  
  1878      5   9.965777   1.791757  55.959169 # o*  
  1879      3  12.665707   1.877077  41.034569 # h*  
  1880      3  11.651707   2.855637  41.768469 # h*  
  1881      5  11.816707   1.866487  41.520969 # o*  
  1882      3   1.854397   3.479927  31.426269 # h*  
  1883      3   0.845740   2.837047  32.408069 # h*  
  1884      5   1.404237   2.566127  31.568469 # o*  
  1885      3  19.043607   0.889516  43.497369 # h*  
  1886      3  17.740507   1.046287  44.493969 # h*  
  1887      5  18.697107   0.759429  44.424069 # o*  
  1888      3   0.583017  10.958757  37.643869 # h*  
  1889      3   0.877191   9.828027  38.747369 # h*  
  1890      5   1.196555  10.201157  37.885569 # o*  
  1891      3   6.038557  14.417257  35.058969 # h*  
  1892      3   6.303137  14.017757  36.611669 # h*  
  1893      5   6.563047  13.801357  35.668669 # o*  
  1894      3  17.339007   4.336437  32.466269 # h*  
  1895      3  -1.881833   4.056827  31.628469 # h*  
  1896      5  -2.498463   4.717847  31.984369 # o*  
  1897      3  -2.953673   6.381777  51.302569 # h*  
  1898      3  -3.245353   7.206267  52.812269 # h*  
  1899      5  -3.371863   7.176187  51.808769 # o*  
  1900      3   8.623367   8.829997  38.229569 # h*  
  1901      3   9.250177   9.290437  36.853569 # h*  
  1902      5   9.359027   8.593627  37.567569 # o*  
  1903      3   2.563947  11.861957  54.428269 # h*  
  1904      3   4.103537  11.370257  54.444969 # h*  
  1905      5   3.172847  11.143157  54.822169 # o*  
  1906      3  10.358807  11.990257  45.928769 # h*  
  1907      3   9.835697  12.391057  44.397269 # h*  
  1908      5   9.569497  12.259257  45.373469 # o*  
  1909      3   0.484466   6.647487  25.074569 # h*  
  1910      3   0.815294   8.169277  25.182569 # h*  
  1911      5   0.983108   7.294917  25.673269 # o*  
  1912      3  -1.589403  18.596257  43.496669 # h*  
  1913      3  10.887107   1.305187  44.473869 # h*  
  1914      5  10.988407   0.298758  44.387069 # o*  
  1915      3   6.386127   2.435557  33.352869 # h*  
  1916      3   5.756387   3.483767  34.311169 # h*  
  1917      5   5.807087   3.267197  33.344369 # o*  
  1918      3   5.452677  15.727757  49.145969 # h*  
  1919      3   5.713167  17.121757  48.554269 # h*  
  1920      5   5.514747  16.674057  49.443569 # o*  
  1921      3   6.919407  16.584657  42.683469 # h*  
  1922      3   7.064627  16.298557  44.371769 # h*  
  1923      5   6.556327  16.105057  43.525269 # o*  
  1924      3   3.859787   6.085857  43.561069 # h*  
  1925      3   2.770757   5.505477  42.698669 # h*  
  1926      5   3.059987   5.519497  43.689169 # o*  
  1927      3   0.008186  13.520057  46.648469 # h*  
  1928      3   1.598897  13.832657  46.656169 # h*  
  1929      5   0.865762  13.396657  47.176169 # o*  
  1930      3   9.630977   7.486247  53.124969 # h*  
  1931      3   8.375467   6.697937  53.922769 # h*  
  1932      5   9.114937   7.375847  54.025169 # o*  
  1933      3   5.700197   0.206985  33.182969 # h*  
  1934      3  -5.613663  18.273457  31.994669 # h*  
  1935      5   6.585987   0.382244  32.683269 # o*  
  1936      3   6.449487  17.912557  50.302269 # h*  
  1937      3  18.397407   0.175086  51.556769 # h*  
  1938      5  19.055907   0.047199  50.789269 # o*  
  1939      3  14.379307   4.138867  50.120169 # h*  
  1940      3  15.885407   4.121127  49.557169 # h*  
  1941      5  15.201807   3.563387  50.036769 # o*  
  1942      3  10.038977  10.599757  48.116869 # h*  
  1943      3   9.019787  10.369757  49.441869 # h*  
  1944      5   9.244717  10.064957  48.469769 # o*  
  1945      3  16.085507   1.244677  55.760369 # h*  
  1946      3  15.067907   0.269457  55.000969 # h*  
  1947      5  15.171107   0.803965  55.853269 # o*  
  1948      3  12.321307   4.126187  47.372669 # h*  
  1949      3  13.095507   5.096537  48.375369 # h*  
  1950      5  12.924707   4.932167  47.370269 # o*  
  1951      3   5.060887  11.217357  31.851769 # h*  
  1952      3   5.381857  10.172857  30.567269 # h*  
  1953      5   4.635277  10.570657  31.165569 # o*  
  1954      3  -1.559033   5.286587  41.266469 # h*  
  1955      3  -2.142763   5.821057  39.847669 # h*  
  1956      5  -1.847143   4.972737  40.321569 # o*  
  1957      3   4.621417  15.714057  56.102969 # h*  
  1958      3   4.795017  14.775057  54.880869 # h*  
  1959      5   4.098327  15.404757  55.280369 # o*  
  1960      3  16.953307   5.049747  53.544069 # h*  
  1961      3  -3.239733   5.534837  55.034769 # h*  
  1962      5  -3.689743   5.841417  54.186269 # o*  
  1963      3   3.593637   6.326137  41.008569 # h*  
  1964      3   2.196017   6.131897  40.186169 # h*  
  1965      5   2.782347   5.757367  40.918369 # o*  
  1966      3   9.605337  14.341757  35.734869 # h*  
  1967      3   8.173997  13.614557  35.462469 # h*  
  1968      5   9.180747  13.482257  35.355169 # o*  
  1969      3   4.559747  10.747057  35.957269 # h*  
  1970      3   4.099787  11.202357  34.617869 # h*  
  1971      5   4.861997  10.635057  35.001769 # o*  
  1972      3   2.742867  14.632657  38.289469 # h*  
  1973      3   4.247717  13.999957  37.929269 # h*  
  1974      5   3.390497  14.385057  37.534469 # o*  
  1975      3  13.950807   6.769147  52.940769 # h*  
  1976      3  15.119407   5.961197  52.214369 # h*  
  1977      5  14.241207   5.830437  52.716169 # o*  
  1978      3  10.420407   4.310907  26.116169 # h*  
  1979      3  10.951007   2.963827  26.719369 # h*  
  1980      5  11.191907   3.659747  26.015069 # o*  
  1981      3  -3.848033  11.695757  30.315869 # h*  
  1982      3  -4.619553  12.565257  31.272369 # h*  
  1983      5  -3.665713  12.302257  31.103869 # o*  
  1984      3  -1.918363  17.711257  52.262269 # h*  
  1985      3  -0.584201  16.746157  52.454869 # h*  
  1986      5  -1.225153  17.164857  51.752269 # o*  
  1987      7   4.223162  10.522535  41.246682 # oc  
  1988      7   5.262393   8.722535  41.246682 # oc  
  1989      7   3.183932   8.722535  41.246682 # oc  
  1990      2   4.223162   9.322535  41.246682 # co  
