sample.2.cif
1.0
        6.7351999283         0.0000000000         0.0000000000
       -8.1423952580        12.4191698096         0.0000000000
        0.0000000000         0.0000000000        27.9243602753
   Si   Ca    O    H
   20   24   66    4
Direct
     0.750599980         0.193250000         0.168491930
     0.750599980         0.443250000         0.819560766
     0.250600010         0.193250000         0.669622481
     0.250600010         0.443250000         0.318430185
     0.895600021         0.375250012         0.097231172
     0.895600021         0.125249997         0.890821517
     0.395599991         0.375250012         0.598361731
     0.743600011         0.480749995         0.168391705
     0.743600011         0.230749995         0.819660962
     0.243599996         0.480749995         0.669522285
     0.243599996         0.230749995         0.318530411
     0.750599980         0.693250000         0.168491930
     0.750599980         0.943250000         0.819560766
     0.250600010         0.693250000         0.669622481
     0.250600010         0.943250000         0.318430185
     0.395599991         0.625249982         0.389690965
     0.743600011         0.980750024         0.168391705
     0.743600011         0.730750024         0.819660962
     0.243599996         0.980750024         0.669522285
     0.243599996         0.730750024         0.318530411
     0.737600029         0.212750003         0.278720617
     0.737600029         0.462749988         0.709291995
     0.237599999         0.212750003         0.779851139
     0.237599999         0.462749988         0.208161429
     0.251599997         0.214249998         0.208061203
     0.251599997         0.464249998         0.779951394
     0.751600027         0.214249998         0.709191740
     0.751600027         0.464249998         0.278820843
     0.379599988         0.247299999         0.492162138
     0.737600029         0.712750018         0.278720617
     0.737600029         0.962750018         0.709291995
     0.237599999         0.712750018         0.779851139
     0.237599999         0.962750018         0.208161429
     0.251599997         0.714250028         0.208061203
     0.251599997         0.964250028         0.779951394
     0.751600027         0.714250028         0.709191740
     0.751600027         0.964250028         0.278820843
     0.379599988         0.747300029         0.492162138
     0.755700290         0.593041718         0.934510946
     0.755700290         0.843041718         0.053541720
     0.395599991         0.875249982         0.562550724
     0.395599991         0.125249997         0.425502002
     0.887046218         0.302395493         0.934510946
     0.887046218         0.552395523         0.053541720
     0.752699971         0.256300002         0.118008047
     0.752699971         0.006300000         0.870104790
     0.252700001         0.256300002         0.619138598
     0.252700001         0.006300000         0.368974239
     0.760699987         0.094800003         0.147474527
     0.760699987         0.344799995         0.840638280
     0.260699987         0.094800003         0.648605049
     0.260699987         0.344799995         0.339507759
     0.972599983         0.277300000         0.200393915
     0.972599983         0.027300000         0.787718892
     0.472600013         0.277300000         0.701524436
     0.472600013         0.027300000         0.286588371
     0.518599987         0.150800005         0.199892774
     0.518599987         0.400799990         0.788220048
     0.018600000         0.150800005         0.701023340
     0.018600000         0.400799990         0.287089497
     0.887700021         0.125300005         0.946877956
     0.887700021         0.375299990         0.041234843
     0.387699991         0.375299990         0.542365372
     0.759700000         0.430350006         0.118418969
     0.759700000         0.180350006         0.869713902
     0.259700000         0.430350006         0.619549513
     0.259700000         0.180350006         0.368583351
     0.501699984         0.412299991         0.200093225
     0.501699984         0.162300006         0.788019598
     0.001700000         0.412299991         0.701223791
     0.001700000         0.162300006         0.286889046
     0.982699990         0.016850000         0.200313732
     0.982699990         0.266849995         0.787839174
     0.482699990         0.016850000         0.701444268
     0.482699990         0.266849995         0.286708623
     0.182600006         0.444299996         0.110711582
     0.182600006         0.194299996         0.877441347
     0.682600021         0.444299996         0.611842155
     0.752699971         0.756299973         0.118008047
     0.752699971         0.506299973         0.870104790
     0.252700001         0.756299973         0.619138598
     0.252700001         0.506299973         0.368974239
     0.760699987         0.594799995         0.147474527
     0.760699987         0.844799995         0.840638280
     0.260699987         0.594799995         0.648605049
     0.260699987         0.844799995         0.339507759
     0.972599983         0.777300000         0.200393915
     0.972599983         0.527300000         0.787718892
     0.472600013         0.777300000         0.701524436
     0.472600013         0.527300000         0.286588371
     0.518599987         0.650799990         0.199892774
     0.518599987         0.900799990         0.788220048
     0.018600000         0.650799990         0.701023340
     0.018600000         0.900799990         0.287089497
     0.387699991         0.625299990         0.445747435
     0.759700000         0.930350006         0.118418969
     0.759700000         0.680350006         0.869713902
     0.259700000         0.930350006         0.619549513
     0.259700000         0.680350006         0.368583351
     0.501699984         0.912299991         0.200093225
     0.501699984         0.662299991         0.788019598
     0.001700000         0.912299991         0.701223791
     0.001700000         0.662299991         0.286889046
     0.982699990         0.516849995         0.200313732
     0.982699990         0.766849995         0.787839174
     0.482699990         0.516849995         0.701444268
     0.482699990         0.766849995         0.286708623
     0.682600021         0.694299996         0.376310766
     0.600022376         0.044343472         0.584037304
     0.600022376         0.294343442         0.404015362
     0.659024537         0.377814770         0.596995473
     0.595564783         0.627789438         0.356188893
     0.748496056         0.044343472         0.584037304
     0.748496056         0.294343442         0.404015362
