Build from BT.h.06.00.cif

1972 atoms
9 atom types
1015 bonds
3 bond types
536 angles
3 angle types
1 impropers
1 improper types

0.0 20.680181  xlo xhi
0.0 18.680113  ylo yhi
0.0 55.345505  zlo zhi
-12.247265  0.000000  0.000000 xy xz yz

Masses

  1    28.085500  # st
  2    40.078000  # cah
  3    15.999400  # ob
  4    15.999400  # oh
  5     1.007940  # ho
  6    15.999400  # o*
  7     1.007940  # h*
  8    15.999400  # oc
  9    12.010700  # co

Atoms

    1 536   1   2.1000   7.980619287862   3.773528500734   2.723920001969 # st
    2   6   1   2.1000   6.092819288290   4.200108500068  21.758460001843 # st
    3 537   1   2.1000   4.499019288149   0.896910499610  17.164260001722 # st
    4 538   1   2.1000   2.180619287326   6.382268500954   7.351189998652 # st
    5  17   1   2.1000   6.513519287216   5.329258501355   0.583240001264 # st
    6  18   1   2.1000  -3.273740712685  18.475378500109  23.711959997963 # st
    7   3   1   2.1000   3.599219287274   3.084188500352  15.148360001608 # st
    8   4   1   2.1000   4.992919287336   2.025648499790   9.604659999473 # st
    9 539   1   2.1000   5.747719286537   7.260398500340   2.936560001662 # st
   10 540   1   2.1000   7.921419286120   1.831088501462  21.674560001323 # st
   11 541   1   2.1000   2.152219287377   4.541588501047  17.502759997594 # st
   12 542   1   2.1000   3.876119287098   3.906098500129   7.266210002544 # st
   13 543   2   1.0500   7.523319287455   3.871168500239   5.990059997608 # cah
   14 544   2   1.0500   5.641319286267   4.314258501142  18.468259997794 # cah
   15 545   2   1.0500   4.563919288330   1.291878500005  20.581359999342 # cah
   16 546   2   1.0500   2.310219286944   7.132908499847   4.089759999609 # cah
   17 547   2   1.0500   4.558119287809   3.943288500450   4.341770002414 # cah
   18 548   2   1.0500   2.561119286608   4.431798500060  20.698959999847 # cah
   19 549   2   1.0500   7.916019287069   1.144508500896  18.580660000271 # cah
   20 550   2   1.0500   5.615319286761   6.852058499623   6.257440000712 # cah
   21 551   2   1.0500   2.615919287408   0.810636500967  12.386260002375 # cah
   22 552   3  -1.0500   7.334919286766   4.282338500759   1.390040002506 # ob
   23 553   3  -1.0500  -2.496670713054  17.481578500698  22.874060001285 # ob
   24 554   3  -1.0500   4.258119287188   1.853668501238  15.855360002402 # ob
   25 555   3  -1.0500   5.727319288254   0.822890500243   8.734660002629 # ob
   26 556   3  -1.0500   8.804719287861   2.439408499887   2.506669998406 # ob
   27 557   3  -1.0500   7.075519286808   3.064538500631  22.174060000389 # ob
   28 558   3  -1.0500  -6.959410712579  18.208278499771  16.773359999339 # ob
   29 559   3  -1.0500   2.996519285911   5.107728501034   7.783659999056 # ob
   30 560   3  -1.0500   8.909429999894   4.732478499708   3.494090001102 # ob
   31 561   3  -1.0500  -0.841270713022  17.595078501078  21.028160002653 # ob
   32 562   3  -1.0500   5.278419287255   1.745698499953  18.267859999757 # ob
   33 563   3  -1.0500   7.126719287764   1.053760501171   6.620119999584 # ob
   34 564   3  -1.0500   6.756019287770   3.322748500555   3.727090001669 # ob
   35 565   3  -1.0500   4.952819287608   3.679628500884  20.852360002519 # ob
   36 566   3  -1.0500   3.148419287019   0.450629500110  17.747560003049 # ob
   37 567   3  -1.0500   0.994949286157   5.952038500883   6.448879998657 # ob
   38   1   4  -0.9500  -4.628830712060  17.857078499848  24.295259999290 # oh
   39   2   4  -0.9500   5.157119287654   4.517558500441   0.000000000000 # oh
   40 568   3  -1.0500   3.810919286694   1.504428500994  10.413459999104 # ob
   41 569   3  -1.0500   2.682219287183   2.542858500309  14.049560003029 # ob
   42 570   3  -1.0500   6.025819286314   6.369528501170   1.601509998215 # ob
   43 571   3  -1.0500   8.672819287237   1.110248500630  22.847559997717 # ob
   44 572   3  -1.0500   2.730719287328   3.883638501401  16.225860000180 # ob
   45 573   3  -1.0500   4.371519287486   3.032698499702   8.541660003062 # ob
   46 574   3  -1.0500   5.179619286101   6.365938500956   3.985559998277 # ob
   47 575   3  -1.0500   7.035219287123   0.714143499646  20.981460002066 # ob
   48 576   3  -1.0500   1.217699287089   3.612078500726  18.399060001487 # ob
   49 577   3  -1.0500   3.070719288104   3.012388499822   6.305390001675 # ob
   50 578   3  -1.0500  10.975000000012   1.725108500119   3.758749999533 # ob
   51 579   3  -1.0500   8.968819286896   2.279128500755  20.614459998703 # ob
   52 580   3  -1.0500  -5.049090713105  17.356478501148  18.241559998242 # ob
   53 581   3  -1.0500   5.074119287066   4.527918500615   6.530829999917 # ob
   54   3   4  -0.9500   4.750619287706   4.079298500617  14.729259997578 # oh
   55   3   5   0.4250   5.718619286623   3.767288500420  14.425160000575 # ho
   56   4   4  -0.9500   6.077319286978   2.875818499747  10.458259999560 # oh
   57   4   5   0.4250   6.332219286753   3.813458500073  10.138759999460 # ho
   58  55   6  -0.8476   4.293219287278   1.834908500570  54.619759998180 # o*
   59  55   7   0.4238   4.421319286349   2.799698500724  54.874860001430 # h*
   60  55   7   0.4238   5.181919286173   1.591868501100  54.198159998930 # h*
   61  56   6  -0.8476   0.356029287271   7.917078500727  23.063860001215 # o*
   62  56   7   0.4238   0.293849286408   7.971788500850  24.097259998214 # h*
   63  56   7   0.4238  -0.565070712751   8.072598500637  22.715460000585 # h*
   64  57   6  -0.8476   7.487019287241   1.509838500909  16.106160003026 # o*
   65  57   7   0.4238   7.014619287838   1.907108500234  15.292060001575 # h*
   66  57   7   0.4238   7.797319286678   2.392348501180  16.526760003081 # h*
   67  58   6  -0.8476   7.694019285790   4.756388501134   9.326360001620 # o*
   68  58   7   0.4238   8.434719287673   5.205258500824   9.841360002042 # h*
   69  58   7   0.4238   7.729619286163   5.257588501337   8.412319997731 # h*
   70  59   6  -0.8476   4.453019287659   5.801108499954  11.088260001473 # o*
   71  59   7   0.4238   3.758319287802   5.395308499623  11.731660002559 # h*
   72  59   7   0.4238   3.888519287668   5.830508500749  10.258760002459 # h*
   73  60   6  -0.8476  -8.134863713205  18.143378499714  13.940560002241 # o*
   74  60   7   0.4238  -7.975912712213  17.197278500239  13.572859999995 # h*
   75  60   7   0.4238  -8.034043712139  18.204978500845  14.933760001722 # h*
   76  61   6  -0.8476   7.944919286244   5.448738501023  12.745560001423 # o*
   77 115   7   0.4238   1.991119286802   3.978878500499  11.140559998657 # h*
   78 115   7   0.4238   2.497019287565   2.865738501396  10.084159998039 # h*
   79  62   6  -0.8476   6.214034387808   0.077865205419  12.106160002651 # o*
   80  62   7   0.4238   5.486419287372   0.284541500700  12.775659997665 # h*
   81  62   7   0.4238  -6.347700713369  17.829478499827  11.810459997777 # h*
   82  63   6  -0.8476   2.502819286308   4.672228501025  12.501559998644 # o*
   83  63   7   0.4238   2.521419287047   3.798128500712  12.982859999081 # h*
   84  63   7   0.4238   2.256319288294   5.395788500078  13.201659997799 # h*
   85   1   5   0.4250  -4.579240713336  17.915978499820  25.354859999545 # ho
   86   2   5   0.4250   4.226119287516   4.948348500421  55.215260002966 # ho
   87   5   1   2.1000   3.919119287884   9.777278499842   2.991289998605 # st
   88 582   1   2.1000   2.017819286659  10.510578500504  21.796660000972 # st
   89 583   1   2.1000   0.455229286887   7.143978501238  17.171059999568 # st
   90 584   1   2.1000  -1.865180711460  12.733278499829   7.206889998061 # st
   91   9   1   2.1000  -0.409670714314   9.181938501429  14.970159998979 # st
   92  10   1   2.1000   0.877989287232   8.287098499973   9.405359998891 # st
   93   7   1   2.1000   1.536149287314  13.756378499784   2.892670003075 # st
   94   8   1   2.1000   3.748219286812   7.903428501092  21.775960001589 # st
   95 585   1   2.1000  -2.125680712619  10.774778501050  16.964060000204 # st
   96 586   1   2.1000  -0.235220712277  10.197578501004   7.180600003013 # st
   97 587   2   1.0500   3.290819287998   9.850268500177   6.442759997829 # cah
   98 588   2   1.0500   1.487109286422  10.558278500440  18.476159998628 # cah
   99 589   2   1.0500   0.696989287611   7.695338500441  20.623359998732 # cah
  100 590   2   1.0500  -1.684310712856  13.246578500454   3.713999998207 # cah
  101 591   2   1.0500   0.427469286870  10.248778500367   3.804959998687 # cah
  102 592   2   1.0500  -1.488260713779  10.690678501464  20.483459999025 # cah
  103 593   2   1.0500   3.783619287284   7.522378500181  18.067860000292 # cah
  104 594   2   1.0500   1.638319286405  13.163178500754   6.034130001917 # cah
  105 595   2   1.0500  -0.414440712115   6.621118500575  12.526860000965 # cah
  106   5   4  -0.9500   3.193919287722  10.196678500617   1.639220001446 # oh
  107   6   4  -0.9500   5.439719286850   4.853488499660  23.091659998755 # oh
  108 596   3  -1.0500   0.115279287157   8.052388501008  15.896859999427 # ob
  109 597   3  -1.0500   1.621919286613   7.226238500324   8.563060001328 # ob
  110 598   3  -1.0500   4.686519288225   8.427828499634   2.667699998865 # ob
  111 599   3  -1.0500   2.803919287888   9.151468500009  22.012760002417 # ob
  112 600   3  -1.0500   1.251219287073   5.811618501437  16.948360002330 # ob
  113 601   3  -1.0500  -1.023420712024  11.509078500481   7.636530000135 # ob
  114 602   3  -1.0500   4.914570000969  10.848078499733   3.510900002898 # ob
  115 603   3  -1.0500   6.948319287563   5.253128500999  21.076759997835 # ob
  116 604   3  -1.0500   1.285569287395   8.038928500541  18.127059999115 # ob
  117 605   3  -1.0500   3.127219287624   7.377078500466   6.519270000812 # ob
  118 606   3  -1.0500   2.817819288366   9.527898499808   4.044609999711 # ob
  119 607   3  -1.0500   0.848769287204  10.246278499708  20.802659998814 # ob
  120 608   3  -1.0500  -0.820390713431   6.684368501170  17.827460001256 # ob
  121 609   3  -1.0500  -3.250330713053  12.280878500449   6.756759999590 # ob
  122 610   3  -1.0500   0.058289287785   7.619478500575  10.479659997826 # ob
  123 611   3  -1.0500  -1.090820712215   8.577658499675  13.714659999831 # ob
  124   7   4  -0.9500   2.055319286435  13.134678500346   1.473270001407 # oh
  125   8   4  -0.9500   4.478419286607   7.593318500051  23.156760000023 # oh
  126 612   3  -1.0500  -1.492710714125  10.099878500974  15.689259999439 # ob
  127 613   3  -1.0500   0.186149286800   9.316138501358   8.459789998196 # ob
  128 614   3  -1.0500   0.779669286847  12.672878499836   3.674220001125 # ob
  129 615   3  -1.0500   3.016019287203   6.753188500586  21.174460001633 # ob
  130 616   3  -1.0500  -3.034170714122   9.681538501360  17.575459999383 # ob
  131 617   3  -1.0500  -1.155480714218   9.294608501411   6.342309997628 # ob
  132 618   3  -1.0500   7.039979999712   7.904808500065   3.386029999447 # ob
  133 619   3  -1.0500   4.804119287403   8.483738500896  20.710260002371 # ob
  134 620   3  -1.0500   3.279419287030   4.976078500955  18.420360001494 # ob
  135 621   3  -1.0500   1.035199288390  10.604378500104   6.460020002859 # ob
  136   9   4  -0.9500   0.866939287086  10.092278500617  14.557859998330 # oh
  137   9   5   0.4250   1.563799286976   9.837708500097  13.836060000597 # ho
  138  10   4  -0.9500   2.147519286749   9.109688500706  10.218959997978 # oh
  139  10   5   0.4250   2.415219287308  10.044558499883   9.813160000396 # ho
  140  64   6  -0.8476   0.503599288160   9.930948499788   0.839399998237 # o*
  141  64   7   0.4238   1.465559286640  10.166178500803   1.104990000402 # h*
  142  64   7   0.4238   0.540099286314   9.244548500794   0.072309998617 # h*
  143  65   6  -0.8476  -4.467260713941   7.368208500850  24.896860003039 # o*
  144  65   7   0.4238  -4.002610711693   7.773018500009  25.716860001400 # h*
  145  65   7   0.4238  15.237919998847   7.474068501145  25.150560002989 # h*
  146  66   6  -0.8476   4.101019287805   6.549268500854  15.603960001153 # o*
  147  66   7   0.4238   4.262319287175   5.573898501097  15.367360002378 # h*
  148  66   7   0.4238   4.510319287524   7.139508501436  14.848960000266 # h*
  149  67   6  -0.8476   2.872219285991  11.277478501274   9.104060002953 # o*
  150  67   7   0.4238   2.524319288343  12.145578499632   9.482160001254 # h*
  151  67   7   0.4238   3.227419287766  11.631578500990   8.169390000677 # h*
  152  68   6  -0.8476  -0.760560713123  11.407178501139  10.399559997567 # o*
  153  68   7   0.4238  -0.804020712790  11.622978499995   9.406860000450 # h*
  154  68   7   0.4238  -1.437970712613  10.692478500369  10.528360002336 # h*
  155  69   6  -0.8476   1.669119287594   6.394808500236  14.148860001111 # o*
  156  69   7   0.4238   1.783319288489   6.168218499943  15.137459997655 # h*
  157  69   7   0.4238   2.080919288295   7.287488499644  14.017959999693 # h*
  158  70   6  -0.8476   2.447619287340   8.600688499644  12.907559998278 # o*
  159 124   7   0.4238  -5.456730712802   9.713218499647  11.558559999698 # h*
  160 124   7   0.4238  -5.830610712546  10.420878499967  12.997459999502 # h*
  161  71   6  -0.8476   4.885219287657   8.837388500418  10.734559999023 # o*
  162  71   7   0.4238   3.975919287326   8.649748499624  10.335959997859 # h*
  163  71   7   0.4238   5.299619287397   9.721998500345  10.434159998487 # h*
  164  72   6  -0.8476  -2.609980713260   9.750258500526  11.932759999478 # o*
  165  72   7   0.4238  -3.560170712523   9.849628500816  12.307959998453 # h*
  166  72   7   0.4238  -2.153270714251   9.186718501448  12.669159997631 # h*
  167 622   1   2.1000  -0.287900711505  16.274678499854   2.814599998469 # st
  168 623   1   2.1000  -1.910520712643  16.677878501145  21.663360002593 # st
  169 624   1   2.1000  -3.812390712483  13.364878499782  17.004159999463 # st
  170 625   1   2.1000   6.282564387635   0.061265206801   7.430800003014 # st
  171  31   1   2.1000  -1.104330711773  18.226878499664   0.771839999947 # st
  172  32   1   2.1000   0.593449287455  12.180178500377  23.994060001611 # st
  173  13   1   2.1000  -4.246890712170  15.507378499951  15.096359999201 # st
  174  14   1   2.1000  -2.860200712282  14.586478500089   9.524259998902 # st
  175 626   1   2.1000   9.752119286753   1.257488501094   2.942260002054 # st
  176 627   1   2.1000  -0.525490712624  13.950378500071  21.750959999580 # st
  177 628   1   2.1000  -6.073790711828  16.959978499829  17.151160002862 # st
  178 629   1   2.1000  -4.160750712532  16.308978499847   7.410589999529 # st
  179 630   2   1.0500  -0.672280714092  16.084278501113   5.921199999811 # cah
  180 631   2   1.0500  -2.512560713590  16.709978501231  18.220960002653 # cah
  181 632   2   1.0500  -3.801620713570  13.661578501415  20.128860001174 # cah
  182 633   2   1.0500   6.605819286214   0.847461501214   4.104469999221 # cah
  183 634   2   1.0500  -3.766420712407  16.709078500844   4.303219998309 # cah
  184 635   2   1.0500  -5.451600713467  17.011978501197  20.596560000386 # cah
  185 636   2   1.0500  -0.526460712751  13.699578501337  18.143160001095 # cah
  186 637   2   1.0500   9.707119287427   0.672380501114   6.391799998348 # cah
  187 638   2   1.0500  -4.655250711931  12.974978500052  12.592660001115 # cah
  188 639   3  -1.0500  -0.579140712946  16.979078500975   1.446369999268 # ob
  189 640   3  -1.0500   1.511719287850  11.238878499850  23.117459997906 # ob
  190 641   3  -1.0500  -4.146810713506  14.036378500680  15.698060001209 # ob
  191 642   3  -1.0500  -2.048320711780  13.632578499755   8.502759999516 # ob
  192 643   3  -1.0500   0.514369287156  14.919778500005   2.610940000733 # ob
  193 644   3  -1.0500  -1.249140712081  15.327078500358  22.223159997936 # ob
  194 645   3  -1.0500  -3.018860713399  12.031778500369  16.642359999661 # ob
  195 646   3  -1.0500  -5.109320713660  17.501178501228   7.855259997857 # ob
  196 647   3  -1.0500   0.633959286621  17.175478499802   3.762340002343 # ob
  197 648   3  -1.0500   3.027419287603  11.491878500359  21.114859998704 # ob
  198 649   3  -1.0500  -2.933390712668  14.298278501068  17.921160002740 # ob
  199 650   3  -1.0500  -1.029920713591  13.569478500470   6.131749998253 # ob
  200 651   3  -1.0500  -1.621770712417  16.011578500197   3.559679998267 # ob
  201 652   3  -1.0500  -2.980750712004  16.259078500005  20.646760000922 # ob
  202 653   3  -1.0500  -5.100540712175  12.950478500324  17.875959998179 # ob
  203 654   3  -1.0500  -7.166320712039  18.344278500474   6.544099998032 # ob
  204  11   4  -0.9500  -0.329100713462  11.366178501174  24.992060000548 # oh
  205  12   4  -0.9500  -1.806200712041  17.736378500113  54.690659998098 # oh
  206 655   3  -1.0500  -3.727660713354  13.699278500585  10.513160001292 # ob
  207 656   3  -1.0500  -4.605760713021  15.450678499886  13.611160002917 # ob
  208 657   3  -1.0500  10.259419286218   0.392267500477   1.698929998032 # ob
  209 658   3  -1.0500  -0.266270712033  12.997978499759  22.981260000201 # ob
  210 659   3  -1.0500  -5.375820712699  16.318078500227  15.932759999854 # ob
  211 660   3  -1.0500  -3.639880712887  15.568278501196   8.672859999258 # ob
  212 661   3  -1.0500   8.994319287409   0.345293501276   3.901210000056 # ob
  213 662   3  -1.0500  -1.443000713742  13.243578500411  20.669260002176 # ob
  214 663   3  -1.0500  -7.152390712115  15.959378500196  17.741860002658 # ob
  215 664   3  -1.0500  -5.008050713615  15.309878500236   6.502200002436 # ob
  216 665   3  -1.0500   2.824620000054  14.249378499994   3.588049999167 # ob
  217 666   3  -1.0500   0.826869288116  14.305978499808  21.074260002615 # ob
  218 667   3  -1.0500  -1.014540713743  11.034378501280  18.019559999887 # ob
  219 668   3  -1.0500  -3.003630712756  16.930178499901   6.554659997942 # ob
  220  13   4  -0.9500  -2.865930711767  16.283078500348  15.419460003044 # oh
  221  13   5   0.4250  -2.611270712496  17.024778499636  14.732059998644 # ho
  222  14   4  -0.9500  -1.742400712397  15.356578501403  10.446360001947 # oh
  223  14   5   0.4250  -1.287030713258  14.780678500877  11.173659998018 # ho
  224  73   6  -0.8476  -5.529050712646  14.449978500002  54.147259999512 # o*
  225  73   7   0.4238  -5.249660713218  13.495778500785  53.918759998089 # h*
  226  73   7   0.4238  -6.469310713317  14.284878501125  54.478060002137 # h*
  227  74   6  -0.8476  -7.208860714146  17.795678501086  24.727160001868 # o*
  228  74   7   0.4238  -6.188860713489  17.864678500206  24.711660000512 # h*
  229  74   7   0.4238  -7.521983713117  17.852278500900  25.686260002793 # h*
  230  75   6  -0.8476  -0.500070712980  13.876378499634  15.727059999997 # o*
  231  75   7   0.4238   0.132069286252  13.600778500420  14.935360001541 # h*
  232  75   7   0.4238  -0.420650712391  14.838278501328  16.006760001150 # h*
  233  76   6  -0.8476  -2.631500712823  18.431278499851   8.907159999332 # o*
  234  76   7   0.4238  -3.272930712372  18.590178500010   9.684559997680 # h*
  235  76   7   0.4238  -1.734260711724  18.347978500402   9.405460002685 # h*
  236  77   6  -0.8476  -6.009250711985  16.710978500000  10.163460001156 # o*
  237  77   7   0.4238  -5.791510712318  17.124178500188   9.266860002485 # h*
  238  77   7   0.4238  -5.103190712177  16.842178499886  10.613660000622 # h*
  239  78   6  -0.8476  -2.530640712860  12.074478500856  13.480159997705 # o*
  240  78   7   0.4238  -2.078280712904  12.076678500763  14.408960000336 # h*
  241  78   7   0.4238  -2.409740712982  11.169678500229  13.003559998464 # h*
  242  79   6  -0.8476  -3.815780711455  16.789278500000  11.522059998648 # o*
  243 133   7   0.4238  -9.968540712211  16.501078500979  11.677960002075 # h*
  244 133   7   0.4238 -11.209360712706  17.604378500090  11.552360002477 # h*
  245  80   6  -0.8476  -0.491730712739  13.367578500941  12.183659998362 # o*
  246  80   7   0.4238  -0.400060712197  12.538078500271  11.570659999364 # h*
  247  80   7   0.4238  -1.136220712998  13.009678501047  12.854159998105 # h*
  248  81   6  -0.8476  -7.318840712509  15.886078499645  12.951960000163 # o*
  249  81   7   0.4238  -6.325570713324  15.716578500954  13.091060002727 # h*
  250  81   7   0.4238  -7.495920713744  15.242878500522  12.216160002634 # h*
  251  11   5   0.4250   0.245599286775  10.669478500662  25.528060000665 # ho
  252  12   5   0.4250  -2.704810711549  17.258978499752  54.984560001101 # ho
  253 669   1   2.1000  15.095009999882   3.778418500468   2.642829997914 # st
  254  22   1   2.1000  12.822274000540   4.105578500320  21.717160001336 # st
  255 670   1   2.1000  11.309019286519   1.046339501130  17.194059997652 # st
  256 671   1   2.1000   9.251449999136   6.625628500105   7.151849999873 # st
  257  39   1   2.1000  14.049830000238   5.777418499827   0.474399998798 # st
  258  40   1   2.1000   3.393049999408  18.398478499880  23.932159999981 # st
  259  19   1   2.1000  10.457669999029   3.128718500006  14.987260000154 # st
  260  20   1   2.1000  12.333856899141   2.433118500382   9.304959997820 # st
  261 672   1   2.1000  12.584352999680   7.369358500929   2.663189998788 # st
  262 673   1   2.1000  14.552259999596   1.560448500102  21.676659997972 # st
  263 674   1   2.1000   9.104509998944   4.768458501294  17.207659998878 # st
  264 675   1   2.1000  10.849969999841   3.960838500514   7.069609999234 # st
  265 676   2   1.0500  14.267149999012   3.747438500198   5.883600001306 # cah
  266 677   2   1.0500  12.662277000159   4.273898500539  18.574160002738 # cah
  267 678   2   1.0500  11.246379999383   1.320008499673  20.615459997898 # cah
  268 679   2   1.0500   9.466310000563   7.080948500074   3.499279998196 # cah
  269 680   2   1.0500  11.462853999768   3.959448500208   3.618549999515 # cah
  270 681   2   1.0500   9.317499998407   4.592978501447  20.570259998871 # cah
  271 682   2   1.0500  14.537989999733   1.264038499756  18.216459997974 # cah
  272 683   2   1.0500  12.392224998465   7.021228501037   5.698169999463 # cah
  273 684   2   1.0500  10.382219286179   0.899071501044  12.416059998305 # cah
  274 685   3  -1.0500  14.730079999806   4.668258500607   1.328150001808 # ob
  275 686   3  -1.0500   4.423079998972  17.445778500684  23.129360001053 # ob
  276 687   3  -1.0500  10.796220000287   1.901728500581  16.000960002500 # ob
  277 688   3  -1.0500  12.601346998641   1.019968501255   8.675759998583 # ob
  278 689   3  -1.0500  15.845819999290   2.417678501306   2.320940001785 # ob
  279 690   3  -1.0500  13.598299999527   2.766338500844  21.966760000713 # ob
  280 691   3  -1.0500  -0.000000000000  18.520778499888  16.751459998708 # ob
  281 692   3  -1.0500  10.190969999760   5.458828500707   7.412620000717 # ob
  282 693   3  -1.0500  15.992580000188   4.656598500913   3.539960001748 # ob
  283 694   3  -1.0500   5.756669999934  17.633778500885  20.889159998348 # ob
  284 695   3  -1.0500  12.135265001085   2.065738499903  18.144259998549 # ob
  285 696   3  -1.0500  14.173419998046   1.193348501446   6.727010002790 # ob
  286 697   3  -1.0500  13.753530000089   3.462668500616   3.329170003056 # ob
  287 698   3  -1.0500  11.578816999934   3.776528500777  20.935460000363 # ob
  288 699   3  -1.0500  10.076519287636   0.448663500378  17.956760002855 # ob
  289 700   3  -1.0500   7.775519285595   6.067908501409   6.846440002430 # ob
  290  15   4  -0.9500   2.293500001296  17.501278499610  24.619060002016 # oh
  291  16   4  -0.9500  13.026832998226   5.167808501347  54.821259999205 # oh
  292 701   3  -1.0500  11.729624999915   2.290688500198  10.760560000227 # ob
  293 702   3  -1.0500   9.641419287600   2.733908499745  13.763560000860 # ob
  294 703   3  -1.0500  13.365179998276   6.717688501323   1.474980000417 # ob
  295 704   3  -1.0500  14.885109999397   0.643725500598  22.957260002922 # ob
  296 705   3  -1.0500   9.716199999030   4.225788500136  15.863159999442 # ob
  297 706   3  -1.0500  11.357408000813   3.281658499805   8.347090000941 # ob
  298 707   3  -1.0500  11.765173000090   6.349608500959   3.435170000725 # ob
  299 708   3  -1.0500  13.951119999952   0.638079499867  20.481259998583 # ob
  300 709   3  -1.0500   8.069119288106   3.635258500136  17.672459998764 # ob
  301 710   3  -1.0500   9.783019287020   3.116568500393   6.351600000830 # ob
  302 711   3  -1.0500  17.849829998985   1.375038501345   3.358789998799 # ob
  303 712   3  -1.0500  15.968479999353   2.172638500562  21.214659999152 # ob
  304 713   3  -1.0500   1.718799999845  17.380778500375  18.211359998206 # ob
  305 714   3  -1.0500  11.993454999027   4.343408500376   6.152039998132 # ob
  306  17   4  -0.9500   7.210619286764   5.958238499602  54.627959999326 # oh
  307  17   5   0.4250   7.875999998335   6.772398501447  54.731560000034 # ho
  308  18   4  -0.9500   9.878519286986   0.159918299834  24.933260000296 # oh
  309  18   5   0.4250  -1.737030712126  18.120578500508  25.330159997848 # ho
  310  19   4  -0.9500  11.855955999360   3.610608500966  14.409560000959 # oh
  311  19   5   0.4250  12.377057998390   3.031098501298  13.729959999135 # ho
  312  20   4  -0.9500  13.719799999388   3.226668499727   9.397960000422 # oh
  313  20   5   0.4250  14.004989999171   3.818378500068  10.189659998878 # ho
  314  82   6  -0.8476  10.950739998789   4.296128500372   0.992970000164 # o*
  315  82   7   0.4238  11.812779999523   4.421978500866   0.441510002423 # h*
  316  82   7   0.4238  10.360069999706   3.653228500132   0.470340001956 # h*
  317  83   6  -0.8476   9.964320000796   5.146058500101  24.483459999401 # o*
  318  83   7   0.4238  10.138069998117   6.045368501360  24.015960002242 # h*
  319  83   7   0.4238  10.816899999656   5.199388501251  25.017760001440 # h*
  320  84   6  -0.8476  14.699409998816   0.449308500406  15.091860000057 # o*
  321  84   7   0.4238   3.127539999522  18.375278499672  15.293559997600 # h*
  322  84   7   0.4238  15.158279998985   0.931193500700  14.335359997610 # h*
  323  85   6  -0.8476  11.963829998991   6.630488501444  11.051960002475 # o*
  324  85   7   0.4238  11.508402000278   6.592468500726  10.162160001650 # h*
  325  85   7   0.4238  11.364019999198   6.157568500351  11.727860002298 # h*
  326  86   6  -0.8476   8.299419286909   1.458948499894  11.290859999952 # o*
  327  86   7   0.4238   7.647519286664   2.134398500413  10.919559999497 # h*
  328  86   7   0.4238   7.630119286437   0.759120501335  11.667260000174 # h*
  329  87   6  -0.8476  -3.615790712916  18.430978500968  13.794259997726 # o*
  330  87   7   0.4238   8.173719286332   0.313491501302  14.528360002712 # h*
  331  87   7   0.4238  -4.345070712178  18.217178499650  13.146659997808 # h*
  332  88   6  -0.8476  13.412540000360   1.845078499707  12.397259999053 # o*
  333  61   7   0.4238   8.710519286818   4.922358500136  12.343660002362 # h*
  334  61   7   0.4238   7.662719286759   4.908138501128  13.540759999829 # h*
  335  89   6  -0.8476   3.718429999055  17.304278501148  12.314659998040 # o*
  336  89   7   0.4238   4.068610000299  16.681378500572  11.583459997913 # h*
  337  89   7   0.4238   3.112780000320  16.688178500794  12.861759998628 # h*
  338  90   6  -0.8476  10.060359999101   4.064438500379  11.591260000488 # o*
  339  90   7   0.4238   9.935920001132   3.553998499819  12.451959998732 # h*
  340  90   7   0.4238  10.622650000069   3.398408499920  11.041460002628 # h*
  341  15   5   0.4250   2.630779999712  17.050478500503  25.514759999751 # ho
  342  16   5   0.4250  13.079991000044   4.171838500422  54.558460002708 # ho
  343  21   1   2.1000  11.014539999361  10.051618501130   2.414109998107 # st
  344  28   1   2.1000   8.850349999531  10.636378499939  21.821859999499 # st
  345 715   1   2.1000   7.258519286983   7.335268500901  17.262460002351 # st
  346 716   1   2.1000   5.052449999155  12.798978500022   7.386290001937 # st
  347  25   1   2.1000   6.256469998361   9.184738500971  14.945860001388 # st
  348  26   1   2.1000   8.752589999568   8.697208501200   9.365460001685 # st
  349  23   1   2.1000   8.441129999239  13.511478500885   2.726600002911 # st
  350  24   1   2.1000  10.421420000498   7.852858499757  21.787660002684 # st
  351 717   1   2.1000   4.821719288327  10.871378500191  17.176060001077 # st
  352 718   1   2.1000   6.870560000467  10.201078500431   7.327039998450 # st
  353 719   2   1.0500  10.247339999051  10.114178501304   5.702650002275 # cah
  354 720   2   1.0500   8.333609999723  10.627478500061  18.619559998283 # cah
  355 721   2   1.0500   7.086789999191   7.646918499822  20.609959999559 # cah
  356 722   2   1.0500   5.233789999954  13.293678500755   3.901609998627 # cah
  357 723   2   1.0500   7.352500000512  10.350778499959   3.704029997988 # cah
  358 724   2   1.0500   5.204650000195  10.980478500757  20.613260002990 # cah
  359 725   2   1.0500  10.635799999345   7.499098500520  18.247060002115 # cah
  360 726   2   1.0500   8.252580000397  13.008078500775   5.904279998823 # cah
  361 727   2   1.0500   6.304119286403   7.223088500839  11.923360002620 # cah
  362  21   4  -0.9500  10.546129999343  10.478878501420   0.961459999689 # oh
  363  22   4  -0.9500  12.530445000674   4.765728499873  23.115660001569 # oh
  364 728   3  -1.0500   6.946070000547   8.103828500599  15.826160001561 # ob
  365 729   3  -1.0500   9.220559998745   7.527728501440   8.490860001903 # ob
  366 730   3  -1.0500  11.772118998502   8.652928501239   2.205319997805 # ob
  367 731   3  -1.0500   9.571829999021   9.217358501239  22.240259999111 # ob
  368 732   3  -1.0500   8.207819286936   6.048958499705  16.892160001091 # ob
  369 733   3  -1.0500   6.071679999630  11.543878499858   7.644459998233 # ob
  370 734   3  -1.0500  11.981953999908  11.072378501201   3.098929999824 # ob
  371 735   3  -1.0500  13.802550000311   5.022358500322  20.908360001706 # ob
  372 736   3  -1.0500   8.067529998818   8.212658500675  18.184760001914 # ob
  373 737   3  -1.0500   9.755829998893   7.532528500388   6.002850000759 # ob
  374 738   3  -1.0500   9.694329999404   9.743378500851   3.243490002530 # ob
  375 739   3  -1.0500   7.558949999278  10.285478500768  21.032259997691 # ob
  376 740   3  -1.0500   6.017319287132   6.869928501237  18.072359999436 # ob
  377 741   3  -1.0500   3.720719287806  12.256278500470   6.930510002204 # ob
  378 742   3  -1.0500   8.185579999657   8.273248499837  10.751059999574 # ob
  379 743   3  -1.0500   5.130619288455   8.426458500125  14.156959998463 # ob
  380  23   4  -0.9500   8.775660000514  12.872778499958   1.254009998521 # oh
  381  24   4  -0.9500  10.858750000845   7.213648499982  23.156159999399 # oh
  382 744   3  -1.0500   5.573880000300  10.256078499973  15.925660001696 # ob
  383 745   3  -1.0500   7.609199999497   9.538578499662   8.485959998654 # ob
  384 746   3  -1.0500   7.585310000378  12.576078500193   3.633799999689 # ob
  385 747   3  -1.0500   9.542969999642   6.895308500554  21.031460000549 # ob
  386 748   3  -1.0500   3.724419288525   9.943088499937  17.731559999329 # ob
  387 749   3  -1.0500   5.866219287735   9.203148499827   6.739570001089 # ob
  388 750   3  -1.0500  13.724999999795   7.944878501249   3.689880000803 # ob
  389 751   3  -1.0500  11.696873999952   8.159358499788  20.954259999615 # ob
  390 752   3  -1.0500  10.092929998959   5.106998500887  18.303960002237 # ob
  391 753   3  -1.0500   7.928040000379  10.587778499617   6.225890002040 # ob
  392  25   4  -0.9500   7.212059999147   9.895878499921  13.993660002102 # oh
  393  25   5   0.4250   8.151099999841   9.547098501203  13.731559998953 # ho
  394  26   4  -0.9500   9.918069998641   9.829598500890   9.596360000068 # oh
  395  26   5   0.4250  10.625399999668   9.670468499969  10.338459998613 # ho
  396  91   6  -0.8476   9.722719999545   6.657448500236   1.047059998287 # o*
  397  91   7   0.4238  10.081919999283   5.711698500704   1.062710002566 # h*
  398  91   7   0.4238   9.989979999686   7.162588500595   0.202820002397 # h*
  399  92   6  -0.8476   4.895709999027  11.454878501075  23.450259998920 # o*
  400  92   7   0.4238   3.917919288415  11.704278500038  23.259660001848 # h*
  401  92   7   0.4238   5.566620000064  12.205878501243  23.420359999196 # h*
  402  93   6  -0.8476  10.093270000239   7.535578499623  15.542359999835 # o*
  403  93   7   0.4238   9.489100000352   6.758318500548  15.294459998536 # h*
  404  93   7   0.4238  10.054459999537   8.178848500602  14.769960002996 # h*
  405  94   6  -0.8476   8.931879999589  12.612678500343   9.640359997848 # o*
  406  94   7   0.4238   8.848980000531  13.012878499723   8.718160002079 # h*
  407  94   7   0.4238   9.161390000039  11.619178499816   9.571160001541 # h*
  408  95   6  -0.8476   5.736330000764  11.427578499936  10.464860000887 # o*
  409  95   7   0.4238   6.139909998239  11.968078501449   9.733660000761 # h*
  410  95   7   0.4238   6.281010000276  11.657378500238  11.292259997718 # h*
  411  96   6  -0.8476   6.942219288181   2.890638500258  13.617860002503 # o*
  412  96   7   0.4238   7.963119286410   2.683048500860  13.618160002815 # h*
  413  96   7   0.4238   6.796219287293   2.912888500888  12.612759999874 # h*
  414  97   6  -0.8476   9.560989998584   8.667308501021  12.944960000265 # o*
  415  70   7   0.4238   3.431419287898   8.596708499761  13.210159999257 # h*
  416  70   7   0.4238   2.451419287925   8.596358499819  11.904859998144 # h*
  417  98   6  -0.8476  12.608625998522   6.298448501322  14.162860000908 # o*
  418  98   7   0.4238  12.196632499407   6.604678500863  15.031159999674 # h*
  419  98   7   0.4238  12.751391000839   5.302588500113  14.310060000824 # h*
  420  99   6  -0.8476   3.512019286656  11.779778500497  12.367560001382 # o*
  421  99   7   0.4238   3.030519286788  10.916478501086  12.272359998338 # h*
  422  99   7   0.4238   4.078319288283  11.814778500375  11.513159998619 # h*
  423  27   1   2.1000   6.867300000052  16.183978500548   2.734849997652 # st
  424 754   1   2.1000   4.906689999361  16.726978500852  21.820460001733 # st
  425 755   1   2.1000   3.205840000630  13.574478499919  17.261659999674 # st
  426 756   1   2.1000  13.183739999160   0.197988701367   7.444360000508 # st
  427  33   1   2.1000   2.753580000489  15.878078500153  15.291859999522 # st
  428  34   1   2.1000   3.965890000679  14.638078500454   9.549260000911 # st
  429  29   1   2.1000  16.521710000529   1.067861500385   2.674740002494 # st
  430  30   1   2.1000   6.622949999193  14.178078500717  21.899260002485 # st
  431 757   1   2.1000   0.684319286219  17.170078501219  17.082260001333 # st
  432 758   1   2.1000   2.583199999172  16.445778500686   7.365009998262 # st
  433 759   2   1.0500   5.976939999819  16.161678500727   6.040720002312 # cah
  434 760   2   1.0500   4.189920000071  16.814378501231  18.384160000755 # cah
  435 761   2   1.0500   3.276459999167  13.853778500930  20.933959998803 # cah
  436 762   2   1.0500  13.226750000712   0.750849500100   4.283769999303 # cah
  437 763   2   1.0500   3.163759999787  16.593578501058   3.875929999601 # cah
  438 764   2   1.0500   1.360800000190  16.806878501124  20.546660000163 # cah
  439 765   2   1.0500   6.408709999755  13.744278501230  18.597959997964 # cah
  440 766   2   1.0500  16.512910000833   0.723474500175   6.039160000690 # cah
  441 767   2   1.0500   1.886219287520  13.853478500178  12.206060001357 # cah
  442  27   4  -0.9500   6.158949998856  16.815078501117   1.307939998323 # oh
  443  28   4  -0.9500   8.593770000816  11.460378499908  23.129960001677 # oh
  444 768   3  -1.0500   3.043489999714  14.466878501241  16.092860002113 # ob
  445 769   3  -1.0500   4.936019999177  13.706878500943   8.667560002972 # ob
  446 770   3  -1.0500   7.608969998585  14.827678500928   2.495219998494 # ob
  447 771   3  -1.0500   5.754079998662  15.386978500966  22.210260001128 # ob
  448 772   3  -1.0500   4.137159999851  12.358378500313  16.820159998184 # ob
  449 773   3  -1.0500   1.730100000938  17.663178499812   7.897720001415 # ob
  450 774   3  -1.0500   7.914969999127  17.172978501011   3.175430001875 # ob
  451 775   3  -1.0500   9.945419999024  11.407678500523  20.983460000456 # ob
  452 776   3  -1.0500   3.998200000412  14.249478500245  18.463759998650 # ob
  453 777   3  -1.0500   5.789570000134  13.550978500828   6.246789997941 # ob
  454 778   3  -1.0500   5.721609999229  15.946478499638   3.756369998903 # ob
  455 779   3  -1.0500   3.620319998832  16.315378500935  21.039259997589 # ob
  456 780   3  -1.0500   1.840419288012  12.930178499908  17.756359999284 # ob
  457 781   3  -1.0500  -0.153050714177  18.574278501276   6.446050000327 # ob
  458 782   3  -1.0500   2.867119286752  13.675078499741  10.045860000652 # ob
  459 783   3  -1.0500   2.622099999855  15.559178500817  13.801960002041 # ob
  460  29   4  -0.9500  16.664010000412   0.204974499599   1.338940001035 # oh
  461  30   4  -0.9500   6.969380000024  13.445078500806  23.335159999169 # oh
  462 784   3  -1.0500   1.568000000546  16.533378499698  15.894160002154 # ob
  463 785   3  -1.0500   3.388179999597  15.695778501154   8.558960000755 # ob
  464 786   3  -1.0500  15.565589999160   0.349207500583   3.683569998854 # ob
  465 787   3  -1.0500   5.934549999473  13.218178500296  20.911860001655 # ob
  466 788   3  -1.0500  -0.275850712436  16.113078500405  17.633560000753 # ob
  467 789   3  -1.0500   1.668719287944  15.451078500888   6.728219999436 # ob
  468 790   3  -1.0500   9.754139999550  13.871978499820   3.427189997963 # ob
  469 791   3  -1.0500   7.965089998812  14.709278501349  21.324860001187 # ob
  470 792   3  -1.0500   5.991060001085  11.296978499685  18.160459998788 # ob
  471 793   3  -1.0500   3.623500001236  16.987478499600   6.348350002063 # ob
  472  31   4  -0.9500  12.381706999118   0.455490500836   0.296130000709 # oh
  473  31   5   0.4250  13.238161998703   0.008819901421  55.233860000166 # ho
  474  32   4  -0.9500   1.305729288156  13.293978499638  24.855660000791 # oh
  475  32   5   0.4250   0.617199286134  13.627778500807  25.606460002846 # ho
  476  33   4  -0.9500   4.047559999082  16.764978500773  15.609660001545 # oh
  477  33   5   0.4250   4.974899999043  16.498278501437  15.193659998894 # ho
  478  34   4  -0.9500   4.802560000008  15.324678499950  10.691659998698 # oh
  479  34   5   0.4250   5.837169999736  15.196378499856  10.677760002695 # ho
  480 100   6  -0.8476   4.659969999412  13.781178500264   1.326900001431 # o*
  481 100   7   0.4238   3.638719998974  13.481378500205   1.346080002923 # h*
  482 100   7   0.4238   4.582630000691  14.707378500326   0.913819999971 # h*
  483 101   6  -0.8476  -0.221190713388  16.991578500531  25.568559998495 # o*
  484 101   7   0.4238  -0.547730712172  16.009978499925  25.538659998771 # h*
  485 101   7   0.4238   0.666779287058  17.057578499608  25.026859997987 # h*
  486 102   6  -0.8476   5.273040000645  12.845378500438  14.198760001335 # o*
  487 102   7   0.4238   4.626949999314  12.259678499647  13.631560001988 # h*
  488 102   7   0.4238   5.238110000170  12.484278499999  15.132760001993 # h*
  489 103   6  -0.8476  15.743169999156   1.233888499885  10.002359999702 # o*
  490 103   7   0.4238  15.085629998941   0.669051501312   9.505960002015 # h*
  491 103   7   0.4238  15.427809999629   2.138148501401   9.654959998268 # h*
  492 104   6  -0.8476  -0.175650713309  18.581178499881  13.718760000404 # o*
  493 104   7   0.4238  12.692476999945   0.592727500508  13.315359999784 # h*
  494 104   7   0.4238   0.220099999428  18.530078500768  14.666060001976 # h*
  495 105   6  -0.8476   1.486629287854  12.734378500716  14.280160001101 # o*
  496 105   7   0.4238   1.421579286009  11.718178501233  14.393459998980 # h*
  497 105   7   0.4238   2.341319286325  12.948278500417  14.762259998680 # h*
  498 106   6  -0.8476   5.992059999721  15.699178500331  14.275960002269 # o*
  499  79   7   0.4238  -2.953070711544  16.346978499769  11.230660001934 # h*
  500  79   7   0.4238  -4.064390713432  16.282678501214  12.389760002325 # h*
  501 107   6  -0.8476   7.215629998919  12.154878500513  12.430460002207 # o*
  502 107   7   0.4238   7.171919999688  11.366278501425  13.068160002902 # h*
  503 107   7   0.4238   6.683519999542  12.839978499987  12.960659998139 # h*
  504 108   6  -0.8476  -0.678090713353  17.784578501301  11.041460002628 # o*
  505 108   7   0.4238  -0.999450711962  16.954778499879  10.530560002779 # h*
  506 108   7   0.4238   0.241579287144  17.668178501128  11.422559998512 # h*
  507  35   1   2.1000   1.359699287463   3.807948499907   2.885230000874 # st
  508  44   1   2.1000  -0.852280712416   4.276988501368  21.693759999146 # st
  509 794   1   2.1000  18.240849999681   0.952916499841  17.147760001172 # st
  510 795   1   2.1000  15.948369999768   6.553988500349   7.078480001999 # st
  511  41   1   2.1000  17.417899999253   2.950898500274  14.940259999256 # st
  512  42   1   2.1000  -1.594900712234   2.473678499618   9.090359997934 # st
  513  37   1   2.1000  -1.206050712337   7.308808499626   2.820320000726 # st
  514  38   1   2.1000   0.977399286166   1.792678501074  21.718060002272 # st
  515 796   1   2.1000  15.851010000241   4.610688500418  17.024159999963 # st
  516 797   1   2.1000  17.487839999655   3.913438501330   6.978939998132 # st
  517 798   2   1.0500   0.450639286838   3.722748501302   6.370780002322 # cah
  518 799   2   1.0500  -1.324520712373   4.280618501308  18.474960002914 # cah
  519 800   2   1.0500  18.342560000510   1.360018500333  20.274259999219 # cah
  520 801   2   1.0500  -4.489140713647   7.136618501108   3.724300001536 # cah
  521 802   2   1.0500  -2.344740711761   3.896678500069   3.838760002466 # cah
  522 803   2   1.0500  16.256409999212   4.543868500407  20.256360000903 # cah
  523 804   2   1.0500   0.787949286879   1.249438500543  18.288559999140 # cah
  524 805   2   1.0500  -1.326970712704   6.863948500080   6.221980002587 # cah
  525 806   2   1.0500  17.293669999253   0.824551500425  11.815960001650 # cah
  526  35   4  -0.9500   0.568459287627   4.198708500297   1.443080002304 # oh
  527  36   4  -0.9500  -9.147669713016  17.355678501012  22.928760000964 # oh
  528 807   3  -1.0500  17.771069999313   1.712898499982  15.829060000887 # ob
  529 808   3  -1.0500  19.550450000781   1.074589499978   8.402500000436 # ob
  530 809   3  -1.0500   2.304219288212   2.557058500388   2.501190001933 # ob
  531 810   3  -1.0500   0.191379286580   3.152948501113  21.997459997579 # ob
  532 811   3  -1.0500   6.697520000600  18.244878499922  16.905160001693 # ob
  533 812   3  -1.0500  16.641250000570   5.158138499726   7.398970000362 # ob
  534 813   3  -1.0500   2.210519287471   4.947318501390   3.435279999917 # ob
  535 814   3  -1.0500  -7.902784712988  17.364778501392  20.633760000320 # ob
  536 815   3  -1.0500  19.194019999963   1.808888500024  18.115760002126 # ob
  537 816   3  -1.0500   0.100209288476   1.299628499805   6.239379998539 # ob
  538 817   3  -1.0500   0.276179288015   3.386338499760   3.888549997963 # ob
  539 818   3  -1.0500  -2.063960712596   3.704658500258  20.873060001902 # ob
  540 819   3  -1.0500  16.939809999789   0.603329499681  17.935359999055 # ob
  541 820   3  -1.0500  14.672809999701   6.249958500715   6.212900002371 # ob
  542 821   3  -1.0500  18.794109999474   2.289958500050  10.571360000921 # ob
  543 822   3  -1.0500  16.768489999220   2.353368501419  13.595060000937 # ob
  544  37   4  -0.9500  -0.742650712461   6.423068500417   1.535129999306 # oh
  545  38   4  -0.9500   1.151629287563   1.051636501305  23.103560001903 # oh
  546 823   3  -1.0500  16.476099998569   3.922168500969  15.758859999851 # ob
  547 824   3  -1.0500  17.913020000161   3.035098500110   8.240840002089 # ob
  548 825   3  -1.0500  -1.956570713404   6.406518500989   3.819770002093 # ob
  549 826   3  -1.0500   0.065749287388   0.977194501367  20.770060001818 # ob
  550 827   3  -1.0500  14.895229999907   3.722598499992  17.792259999711 # ob
  551 828   3  -1.0500  16.556469999464   3.062598499881   6.034370002167 # ob
  552 829   3  -1.0500   4.342619287109   1.486798499608   3.742090000661 # ob
  553 830   3  -1.0500   2.345619287882   2.073628499680  21.063959999286 # ob
  554 831   3  -1.0500   8.653360000630  17.462078500419  18.423059998767 # ob
  555 832   3  -1.0500  -1.899800712823   4.383248500797   6.206859997936 # ob
  556  39   4  -0.9500  15.167000000445   6.614218500103  55.099860002904 # oh
  557  39   5   0.4250  15.738629998950   5.977988501441  54.475359999330 # ho
  558  40   4  -0.9500  16.428850000797   0.661912499998  24.894660002596 # oh
  559  40   5   0.4250  16.838049999302   1.530598500983  24.427259998162 # ho
  560  41   4  -0.9500  -2.005540713349   3.727928500454  14.543360001703 # oh
  561  41   5   0.4250  -1.739070713407   3.914148500680  13.583660000154 # ho
  562  42   4  -0.9500  -0.371410712595   3.521948500793   8.840159997934 # oh
  563  42   5   0.4250   0.497249286474   3.483438500154   9.414460000972 # ho
  564 109   6  -0.8476   9.815860000574  16.328478500127   0.500180001618 # o*
  565 109   7   0.4238   8.960949999092  16.217878501407   0.005600002132 # h*
  566 109   7   0.4238  10.325380000075  15.463878501196   0.337689997796 # h*
  567 110   6  -0.8476  13.566269999102   7.554888500734  23.284259999751 # o*
  568 110   7   0.4238  13.399230000470   6.542548500086  23.322459998880 # h*
  569 110   7   0.4238  13.674659999508   7.776698501008  24.264660000683 # h*
  570 111   6  -0.8476   0.545559286604   1.641908500920  15.610560002481 # o*
  571 111   7   0.4238  -0.308210712651   2.116788499825  15.383060000252 # h*
  572 111   7   0.4238   1.230799287378   2.103158500987  15.058360002125 # h*
  573 112   6  -0.8476  -1.222110713178   6.006548500505   8.468260002390 # o*
  574 112   7   0.4238  -0.819950713814   6.484568501298   9.267160002797 # h*
  575 112   7   0.4238  -0.778550713118   5.101398499935   8.594860001182 # h*
  576 113   6  -0.8476  16.915689998721   5.530318501021  10.705860000547 # o*
  577 113   7   0.4238  -3.739260713321   5.847258500677   9.733260002190 # h*
  578 113   7   0.4238  16.376410000003   6.208818500774  11.234160001883 # h*
  579 114   6  -0.8476   6.559039998197  18.377378501197  13.473260001600 # o*
  580 114   7   0.4238   6.635480000370  18.617178500396  14.443659999515 # h*
  581 114   7   0.4238   6.062369998552  17.489278501306  13.492260002905 # h*
  582 115   6  -0.8476   1.674819288135   3.402628500030  10.347160002123 # o*
  583  88   7   0.4238  14.214849998756   2.426208500445  12.166260002410 # h*
  584  88   7   0.4238  12.711390000884   2.157128499630  11.659959999964 # h*
  585 116   6  -0.8476   0.290609286851   1.390178499669  12.251959999267 # o*
  586 116   7   0.4238  -0.139400712912   0.908996501155  13.033560001982 # h*
  587 116   7   0.4238  -0.533550712147   1.723088499916  11.721560001283 # h*
  588 117   6  -0.8476  15.452980000028   3.431338500404  11.694160002314 # o*
  589 117   7   0.4238  16.039230000389   3.011158500290  12.485160001887 # h*
  590 117   7   0.4238  16.033010000642   4.202278499713  11.279660001222 # h*
  591  43   1   2.1000  -2.828760712791   9.900878501238   2.466550002816 # st
  592  50   1   2.1000  -4.992610712214  10.326178499981  21.545059997671 # st
  593 833   1   2.1000  14.190350000940   7.124218499934  17.139659998285 # st
  594 834   1   2.1000  11.820673999414  12.678878499921   7.267959999751 # st
  595  47   1   2.1000  13.443990000088   9.457578500370  15.261160002657 # st
  596  48   1   2.1000  -5.480880713054   8.565928499993   9.137560000885 # st
  597  45   1   2.1000  -5.145590712540  13.508078499840   2.840250000231 # st
  598  46   1   2.1000  -3.103440712142   7.676768500810  21.532559999434 # st
  599 835   1   2.1000  11.535929999051  10.805378501114  17.286360001371 # st
  600 836   1   2.1000  13.461200000091  10.128078500631   7.130620000862 # st
  601 837   2   1.0500  -3.511940713114   9.852628500859   6.169299997628 # cah
  602 838   2   1.0500  -5.550010712015  10.369778500854  18.208660000934 # cah
  603 839   2   1.0500  14.068139999898   7.373638499695  20.653760000820 # cah
  604 840   2   1.0500  -8.589762711669  13.282978500104   3.883950000560 # cah
  605 841   2   1.0500  -6.438980712845  10.268478501147   3.903550002489 # cah
  606 842   2   1.0500  12.272990750386  10.597578499882  20.586560002903 # cah
  607 843   2   1.0500  -3.146700713328   7.413288500947  18.237160002892 # cah
  608 844   2   1.0500  -5.421450712543  13.054478501190   6.148009998554 # cah
  609 845   2   1.0500  13.659609999578   7.532938500855  12.386960001258 # cah
  610  43   4  -0.9500  -3.473680711963  10.414978500132   0.983780000757 # oh
  611  44   4  -0.9500  -1.542780712997   4.773698500971  23.133160001314 # oh
  612 846   3  -1.0500  13.813169999208   8.078488501008  15.971160001035 # ob
  613 847   3  -1.0500  15.603570000715   7.251268499698   8.433490002215 # ob
  614 848   3  -1.0500  -2.217560712933   8.441408501149   2.284460002600 # ob
  615 849   3  -1.0500  -4.033850713374   8.995218499951  21.791260000892 # ob
  616 850   3  -1.0500  15.150239999187   5.952278501110  16.683759998427 # ob
  617 851   3  -1.0500  12.640660000314  11.442678500402   7.647290002097 # ob
  618 852   3  -1.0500  -1.709810713243  10.841778500764   2.996200002788 # ob
  619 853   3  -1.0500  -0.143940713844   5.435368501342  20.874960002033 # ob
  620 854   3  -1.0500  14.904570000287   7.975498500243  18.281060002412 # ob
  621 855   3  -1.0500  -3.837030711996   7.458598499940   6.225580000795 # ob
  622 856   3  -1.0500  -3.963190712401   9.821978499735   3.506130000706 # ob
  623 857   3  -1.0500  -6.164040713527   9.938988500875  20.684860001791 # ob
  624 858   3  -1.0500  12.892392998869   6.493728500333  17.786859999632 # ob
  625 859   3  -1.0500  10.493400000046  12.278578500292   6.669659999433 # ob
  626 860   3  -1.0500  15.032869999872   8.531298500855  10.657259999831 # ob
  627 861   3  -1.0500  13.182979999774   9.320678501149  13.786160000374 # ob
  628  45   4  -0.9500  -4.846050712550  12.640678501367   1.478380002107 # oh
  629  46   4  -0.9500  -2.826540712289   6.976268500119  22.963960002508 # oh
  630 862   3  -1.0500  12.172866299296  10.134678500352  15.943259999701 # ob
  631 863   3  -1.0500  14.066000000043   9.354088500220   8.446900002321 # ob
  632 864   3  -1.0500  -6.220930713984  12.694978501024   3.557129998383 # ob
  633 865   3  -1.0500  -3.862560712544   6.693668500182  20.598160000205 # ob
  634 866   3  -1.0500  10.605069998639   9.848048501341  18.095460001314 # ob
  635 867   3  -1.0500  12.427338000859   9.302588500106   6.394299999102 # ob
  636 868   3  -1.0500   0.032549287843   7.939598499978   3.490919998729 # ob
  637 869   3  -1.0500  -1.770960711478   8.213478499741  20.941760001378 # ob
  638 870   3  -1.0500  16.998169999033   4.912688500383  18.050159998493 # ob
  639 871   3  -1.0500  -6.088880713413  10.576478501199   6.210789999255 # ob
  640  47   4  -0.9500  -6.027820712265  10.485678499774  15.490460001222 # oh
  641  47   5   0.4250  -6.111980713391  11.328178501253  14.883959999758 # ho
  642  48   4  -0.9500  -4.181740713076   9.601488499778   8.885559999013 # oh
  643  48   5   0.4250  -3.605320713785   9.819308500705   9.731660002371 # ho
  644 118   6  -0.8476  -7.740739711539  12.892978500123   0.870110001570 # o*
  645 118   7   0.4238  -7.560918713108  12.231878500993   0.087760000844 # h*
  646 118   7   0.4238  -7.707380713738  12.295278501029   1.672860001368 # h*
  647 119   6  -0.8476  10.090820000331  11.150878499835  25.423160000450 # o*
  648 119   7   0.4238  10.804569999497  11.911978501020  25.446660000899 # h*
  649 119   7   0.4238  10.326309999662  10.632878500512  26.253659998659 # h*
  650 120   6  -0.8476  -3.562660712548   8.306008500082  14.884160001810 # o*
  651 120   7   0.4238  -3.393570712328   9.080828500890  15.507060000032 # h*
  652 120   7   0.4238  -2.741800712996   8.275628501316  14.283260002479 # h*
  653 121   6  -0.8476  -5.677970712442  12.779078500609   8.838960002220 # o*
  654 121   7   0.4238  -5.582190712430  11.793178500439   8.747659997697 # h*
  655 121   7   0.4238  -4.895650712303  12.932178501182   9.501659999389 # h*
  656 122   6  -0.8476  -7.538946713486  13.151078500332  11.267160002985 # o*
  657 122   7   0.4238  -7.392200712552  12.863778499829  10.321559999491 # h*
  658 122   7   0.4238  -8.499504512920  13.483978501114  11.320759999676 # h*
  659 123   6  -0.8476  15.822250000622   6.584358499651  13.113859998759 # o*
  660 123   7   0.4238  15.489629999593   5.895458499998  13.731360002435 # h*
  661 123   7   0.4238  -4.273590712372   7.241948499889  13.586060002649 # h*
  662 124   6  -0.8476  -5.296730712399  10.554678500762  12.204460001539 # o*
  663  97   7   0.4238  10.349119999135   9.010748499812  12.375160001904 # h*
  664  97   7   0.4238   8.963259998529   8.523198501112  12.132060000061 # h*
  665 125   6  -0.8476  -1.765050712226   4.594508499862  11.917760000487 # o*
  666 125   7   0.4238  -1.443360711333   3.884788499612  11.254860001266 # h*
  667 125   7   0.4238  -2.597780712211   4.955778500540  11.434659998178 # h*
  668 126   6  -0.8476  11.604238999635  10.040138501140  11.633259999878 # o*
  669 126   7   0.4238  12.145849999705   9.752978500615  12.493760001604 # h*
  670 126   7   0.4238  12.308101698948  10.208578500538  10.910860001521 # h*
  671  49   1   2.1000  -6.691590712955  16.187578500226   2.644369997670 # st
  672  36   1   2.1000  -8.843404713414  16.518178500851  21.621359997669 # st
  673 872   1   2.1000  10.064579999545  13.389578500011  17.394259999170 # st
  674 873   1   2.1000  19.953729999720   0.304321500934   7.058679998017 # st
  675  53   1   2.1000   9.196669999969  15.380378501245  15.199759997856 # st
  676  54   1   2.1000  -9.445480712651  15.106778501437   9.201760001217 # st
  677  51   1   2.1000   3.038319286168   1.215728500720   2.900500002914 # st
  678  52   1   2.1000  -7.208320712033  13.876678500386  21.647260000613 # st
  679 874   1   2.1000   7.603300000539  17.007778500016  17.275860001524 # st
  680 875   1   2.1000   9.488449999974  16.341278500434   7.029690000162 # st
  681 876   2   1.0500  -7.604556713491  15.888478500053   6.206449998432 # cah
  682 877   2   1.0500  -9.350778712745  16.645978499692  18.642260001590 # cah
  683 878   2   1.0500  10.003549999441  13.830278499970  20.430959999788 # cah
  684 879   2   1.0500  -0.378410712992   0.929049500036   3.748560000930 # cah
  685 880   2   1.0500 -10.264130713047  16.447478501208   3.360389998618 # cah
  686 881   2   1.0500   8.237439999295  17.021878499844  20.647859998376 # cah
  687 882   2   1.0500  -7.433355711815  13.516978499718  18.449759998853 # cah
  688 883   2   1.0500   2.799019286248   0.409680500591   6.057030001743 # cah
  689 884   2   1.0500   9.183259999890  13.655778499962  11.750760002123 # cah
  690  49   4  -0.9500  -7.279910712592  16.697978501059   1.255240002567 # oh
  691  50   4  -0.9500  -5.524330712584  11.028178500693  22.909360001088 # oh
  692 885   3  -1.0500   9.444550000194  14.168778499836  16.160260002082 # ob
  693 886   3  -1.0500  11.510723999139  13.582678499912   8.566160002706 # ob
  694 887   3  -1.0500  -5.720000712412  14.860978500284   2.459590001114 # ob
  695 888   3  -1.0500  -8.060492712107  15.199278499648  21.935560001483 # ob
  696 889   3  -1.0500  10.776419998672  12.099278501336  16.905359998211 # ob
  697 890   3  -1.0500   8.579909999371  17.656478499840   7.432210001713 # ob
  698 891   3  -1.0500  -5.927600713193  17.315878500318   3.255309998216 # ob
  699 892   3  -1.0500  -3.998360713642  11.322678500551  20.974760002480 # ob
  700 893   3  -1.0500  11.041959999934  14.294278500388  18.110960002670 # ob
  701 894   3  -1.0500  -8.032535712227  13.575478500556   6.302679997935 # ob
  702 895   3  -1.0500  -7.902391712820  15.790478501140   3.577940002493 # ob
  703 896   3  -1.0500 -10.141740713864  16.124478500941  20.930159998542 # ob
  704 897   3  -1.0500   8.915969999048  12.930378500409  18.378760000676 # ob
  705 898   3  -1.0500   6.467299998758  18.472878501319   6.246809999807 # ob
  706 899   3  -1.0500  -9.611730713777  15.071678501308  10.744860002353 # ob
  707 900   3  -1.0500   8.455990000466  15.167278499813  13.859560001046 # ob
  708  51   4  -0.9500   3.546019287731   0.445553500620   1.539859997767 # oh
  709  52   4  -0.9500  -6.955510713236  13.149278501427  23.050359998248 # oh
  710 901   3  -1.0500   8.349650000096  16.442478499891  16.081160001018 # ob
  711 902   3  -1.0500  10.062400001186  15.681778499708   8.339479999486 # ob
  712 903   3  -1.0500   2.084019287669   0.234519501038   3.557170002115 # ob
  713 904   3  -1.0500  -8.073551712308  13.051878500281  20.707959998135 # ob
  714 905   3  -1.0500   6.681830000700  15.916178500325  17.906059999955 # ob
  715 906   3  -1.0500   8.491699999772  15.447078500208   6.294010002758 # ob
  716 907   3  -1.0500  -3.905070712626  13.739878501416   3.762549999794 # ob
  717 908   3  -1.0500  -5.950000713408  14.373678501276  20.921559998825 # ob
  718 909   3  -1.0500  12.823685000910  11.159178500078  18.165660002349 # ob
  719 910   3  -1.0500  -9.960960712152  16.763478500752   6.145999999232 # ob
  720  53   4  -0.9500 -10.080410712598  16.072278500941  14.912059997610 # oh
  721  53   5   0.4250  -9.889730712986  16.492178501101  13.964559999520 # ho
  722  54   4  -0.9500  -8.194182713179  16.012278500082   8.848759997650 # oh
  723  54   5   0.4250  -7.473954713610  16.356278500649   9.569159997617 # ho
  724 127   6  -0.8476  10.740889999875  13.908878500722  55.225760002814 # o*
  725 127   7   0.4238  11.508042000021  13.412978500720   0.317370000653 # h*
  726 127   7   0.4238  11.180969999975  14.240478500116  54.382060001950 # h*
  727 128   6  -0.8476   7.877060000935  14.390278499895  26.494259999748 # o*
  728 128   7   0.4238   7.034799999977  13.984978500816  26.123359997864 # h*
  729 128   7   0.4238   8.541689999484  14.321978500660  25.727360001247 # h*
  730 129   6  -0.8476  -7.942833712250  14.342778500460  15.581459999899 # o*
  731 129   7   0.4238  -7.509707713630  14.996978500986  16.214859997968 # h*
  732 129   7   0.4238  -8.754368714364  14.793578501436  15.154960002935 # h*
  733 130   6  -0.8476  -9.528460712933  18.480578500059   8.872760000464 # o*
  734 130   7   0.4238  -8.860461712584  17.751178499826   8.713660002935 # h*
  735 130   7   0.4238   3.153719286902   0.419396500122   9.538360002493 # h*
  736 131   6  -0.8476   8.430959999697  17.519878501371  10.131159998937 # o*
  737 131   7   0.4238   8.894269999552  17.733478500320   9.231459998888 # h*
  738 131   7   0.4238   7.784979999311  18.268778500015  10.228860002736 # h*
  739 132   6  -0.8476  10.480739998723  12.292178500735  13.434860000419 # o*
  740 132   7   0.4238  10.563319998956  12.482878500228  14.457260000741 # h*
  741 132   7   0.4238  10.686600000454  11.290278499714  13.282860001047 # h*
  742 133   6  -0.8476 -10.493460712655  17.221178500332  12.174260001503 # o*
  743 106   7   0.4238   5.479179998439  14.853778500928  14.072560001113 # h*
  744 106   7   0.4238   6.942470000852  15.414178499986  14.100760002759 # h*
  745 134   6  -0.8476  -6.580410712186  12.850678500638  13.829960001635 # o*
  746 134   7   0.4238  -7.332560713412  12.873378501461  13.153559999447 # h*
  747 134   7   0.4238  -6.984670712403  13.440378500240  14.593260001927 # h*
  748 135   6  -0.8476   7.405589998754  15.334678500715  11.315659999908 # o*
  749 135   7   0.4238   7.649029999560  15.367678501188  12.319759997807 # h*
  750 135   7   0.4238   7.879569999454  16.186578501457  10.907660001884 # h*
  751   6   5   0.4250   5.348219287503   4.130448500789  23.819160002414 # ho
  752   8   5   0.4250   4.658419287523   6.587998500923  23.371359999908 # ho
  753  22   5   0.4250  13.035761000358   4.220958500927  23.881959999445 # ho
  754  24   5   0.4250  11.928469000037   7.264278499972  23.197559998165 # ho
  755  28   5   0.4250   9.034669999222  11.187678500486  24.029459999674 # ho
  756  30   5   0.4250   7.781259999433  12.782478499786  23.320559998749 # ho
  757  36   5   0.4250  -8.423351474168  17.636078501042  23.627760002665 # ho
  758  38   5   0.4250   1.901019287879   0.339826500863  23.226660000746 # ho
  759  44   5   0.4250  -2.018430713633   5.739758500383  23.098260000082 # ho
  760  46   5   0.4250  -3.619180712827   7.073968500148  23.669059997637 # ho
  761  50   5   0.4250  -4.680740713498  11.184878500944  23.503260000521 # ho
  762  52   5   0.4250  -6.273820712342  12.363578500263  23.119860000401 # ho
  763   5   5   0.4250   3.884119288640  10.729478499654   1.065970002266 # ho
  764   7   5   0.4250   1.492409286310  13.310778500626   0.564929997909 # ho
  765  21   5   0.4250   9.505529999690  10.418278500926   0.924630001063 # ho
  766  23   5   0.4250   9.549239999633  13.275578500247   0.676810001691 # ho
  767  27   5   0.4250   5.331019998918  17.454778500812   1.435859998488 # ho
  768  29   5   0.4250  17.195119999891   0.713785500879   0.561449999826 # ho
  769  35   5   0.4250   0.028759287324   5.116968501391   1.405930001500 # ho
  770  37   5   0.4250  -0.506900712736   6.977468501257   0.691909998942 # ho
  771  43   5   0.4250  -4.064200711872  11.308878499607   1.087130000282 # ho
  772  45   5   0.4250  -5.193180713032  13.035878501298   0.589060001781 # ho
  773  49   5   0.4250  -7.799175712620  17.623078500234   1.277840002081 # ho
  774  51   5   0.4250   3.674019287552   0.946897500212   0.634129999750 # ho
  775 136   7   0.4238   7.408619287095   3.551978499616  40.567360001422 # h*
  776 136   7   0.4238   7.508519287046   1.946488500998  40.936959998265 # h*
  777 136   6  -0.8476   7.816119287675   2.679278500943  40.287359999957 # o*
  778 137   7   0.4238  11.247530000039   1.390328500979  35.468560002468 # h*
  779 137   7   0.4238  10.659410000066   2.959848501212  35.398859998263 # h*
  780 137   6  -0.8476  10.992230000082   2.157278500940  34.852359998299 # o*
  781 138   7   0.4238   0.232929288282   6.987958500075  53.918560001571 # h*
  782 138   7   0.4238  -0.882920711874   7.975878500448  53.385259998727 # h*
  783 138   6  -0.8476  -0.356790712422   7.741778500583  54.219360000678 # o*
  784 139   7   0.4238   6.118919999503  18.346578500631  33.220060000357 # h*
  785 139   7   0.4238  17.115979999087   0.658056500576  33.644160000361 # h*
  786 139   6  -0.8476  17.491599999709   0.056939901288  32.934560000553 # o*
  787 140   7   0.4238   6.283619286985   8.540708501450  41.501760000651 # h*
  788 140   7   0.4238   4.982819287187   7.833788500742  42.085259998496 # h*
  789 140   6  -0.8476   5.577319287246   7.839838500019  41.265359998394 # o*
  790 141   7   0.4238 -10.842400712411  18.077178500136  26.575059998890 # h*
  791 141   7   0.4238   9.147159998831  17.544778500233  25.287759999888 # h*
  792 141   6  -0.8476 -10.755940713534  17.348078500654  25.894960000235 # o*
  793 142   7   0.4238  12.075653999776  11.954978500390  37.497260001132 # h*
  794 142   7   0.4238  -8.298246712319  13.488978500563  37.512560000435 # h*
  795 142   6  -0.8476  -7.859752712328  12.588578499749  37.745659999261 # o*
  796 143   7   0.4238  -0.422970713079   4.191318499904  41.711959999652 # h*
  797 143   7   0.4238  -1.002010711948   3.389358500600  43.016260001570 # h*
  798 143   6  -0.8476  -0.471800712909   4.215728500715  42.723259999503 # o*
  799 144   7   0.4238  -2.778120712996   6.640168500661  29.292559999719 # h*
  800 144   7   0.4238  -3.221750713230   7.787038500384  28.231860002010 # h*
  801 144   6  -0.8476  -3.602290712973   7.103998500840  28.893359997930 # o*
  802 145   7   0.4238   5.690019288082   7.713418500152  52.249560000526 # h*
  803 145   7   0.4238   5.477619287411   7.290328500781  50.680960000552 # h*
  804 145   6  -0.8476   5.014719287152   7.740758501016  51.477560002258 # o*
  805 146   7   0.4238   3.868170000390  16.630078500958  45.763460000070 # h*
  806 146   7   0.4238   4.980059998965  15.601778501053  45.945359999165 # h*
  807 146   6  -0.8476   3.977460000576  15.669278500152  46.036959998467 # o*
  808 147   7   0.4238   8.198119287066   1.217588500149  49.975760001629 # h*
  809 147   7   0.4238  -3.068520712724  18.614078500103  49.885460001835 # h*
  810 147   6  -0.8476   9.128119286097   0.831298501430  50.291060002898 # o*
  811 148   7   0.4238  -5.540880712605  14.717078500340  35.943459998096 # h*
  812 148   7   0.4238  -6.419290712506  13.422178501350  36.531760000932 # h*
  813 148   6  -0.8476  -6.185410713651  13.961078500723  35.699360002593 # o*
  814 149   7   0.4238   1.819499998956  16.896878500545  38.951660002291 # h*
  815 149   7   0.4238   0.471819287058  17.165378500653  38.107159998751 # h*
  816 149   6  -0.8476   1.458299999245  17.240878501112  38.100560002959 # o*
  817 150   7   0.4238  -1.910970712514  14.726378501220  30.123959998863 # h*
  818 150   7   0.4238  -2.204940712765  16.247778499718  30.332360001527 # h*
  819 150   6  -0.8476  -2.707030713885  15.376678501317  30.236759999912 # o*
  820 151   7   0.4238   0.536919285986  13.970278501352  30.985459999784 # h*
  821 151   7   0.4238   0.178849287534  14.333278500946  29.531260000678 # h*
  822 151   6  -0.8476  -0.250050713399  13.921978499914  30.356359998807 # o*
  823 152   7   0.4238  -0.617940712878   7.108678500608  45.019559999654 # h*
  824 152   7   0.4238  -1.644400712827   7.173918501144  46.257259998744 # h*
  825 152   6  -0.8476  -0.999240713287   7.783828500375  45.708360001819 # o*
  826 153   7   0.4238   6.103739999087  13.765178501280  49.220760000742 # h*
  827 153   7   0.4238   6.758199999848  14.755078500262  48.081159998486 # h*
  828 153   6  -0.8476   5.915129999856  14.599778499781  48.654860000902 # o*
  829 154   7   0.4238   7.317279998650   8.162448500616  35.684359998067 # h*
  830 154   7   0.4238   6.443719287414   7.372558499605  36.885560001641 # h*
  831 154   6  -0.8476   6.798819286604   7.307748500333  35.921960001572 # o*
  832 155   7   0.4238   6.359869999076  11.459678500022  49.420060001324 # h*
  833 155   7   0.4238   7.289189999389  12.179978499876  50.601360002657 # h*
  834 155   6  -0.8476   6.762479999699  12.354478499884  49.776160000735 # o*
  835 156   7   0.4238   8.027619999649  10.640778499753  35.246859998891 # h*
  836 156   7   0.4238   7.646690000155   9.400098500966  34.196660001029 # h*
  837 156   6  -0.8476   7.894609998746   9.611578501330  35.175560000401 # o*
  838 157   7   0.4238   9.998330000329  12.878078500159  31.179660000599 # h*
  839 157   7   0.4238   9.861699999310  12.751778501339  29.515660001062 # h*
  840 157   6  -0.8476  10.204450000067  12.303178500270  30.366060001512 # o*
  841 158   7   0.4238   8.731889999002  14.910578501243  44.239660000551 # h*
  842 158   7   0.4238  10.086449998731  14.444978500553  44.766960002692 # h*
  843 158   6  -0.8476   9.619140000139  14.595378499967  43.888860002961 # o*
  844 159   7   0.4238  14.258889999738   7.883138500141  40.137659999286 # h*
  845 159   7   0.4238  14.332459999445   6.665768501277  38.971760001050 # h*
  846 159   6  -0.8476  14.027159999316   7.645788500541  39.149859999885 # o*
  847 160   7   0.4238   3.885319286168   0.827282501233  39.147160002612 # h*
  848 160   7   0.4238   4.372819287260   1.940618501424  38.220460002165 # h*
  849 160   6  -0.8476   4.089919286673   1.812598501285  39.189760002626 # o*
  850 161   7   0.4238  -1.544960713342  14.606078500619   0.369039999950 # h*
  851 161   7   0.4238  -1.814520712847  13.078278501033   0.129459999921 # h*
  852 161   6  -0.8476  -2.176590712811  13.908178500837   0.552630001725 # o*
  853 162   7   0.4238   3.108449999206  16.135078501342  49.060160001653 # h*
  854 162   7   0.4238   2.756220000984  15.578978499980  47.516859998465 # h*
  855 162   6  -0.8476   2.376329999122  15.850778500883  48.421359997970 # o*
  856 163   7   0.4238  -4.425750712480   9.048188499825  32.684360000553 # h*
  857 163   7   0.4238  -5.105970712281   8.169788499949  31.574359997709 # h*
  858 163   6  -0.8476  -4.955180712316   8.186708500117  32.577560000207 # o*
  859 164   7   0.4238  -0.771520712484  13.663578500821  43.736060000913 # h*
  860 164   7   0.4238  -0.220490712255  13.721678500657  42.249259999275 # h*
  861 164   6  -0.8476  -0.115530712128  13.223178499745  43.101959998426 # o*
  862 165   7   0.4238   4.326119286427  10.370478500740  34.609260001990 # h*
  863 165   7   0.4238   2.945119288244   9.593358499774  34.739660001044 # h*
  864 165   6  -0.8476   3.529819288528  10.285178500016  35.232160000211 # o*
  865 166   7   0.4238  -6.562940712715  18.178478499843  53.470260002235 # h*
  866 166   7   0.4238  -6.951140713441  16.972178500502  54.673060000093 # h*
  867 166   6  -0.8476  -6.904110713637  17.262478501048  53.703159999009 # o*
  868 167   7   0.4238   6.890719288404   0.325716499702  37.003860001029 # h*
  869 167   7   0.4238  -5.267370713851  18.268278500631  38.485960001469 # h*
  870 167   6  -0.8476  -5.894680713207  18.520078500002  37.703160003042 # o*
  871 168   7   0.4238  12.682150998990  11.141478500572  25.634059998334 # h*
  872 168   7   0.4238  -6.987760713488  10.990778500406  26.972960001172 # h*
  873 168   6  -0.8476  13.013783000019  10.541078500318  26.374660000853 # o*
  874 169   7   0.4238   1.181189287955   1.883618500608   0.783519999176 # h*
  875 169   7   0.4238   0.836989286570   0.275864500278   0.910440000146 # h*
  876 169   6  -0.8476   0.462779287657   1.187988500722   0.668340003032 # o*
  877 170   7   0.4238  -0.420610713254   5.737988499872  29.585560001786 # h*
  878 170   7   0.4238  -1.726170712127   4.700018500215  29.519959998154 # h*
  879 170   6  -0.8476  -1.410640712480   5.674848500861  29.669560000565 # o*
  880 171   7   0.4238  10.188279999185  15.261878501417  28.540860002263 # h*
  881 171   7   0.4238  -9.785900713581  16.717478501338  28.232560000892 # h*
  882 171   6  -0.8476  -9.584030712268  15.750578500195  28.504759999783 # o*
  883 172   7   0.4238  13.281860000642   4.331548500181  36.295760002780 # h*
  884 172   7   0.4238  11.741691999017   4.245568500370  36.901959998398 # h*
  885 172   6  -0.8476  12.740002000889   4.163058499724  37.146159997695 # o*
  886 173   7   0.4238   8.064970000689  15.966678499803  46.428460001474 # h*
  887 173   7   0.4238   7.924129999523  16.328478500127  47.997760000331 # h*
  888 173   6  -0.8476   8.192819998998  15.550178500688  47.378559998577 # o*
  889 174   7   0.4238   2.443559999296  14.980878499883  32.507659999484 # h*
  890 174   7   0.4238   2.437419287219  13.367678501192  32.087560001794 # h*
  891 174   6  -0.8476   1.953619288544  14.256778499851  32.010060000548 # o*
  892 175   7   0.4238   7.336919286662   0.900668501290  53.022660001783 # h*
  893 175   7   0.4238   6.309619286225   1.103098500465  51.861660001261 # h*
  894 175   6  -0.8476   6.354519287743   0.916339500514  52.836760000373 # o*
  895 176   7   0.4238  10.648859999868   7.894188500735  27.788060001818 # h*
  896 176   7   0.4238  11.568444999120   8.654858500656  26.699659999293 # h*
  897 176   6  -0.8476  10.728429998883   8.744668500909  27.235059998786 # o*
  898 177   7   0.4238   1.472139287847   9.868448500139  40.314759998926 # h*
  899 177   7   0.4238   1.222589287487   8.792088500890  39.203760002422 # h*
  900 177   6  -0.8476   1.521459286693   9.747358500734  39.298759997879 # o*
  901 178   7   0.4238   9.011459999551   5.909998500555  29.960859999020 # h*
  902 178   7   0.4238   8.833019286468   4.413088500452  30.305260002870 # h*
  903 178   6  -0.8476   8.987230000912   5.000518500159  29.470359998242 # o*
  904 179   7   0.4238  12.505147999639   0.556357501120  44.875559999374 # h*
  905 179   7   0.4238  11.116519286000   0.218238500845  45.769259998720 # h*
  906 179   6  -0.8476  12.144241000992   0.354819499771  45.792360000598 # o*
  907 180   7   0.4238  -7.349020712280  14.196478500108  34.271960001832 # h*
  908 180   7   0.4238  -8.538847712278  14.924978499955  35.110660001186 # h*
  909 180   6  -0.8476  -8.314358712485  14.570278500604  34.165560000057 # o*
  910 181   7   0.4238 -11.893170712058  18.408578500896  42.554360001008 # h*
  911 181   7   0.4238   7.297459999297  17.924078501430  42.148459999633 # h*
  912 181   6  -0.8476   7.934130000102  18.054378500930  42.956760002434 # o*
  913 182   7   0.4238   4.411719286766   9.086918499894  44.209259998463 # h*
  914 182   7   0.4238   5.744119287678   8.394028500894  44.627359997763 # h*
  915 182   6  -0.8476   4.910819286521   8.208668501328  44.093559998089 # o*
  916 183   7   0.4238   0.388999286626  16.718978501360  51.315160001297 # h*
  917 183   7   0.4238   1.754599998459  17.499778501457  51.309460000906 # h*
  918 183   6  -0.8476   1.112399999254  17.032978499629  51.944660000846 # o*
  919 184   7   0.4238   7.679989998540  18.554078501112  30.444059999588 # h*
  920 184   7   0.4238  -0.295330713750   1.220708501240  31.175760002079 # h*
  921 184   6  -0.8476   0.067569288200   0.282065500251  30.916960002361 # o*
  922 185   7   0.4238  -1.784940711993  15.974378500411  38.468659998242 # h*
  923 185   7   0.4238  -1.075120711555  15.687178500159  37.006559998301 # h*
  924 185   6  -0.8476  -1.220750714263  16.357278501286  37.725560000502 # o*
  925 186   7   0.4238  16.761410000139   4.544928499700  26.925260001390 # h*
  926 186   7   0.4238  16.351319999083   3.077208500427  27.371860002648 # h*
  927 186   6  -0.8476  15.909369999118   3.946608500174  27.017460001316 # o*
  928 187   7   0.4238   6.458120000073  13.328978501385  52.830859997929 # h*
  929 187   7   0.4238   7.277910000611  11.925678499846  53.137160000909 # h*
  930 187   6  -0.8476   6.386130000452  12.423378500622  53.290760000100 # o*
  931 188   7   0.4238   6.280270000689  12.848278500230  37.848560001087 # h*
  932 188   7   0.4238   7.406629999667  13.238478500712  36.677360001030 # h*
  933 188   6  -0.8476   6.679789998808  13.582878500413  37.267360001943 # o*
  934 189   7   0.4238   9.378670000477  17.214378500110  31.703460002790 # h*
  935 189   7   0.4238 -10.233560713752  17.611578501314  32.726759998513 # h*
  936 189   6  -0.8476 -10.450830712468  16.809378499914  32.105960002475 # o*
  937 190   7   0.4238  12.508372000537   1.911548499775  54.794259998806 # h*
  938 190   7   0.4238  11.945006000161   2.200168500595  53.426360002715 # h*
  939 190   6  -0.8476  12.607860998476   2.618418501292  54.057860000653 # o*
  940 191   7   0.4238  -5.274310712352   9.751338500616  36.425659999469 # h*
  941 191   7   0.4238  14.665129999033   8.753998500183  37.502859997730 # h*
  942 191   6  -0.8476  14.620139999895   9.057708500136  36.535160002622 # o*
  943 192   7   0.4238   4.985049999456  10.924078501444  50.917859999639 # h*
  944 192   7   0.4238   4.368619287104   9.411298501002  51.257459998499 # h*
  945 192   6  -0.8476   4.302719287480  10.390778501155  51.442560002766 # o*
  946 193   7   0.4238  -2.486180713952  17.368278500819  44.278360002045 # h*
  947 193   7   0.4238  -3.771690712799  16.387978499733  44.204159998695 # h*
  948 193   6  -0.8476  -2.763660712908  16.400078500156  44.078859999410 # o*
  949 194   7   0.4238  -1.981500712871   3.216848500533  44.582060000477 # h*
  950 194   7   0.4238  18.083490000536   3.228098499760  46.049160001926 # h*
  951 194   6  -0.8476  -2.477880713133   3.822398499678  45.240859999126 # o*
  952 195   7   0.4238  13.271570000419   7.254258500277  46.097860000902 # h*
  953 195   7   0.4238  12.594167999324   8.591578499800  45.619559998050 # h*
  954 195   6  -0.8476  13.144926998638   8.244188501388  46.400659998399 # o*
  955 196   7   0.4238  13.752270000840   9.072198499634  41.930059999487 # h*
  956 196   7   0.4238  13.729859998943   7.543208500242  42.102960000295 # h*
  957 196   6  -0.8476  14.346410001092   8.269588499635  41.779059999309 # o*
  958 197   7   0.4238   2.616380000827  16.341178500184  55.102160001605 # h*
  959 197   7   0.4238   3.506919998576  17.330278500898   0.716270002130 # h*
  960 197   6  -0.8476   3.071189999231  16.416678500642   0.650450000114 # o*
  961 198   7   0.4238  -0.458350712468  10.130778499922  31.946060002269 # h*
  962 198   7   0.4238  -1.984630713892  10.118678501368  32.676360001460 # h*
  963 198   6  -0.8476  -0.972720713525   9.988508500513  32.796359998925 # o*
  964 199   7   0.4238  -5.002950712539  16.935078500967  40.368660001464 # h*
  965 199   7   0.4238  -5.138270714066  18.525778501205  40.714959999910 # h*
  966 199   6  -0.8476  -4.794210713252  17.869678499655  40.036859999645 # o*
  967 200   7   0.4238   3.409269999553  14.622678501105  39.780260000369 # h*
  968 200   7   0.4238   3.938749999701  16.043478499782  39.229759998091 # h*
  969 200   6  -0.8476   3.593079999468  15.575578500803  40.057760001080 # o*
  970 201   7   0.4238   0.452079287387  17.392978501048  45.752459997858 # h*
  971 201   7   0.4238   1.255099999805  16.576278500686  46.847160001398 # h*
  972 201   6  -0.8476   0.977119287150  16.518978500986  45.903560001829 # o*
  973 202   7   0.4238   9.721159999265   3.792968500489  43.349559999414 # h*
  974 202   7   0.4238  10.852829998117   3.165678501432  44.374259998437 # h*
  975 202   6  -0.8476  10.577599999926   3.199688500138  43.406360001277 # o*
  976 203   7   0.4238  -0.323880713486   5.831728500816  38.698060000600 # h*
  977 203   7   0.4238   0.779679287599   5.916628500537  39.950459998370 # h*
  978 203   6  -0.8476  -0.223270713046   6.113758501380  39.648059999444 # o*
  979 204   7   0.4238   3.199119288481  11.885378499767  51.599159999542 # h*
  980 204   7   0.4238   2.046819287495  12.831678499743  52.335060000865 # h*
  981 204   6  -0.8476   2.807219285799  12.837578501447  51.653760000962 # o*
  982 205   7   0.4238  -2.925450711879  13.048778499988  27.505460001339 # h*
  983 205   7   0.4238  -1.939760712174  11.894478500146  27.076560001880 # h*
  984 205   6  -0.8476  -2.936340712115  12.055078500827  27.153260000449 # o*
  985 206   7   0.4238   0.919149286665   4.803628501412  53.235660001850 # h*
  986 206   7   0.4238   1.008909285973   5.675328501316  51.878659998642 # h*
  987 206   6  -0.8476   0.356589287860   5.237918500819  52.527459999808 # o*
  988 207   7   0.4238   8.138959999299  14.287978501419  29.705859999563 # h*
  989 207   7   0.4238   8.567919999813  14.412578499716  28.030360000985 # h*
  990 207   6  -0.8476   8.826179999459  14.264378500209  28.999060000822 # o*
  991 208   7   0.4238  14.140319998930   7.083338501017  30.259059999114 # h*
  992 208   7   0.4238  13.069450000397   6.026718500408  30.857160002914 # h*
  993 208   6  -0.8476  14.017999999419   6.120478500281  30.548759997750 # o*
  994 209   7   0.4238   1.145149287742   0.238717499710  46.794159999796 # h*
  995 209   7   0.4238 -10.180290712620  18.217478500401  45.754359997988 # h*
  996 209   6  -0.8476 -10.192380713757  18.480078500675  46.713660000966 # o*
  997 210   7   0.4238  -8.231157713787  15.136978500500  29.260660001606 # h*
  998 210   7   0.4238  -7.529099712141  15.550678500072  30.570259999809 # h*
  999 210   6  -0.8476  -7.283650713031  15.069778500285  29.690359998207 # o*
 1000 211   7   0.4238   7.543619286659   2.014558501337  34.864359999706 # h*
 1001 211   7   0.4238   7.957619287727   1.620598500403  36.375360000675 # h*
 1002 211   6  -0.8476   7.364019287981   1.342438500007  35.593160002871 # o*
 1003 212   7   0.4238  -2.887700711522  12.328378499884  41.840759998887 # h*
 1004 212   7   0.4238  -4.343960711982  12.713378500416  41.305160002876 # h*
 1005 212   6  -0.8476  -3.413970712882  13.113278500911  41.433159999434 # o*
 1006 213   7   0.4238  -8.609868712934  18.657878499609  47.013559999138 # h*
 1007 213   7   0.4238  -7.455125712803  17.792278500041  47.877560000813 # h*
 1008 213   6  -0.8476  -7.644477712998  18.651278499888  47.324759999833 # o*
 1009 214   7   0.4238   7.770329998639   7.657048501100  50.165359999506 # h*
 1010 214   7   0.4238   9.069310000416   8.525788500688  50.274860002659 # h*
 1011 214   6  -0.8476   8.604700000636   7.756238499818  50.741860002988 # o*
 1012 215   7   0.4238  11.874611998504   1.528608501041  39.853159998677 # h*
 1013 215   7   0.4238  12.412710001071   0.029552299758  40.118959998293 # h*
 1014 215   6  -0.8476  12.734154999728   0.978470500678  39.884659998219 # o*
 1015 216   7   0.4238  16.410049999533   1.184998500143  36.465560002210 # h*
 1016 216   7   0.4238  15.997179999791   1.207928499862  38.038459999275 # h*
 1017 216   6  -0.8476  16.406989999377   0.610083500124  37.311759998293 # o*
 1018 217   7   0.4238   3.802219286575  11.965678501041  31.696460002892 # h*
 1019 217   7   0.4238   3.860519286142  10.752978500613  32.656459999219 # h*
 1020 217   6  -0.8476   3.220919288329  11.494678499901  32.353459999669 # o*
 1021 218   7   0.4238  10.415359999735  11.702878500267  42.392959999243 # h*
 1022 218   7   0.4238   9.533229999763  12.853378499930  43.303060000880 # h*
 1023 218   6  -0.8476   9.926059999283  11.899178500712  43.268159999648 # o*
 1024 219   7   0.4238   1.699019288401   2.442098499713  24.233860000024 # h*
 1025 219   7   0.4238   3.156419287717   3.042338501061  24.625060002719 # h*
 1026 219   6  -0.8476   2.160919288011   3.270308500327  24.585559998549 # o*
 1027 220   7   0.4238  15.039760000300   0.715487500174  50.046960001859 # h*
 1028 220   7   0.4238   3.470720000960  17.943578499842  50.249160001767 # h*
 1029 220   6  -0.8476   2.780329999847  18.576978500568  50.623060001235 # o*
 1030 221   7   0.4238   8.175819287763   0.030240200534  34.484660001587 # h*
 1031 221   7   0.4238  -3.238100711293  18.235078499657  33.143960002412 # h*
 1032 221   6  -0.8476  -4.150060713863  18.322678500538  33.548460000487 # o*
 1033 222   7   0.4238  -2.259230713018   9.539828499991  26.931960000977 # h*
 1034 222   7   0.4238  -1.950720713234   8.363708500784  25.975159998753 # h*
 1035 222   6  -0.8476  -2.653880712477   8.656888500324  26.651460002681 # o*
 1036 223   7   0.4238  -0.380010712894  13.524678500327  38.755959999917 # h*
 1037 223   7   0.4238   0.271849288037  14.885778500763  39.352759998676 # h*
 1038 223   6  -0.8476   0.422289287292  13.903678500772  39.281559998445 # o*
 1039 224   7   0.4238   5.134539999779  15.179978499870  29.817260002846 # h*
 1040 224   7   0.4238   5.955130000635  14.874378500226  31.184760000366 # h*
 1041 224   6  -0.8476   6.019939999904  14.817578499911  30.152760001133 # o*
 1042 225   7   0.4238  -4.795290712220   8.048288500078  29.584660000850 # h*
 1043 225   7   0.4238  -5.747070712995   9.303388500242  29.254660000902 # h*
 1044 225   6  -0.8476  15.026749999490   8.551018500564  29.932660002909 # o*
 1045 226   7   0.4238  -2.691370713425   4.641738500675  54.956659999767 # h*
 1046 226   7   0.4238  -1.629390711960   4.894628499602   0.850859999083 # h*
 1047 226   6  -0.8476  -2.280380713498   4.209408500948   0.459089998562 # o*
 1048 227   7   0.4238  -3.452300713130  13.464578501085  49.078059999969 # h*
 1049 227   7   0.4238  -2.084560712182  13.097378500310  48.354760000677 # h*
 1050 227   6  -0.8476  -2.769010712334  12.748278500044  49.022960001719 # o*
 1051 228   7   0.4238   3.731309999874  17.743478501086  32.456660001806 # h*
 1052 228   7   0.4238   2.150900000172  17.541378501056  32.925260001954 # h*
 1053 228   6  -0.8476   2.971040000823  17.070278499665  32.525759999853 # o*
 1054 229   7   0.4238  15.374669999503   0.129233099773  53.808059999223 # h*
 1055 229   7   0.4238   2.034999999664  17.770378501222  53.404460002085 # h*
 1056 229   6  -0.8476   2.283370000385  18.377878500581  54.187560000824 # o*
 1057 230   7   0.4238  -1.739160712067  15.462578499807  44.814760000732 # h*
 1058 230   7   0.4238  -0.197260713640  15.429378500702  45.305660000081 # h*
 1059 230   6  -0.8476  -1.008800713524  14.834578501400  45.177460001470 # o*
 1060 231   7   0.4238  16.222150000439   0.974409500088  28.359559998256 # h*
 1061 231   7   0.4238  16.845469999135   1.105978501328  26.783460001554 # h*
 1062 231   6  -0.8476  16.794879998540   1.541278500837  27.722159997874 # o*
 1063 232   7   0.4238   7.078819286499   4.267408500533  50.833560000548 # h*
 1064 232   7   0.4238   5.451619286853   4.173858500626  50.718160000486 # h*
 1065 232   6  -0.8476   6.279719286386   4.026578500435  50.214059998482 # o*
 1066 233   7   0.4238   2.936619286030   8.277268501314  54.543660000234 # h*
 1067 233   7   0.4238   3.356319287358   8.147078499662   0.638710000822 # h*
 1068 233   6  -0.8476   2.982719286947   7.549258501388  55.259460002798 # o*
 1069 234   7   0.4238 -10.133790712725  16.635178500658  43.689459998585 # h*
 1070 234   7   0.4238  -8.989576711655  15.740678499680  44.610960001006 # h*
 1071 234   6  -0.8476  -9.330809712969  16.695078501267  44.292859998671 # o*
 1072 235   7   0.4238  -5.931680712374  14.736878501371  44.027860001732 # h*
 1073 235   7   0.4238  -5.963520712199  15.842878499773  42.826359997846 # h*
 1074 235   6  -0.8476  -5.452500712606  15.545678500624  43.658559999667 # o*
 1075 236   7   0.4238   4.070300000926  13.558778499819  27.125460002909 # h*
 1076 236   7   0.4238   2.636919286368  13.374378501163  26.664659999801 # h*
 1077 236   6  -0.8476   3.188029998695  14.099078500831  27.083359999725 # o*
 1078 237   7   0.4238   6.572479999468  15.413478500100  54.310459997615 # h*
 1079 237   7   0.4238   6.516850000972  15.740778499930  52.762159998453 # h*
 1080 237   6  -0.8476   6.976350001083  15.097878499691  53.420259998218 # o*
 1081 238   7   0.4238  16.740719998820   1.841848500770  47.209159997718 # h*
 1082 238   7   0.4238  17.488080000372   2.595768499660  48.420959999399 # h*
 1083 238   6  -0.8476  17.612839999695   2.303268501075  47.466959998241 # o*
 1084 239   7   0.4238  14.796800001086   3.499528499924  50.648259999762 # h*
 1085 239   7   0.4238  15.429649998330   4.889018501053  49.895960001682 # h*
 1086 239   6  -0.8476  15.364099999829   3.884488500729  49.868759999231 # o*
 1087 240   7   0.4238  19.627049999383   1.057066500150  43.526860001107 # h*
 1088 240   7   0.4238  18.557650001176   1.752438499651  42.567859998440 # h*
 1089 240   6  -0.8476  19.028289999236   1.891408500134  43.454759999941 # o*
 1090 241   7   0.4238   5.374799999282  17.685578499883  40.578460001894 # h*
 1091 241   7   0.4238   5.444799999990  16.442878500893  41.650860000698 # h*
 1092 241   6  -0.8476   5.976959998906  17.205878501233  41.270860002267 # o*
 1093 242   7   0.4238  -2.779770712596   7.427118500286  51.501160000966 # h*
 1094 242   7   0.4238  -4.118940713295   6.675858500961  50.783960000636 # h*
 1095 242   6  -0.8476  -3.134620712826   6.576888499805  51.063159999425 # o*
 1096 243   7   0.4238   2.697019287210   8.158838499606  29.879759999566 # h*
 1097 243   7   0.4238   1.441169287671   7.304438500074  30.016559997894 # h*
 1098 243   6  -0.8476   1.827719287439   8.156928500986  30.400859998951 # o*
 1099 244   7   0.4238   0.143609287856  13.916378500830  54.200759997944 # h*
 1100 244   7   0.4238   1.762619287439  13.928978500637  54.136859997924 # h*
 1101 244   6  -0.8476   0.977609286918  13.388678499625  54.476359998524 # o*
 1102 245   7   0.4238  -0.719340714332  11.063478501323  41.635659999654 # h*
 1103 245   7   0.4238  -1.610110712431  10.622078499610  42.861360002872 # h*
 1104 245   6  -0.8476  -1.670390713643  11.090078500708  41.977159998644 # o*
 1105 246   7   0.4238   2.917919286997  12.657478500487  37.194660000153 # h*
 1106 246   7   0.4238   3.303319287118  11.980778499639  35.847459997910 # h*
 1107 246   6  -0.8476   2.807319287795  12.800778500795  36.188060001499 # o*
 1108 247   7   0.4238  -7.639729713139  14.442878500897  46.029160001426 # h*
 1109 247   7   0.4238  11.631699000266  13.799578499655  45.681559997939 # h*
 1110 247   6  -0.8476  -8.385956012984  14.492078500854  45.352759999239 # o*
 1111 248   7   0.4238  12.515719000653   5.566348499930  43.154860001769 # h*
 1112 248   7   0.4238  12.348691000755   5.909418499849  41.647660001061 # h*
 1113 248   6  -0.8476  12.781897999985   6.261798500113  42.469259999241 # o*
 1114 249   7   0.4238   7.088509998956  16.850778500881  35.067859999120 # h*
 1115 249   7   0.4238   8.093169999567  17.853478500170  34.382060000074 # h*
 1116 249   6  -0.8476   7.320469999468  17.214678500861  34.135360000022 # o*
 1117 250   7   0.4238   1.334059286391  16.104978500662  42.212459997913 # h*
 1118 250   7   0.4238   2.755639999798  16.138178499768  41.582060002963 # h*
 1119 250   6  -0.8476   2.288640000138  15.963278500626  42.469460001294 # o*
 1120 251   7   0.4238  -6.621570713243  13.011978501204  47.821560001627 # h*
 1121 251   7   0.4238  -5.835790713317  12.970578500238  46.380359997587 # h*
 1122 251   6  -0.8476  -6.263250714188  13.601878501308  47.036459998963 # o*
 1123 252   7   0.4238  12.679670999362   2.308808499635  48.517059997844 # h*
 1124 252   7   0.4238  12.776130998807   1.727058500334  47.008559997629 # h*
 1125 252   6  -0.8476  13.360599998571   2.071018501174  47.759359999684 # o*
 1126 253   7   0.4238   1.988019288255   4.065418500219  43.337459999748 # h*
 1127 253   7   0.4238   3.201019286477   3.072678500100  42.846560000399 # h*
 1128 253   6  -0.8476   2.503819286046   3.228558501286  43.574860001200 # o*
 1129 254   7   0.4238  19.482549998729   1.361918501357   0.124540000341 # h*
 1130 254   7   0.4238  18.411839998639   2.542698501403   0.319609999292 # h*
 1131 254   6  -0.8476  18.481399999653   1.582188500015  55.289360002522 # o*
 1132 255   7   0.4238  -7.100500712722  12.827778501182  42.181559998994 # h*
 1133 255   7   0.4238  -6.253370713331  11.471178500810  42.172160002135 # h*
 1134 255   6  -0.8476  -6.138430711763  12.485678499770  42.217559997680 # o*
 1135 256   7   0.4238   0.713609285905   2.795568501400  38.489460001418 # h*
 1136 256   7   0.4238  -0.630280712187   3.265548501106  37.705560000002 # h*
 1137 256   6  -0.8476  -0.220360713534   2.485688501122  38.235360002897 # o*
 1138 257   7   0.4238   3.137119287130   5.194808499865  51.838760001436 # h*
 1139 257   7   0.4238   3.249619286842   6.576338501229  51.108760002557 # h*
 1140 257   6  -0.8476   2.541619286526   5.867308501400  51.343460001202 # o*
 1141 258   7   0.4238  -0.424860712286  10.781878500155  53.028360002174 # h*
 1142 258   7   0.4238  -0.753520714221  11.680978501448  51.733460002650 # h*
 1143 258   6  -0.8476  -0.203530713361  10.872778499962  52.046360001423 # o*
 1144 259   7   0.4238   7.772059998934  10.667978500641  40.664360000803 # h*
 1145 259   7   0.4238   8.341209999445   9.470718501156  39.714159999907 # h*
 1146 259   6  -0.8476   8.034210000195   9.685038500788  40.661259999425 # o*
 1147 260   7   0.4238   1.944919287801   9.671808501084  26.685059998872 # h*
 1148 260   7   0.4238   0.658549287468   8.734088501305  26.286960000072 # h*
 1149 260   6  -0.8476   0.930279286435   9.692318501465  26.554560001560 # o*
 1150 261   7   0.4238  -0.065560711480   9.030528500046  41.960060003004 # h*
 1151 261   7   0.4238   1.361609288299   9.260748500279  42.462760001707 # h*
 1152 261   6  -0.8476   0.706689287164   9.712038501174  41.858160000374 # o*
 1153 262   7   0.4238   9.740629998674   8.496928500873  37.864460001014 # h*
 1154 262   7   0.4238   8.224940000510   9.000198500471  37.363360002129 # h*
 1155 262   6  -0.8476   8.855099999440   8.871408500457  38.149660000506 # o*
 1156 263   7   0.4238   5.045719287278  10.962678501000  38.719360000607 # h*
 1157 263   7   0.4238   4.452490000487  12.351578500092  39.220960001856 # h*
 1158 263   6  -0.8476   5.305789999822  11.842578500898  39.173159998281 # o*
 1159 264   7   0.4238   6.375929999845  13.102678500511  44.321960001253 # h*
 1160 264   7   0.4238   6.474569999887  14.573678499781  43.541760001839 # h*
 1161 264   6  -0.8476   6.462029998958  13.608878500163  43.420360001073 # o*
 1162 265   7   0.4238   1.061939285742  10.071188501398  45.557060001330 # h*
 1163 265   7   0.4238   0.726449287556   8.663528499772  44.953759999503 # h*
 1164 265   6  -0.8476   1.489159287820   9.373158501104  44.957860000076 # o*
 1165 266   7   0.4238   5.004819286781  10.299978499730  24.380260002798 # h*
 1166 266   7   0.4238   4.876619286655   8.738028501461  24.220760001163 # h*
 1167 266   6  -0.8476   5.198419288032   9.417038500063  24.924459998526 # o*
 1168 267   7   0.4238   2.678519287019  13.341978500326  47.546860001982 # h*
 1169 267   7   0.4238   2.664119288304  12.907878500087  45.916159998325 # h*
 1170 267   6  -0.8476   3.091819287767  12.735778500487  46.837360000434 # o*
 1171 268   7   0.4238   4.811019286222   6.095518500895  38.544760001721 # h*
 1172 268   7   0.4238   4.302419287376   4.713698500112  37.943960000649 # h*
 1173 268   6  -0.8476   4.231619286601   5.268828501099  38.774960001222 # o*
 1174 269   7   0.4238   0.188219287088   9.211618500310  48.813259999548 # h*
 1175 269   7   0.4238  -0.322400713220   8.507818500693  47.446760001223 # h*
 1176 269   6  -0.8476  -0.426890711890   8.487738499708  48.475059998455 # o*
 1177 270   7   0.4238  -7.935209713773  16.035878501292  53.028960002798 # h*
 1178 270   7   0.4238  -9.263007712485  15.273678501087  52.496560000889 # h*
 1179 270   6  -0.8476  -8.385332412537  15.124378500693  52.929059998557 # o*
 1180 271   7   0.4238  -5.241130712801   9.292268499659  52.721360000311 # h*
 1181 271   7   0.4238  -5.758200712200   9.519268500419  51.146559997580 # h*
 1182 271   6  -0.8476  14.686649999844   9.137618499873  52.057760002206 # o*
 1183 272   7   0.4238   4.112019287331   9.829028499649  25.980160000262 # h*
 1184 272   7   0.4238   3.884719287453   9.296258500874  27.496260000999 # h*
 1185 272   6  -0.8476   3.506519287500   9.949478499693  26.823760002866 # o*
 1186 273   7   0.4238  12.315531399988   8.310368500169  32.584359998053 # h*
 1187 273   7   0.4238  12.536477000146   9.368148500322  31.334959997867 # h*
 1188 273   6  -0.8476  12.068479998913   8.481078501331  31.630460000689 # o*
 1189 274   7   0.4238   6.101219287717   5.778928501181  35.731560001018 # h*
 1190 274   7   0.4238   4.689619286225   5.038198500400  35.550060000493 # h*
 1191 274   6  -0.8476   5.673219287775   4.959518500195  35.301760000623 # o*
 1192 275   7   0.4238  11.253930000448   6.044888500905  33.776060000974 # h*
 1193 275   7   0.4238  12.666071999396   6.722448500545  33.826359999769 # h*
 1194 275   6  -0.8476  12.236053799671   5.801948499817  33.734159999844 # o*
 1195 276   7   0.4238  12.355021599067   6.104418500773  49.885560000094 # h*
 1196 276   7   0.4238  11.103900000263   5.205078501121  49.858460001436 # h*
 1197 276   6  -0.8476  11.859381999454   5.509388500709  49.255360001662 # o*
 1198 277   7   0.4238  -1.593280712682  16.651778501145  49.899160001319 # h*
 1199 277   7   0.4238  -2.476670713644  16.034978500905  51.152159999713 # h*
 1200 277   6  -0.8476  -1.513770712468  16.203078499825  50.819860001063 # o*
 1201 278   7   0.4238  10.715850000144   2.775948500073  41.566260001295 # h*
 1202 278   7   0.4238   9.637219287669   2.458288499734  40.353760000732 # h*
 1203 278   6  -0.8476  10.633010000660   2.551968500153  40.564860000668 # o*
 1204 279   7   0.4238   6.240719286901   6.892918499611  31.014759998884 # h*
 1205 279   7   0.4238   4.685619286144   6.550308501218  31.172560002441 # h*
 1206 279   6  -0.8476   5.379819286795   6.837288500172  30.462859998840 # o*
 1207 280   7   0.4238  -2.783810711887   5.211618500318  46.034459997712 # h*
 1208 280   7   0.4238  -2.274410712094   5.573538499821  47.464959999852 # h*
 1209 280   6  -0.8476  -2.717710712103   6.004808500256  46.668160001628 # o*
 1210 281   7   0.4238   2.665119287416   5.894338500181  55.016159998902 # h*
 1211 281   7   0.4238   1.755519287308   4.671638500854   0.261790001904 # h*
 1212 281   6  -0.8476   2.400019286405   4.897998500385  54.853560001423 # o*
 1213 282   7   0.4238   1.778819287935   4.184308499717  29.049960000240 # h*
 1214 282   7   0.4238   1.248639286008   5.114398500744  27.889160001772 # h*
 1215 282   6  -0.8476   1.273229287449   5.081488501057  28.897860002609 # o*
 1216 283   7   0.4238   9.110990000325   8.360858500182  53.890459998184 # h*
 1217 283   7   0.4238  10.653759999876   8.859188500855  53.825460000710 # h*
 1218 283   6  -0.8476  10.072720000997   8.083398499671  54.074960001828 # o*
 1219 284   7   0.4238  -0.158750711457  14.292578499865  34.297760000982 # h*
 1220 284   7   0.4238   0.548779287916  14.504778500912  32.871560001469 # h*
 1221 284   6  -0.8476  -0.289630712726  14.733178501442  33.363559998272 # o*
 1222 285   7   0.4238  -2.095500713312  13.727378499991  52.146359998389 # h*
 1223 285   7   0.4238  -2.315430713317  13.143578500225  50.679560002786 # h*
 1224 285   6  -0.8476  -2.229180712438  12.877678501025  51.645359997763 # o*
 1225 286   7   0.4238  -1.317220712597  17.412478501328  32.231360000020 # h*
 1226 286   7   0.4238  -0.983270713016  16.232978500004  33.194960000090 # h*
 1227 286   6  -0.8476  -1.316040711584  17.198578499759  33.220660000981 # o*
 1228 287   7   0.4238  11.560589998377   4.398808500920  39.649160002433 # h*
 1229 287   7   0.4238  12.808208998719   5.401148500802  39.418259998514 # h*
 1230 287   6  -0.8476  12.054146998898   5.152048500722  40.057460000768 # o*
 1231 288   7   0.4238   5.411139999877  11.836278500060  54.588559998949 # h*
 1232 288   7   0.4238   5.199509998622  12.454678500572   0.693859998202 # h*
 1233 288   6  -0.8476   5.281739999393  11.532978500574   0.203859999789 # o*
 1234 289   7   0.4238  11.874147000366   4.056768500032  32.983860000153 # h*
 1235 289   7   0.4238  11.167400000605   2.648688500343  33.312659998854 # h*
 1236 289   6  -0.8476  11.244139999971   3.375898500133  32.590959999380 # o*
 1237 290   7   0.4238  -8.773797712542  16.557878501294  31.938860000318 # h*
 1238 290   7   0.4238  -7.623174713134  15.792778501298  32.832959998235 # h*
 1239 290   6  -0.8476  -7.780047713009  16.343978499726  31.991459997814 # o*
 1240 291   7   0.4238  -9.847590713614  16.044778501170  36.992960002610 # h*
 1241 291   7   0.4238  -8.262260713960  16.383978500921  36.803059998887 # h*
 1242 291   6  -0.8476  -8.959113713110  15.685378501254  36.610960000255 # o*
 1243 292   7   0.4238   6.731679999480  16.773478499649  45.278759997942 # h*
 1244 292   7   0.4238   7.873089999248  16.953978499743  44.179959999363 # h*
 1245 292   6  -0.8476   7.531129999659  16.284278499618  44.885960000963 # o*
 1246 293   7   0.4238   1.110509287839  11.720178500639  49.209359999959 # h*
 1247 293   7   0.4238   1.099579287284  10.852978500799  50.503860000912 # h*
 1248 293   6  -0.8476   1.372159288266  10.792878499690  49.519960000031 # o*
 1249 294   7   0.4238  18.079630000007   3.019088499794  40.363960000267 # h*
 1250 294   7   0.4238  18.274760000531   1.411738499878  40.229259998588 # h*
 1251 294   6  -0.8476  18.115730000786   2.156278500303  40.880860000820 # o*
 1252 295   7   0.4238  -1.804610712962   5.091058500559  36.683060001421 # h*
 1253 295   7   0.4238  -0.259790714057   5.275278501379  36.435160000122 # h*
 1254 295   6  -0.8476  -0.955840713931   5.115298501130  37.201759998311 # o*
 1255 296   7   0.4238  13.956529999212   4.883588500340  29.355060001973 # h*
 1256 296   7   0.4238  14.623329998773   4.194678501223  28.125360001976 # h*
 1257 296   6  -0.8476  13.817200000354   4.064118500698  28.716460000343 # o*
 1258 297   7   0.4238   6.626439999326  17.846778500199  49.395059999316 # h*
 1259 297   7   0.4238   7.497299999994  18.565578500031  48.131860001387 # h*
 1260 297   6  -0.8476   7.445129999439  17.786478500456  48.807060002327 # o*
 1261 298   7   0.4238  -1.766800712381  17.579778500112  36.238759998865 # h*
 1262 298   7   0.4238  -2.056650713946  17.456278500834  34.675660002764 # h*
 1263 298   6  -0.8476  -2.381440712360  17.935078500965  35.536560003061 # o*
 1264 299   7   0.4238   9.694719285877   3.453758501273  31.947460000035 # h*
 1265 299   7   0.4238   8.200219286259   3.802628500777  32.473760002981 # h*
 1266 299   6  -0.8476   8.687019286979   3.518768501046  31.642560000355 # o*
 1267 300   7   0.4238   5.142510000156  15.928078500246  49.423959999844 # h*
 1268 300   7   0.4238   5.234650000499  16.803678500580  50.736160002596 # h*
 1269 300   6  -0.8476   4.661550000229  16.705778500050  49.903260001892 # o*
 1270 301   7   0.4238  -0.609120712953  11.999078500648  35.054259997895 # h*
 1271 301   7   0.4238  -0.979020714334  10.669778501414  34.261460001984 # h*
 1272 301   6  -0.8476  -1.229310712970  11.208478500286  35.106160002042 # o*
 1273 302   7   0.4238   4.389229999332  16.553578499863  36.687359998512 # h*
 1274 302   7   0.4238   4.161550000546  17.739978499790  37.669359999263 # h*
 1275 302   6  -0.8476   4.630629998604  16.805378501103  37.657359997856 # o*
 1276 303   7   0.4238   2.616019286939  14.086978500408  24.219559999915 # h*
 1277 303   7   0.4238   3.708170000834  15.334378499964  24.277159998920 # h*
 1278 303   6  -0.8476   3.391070000071  14.515978500947  23.709659999261 # o*
 1279 304   7   0.4238  -3.639560711729   6.700998500051  32.523659997670 # h*
 1280 304   7   0.4238  -2.851820712898   6.120018500623  31.192459999148 # h*
 1281 304   6  -0.8476  -2.988630712175   5.982278499672  32.182260002473 # o*
 1282 305   7   0.4238   2.754019285953   0.716602501192  33.982060001143 # h*
 1283 305   7   0.4238   1.345869287721   0.290529500681  34.826760001201 # h*
 1284 305   6  -0.8476   1.954884386721   0.052265206672  34.030760000119 # o*
 1285 306   7   0.4238  -2.030410712789  11.876078500755  30.504060001088 # h*
 1286 306   7   0.4238  -1.973200712625  10.813678501357  29.322260002924 # h*
 1287 306   6  -0.8476  -2.569560714057  11.126078501223  30.073960000381 # o*
 1288 307   7   0.4238  -2.346900713544  11.515978500953  24.438860000998 # h*
 1289 307   7   0.4238  -3.415650712627  12.110878500505  25.391459998855 # h*
 1290 307   6  -0.8476  -3.366150712382  11.662178501054  24.478560001686 # o*
 1291 308   7   0.4238   0.254849287292   3.723268499616  34.536059997835 # h*
 1292 308   7   0.4238   0.733989287865   2.559628501035  35.534060002307 # h*
 1293 308   6  -0.8476   1.080669287025   3.355118501131  34.994560002241 # o*
 1294 309   7   0.4238   3.702409999118  15.991478500282  27.184960002044 # h*
 1295 309   7   0.4238   4.941229998643  17.021578500960  26.795059998855 # h*
 1296 309   6  -0.8476   3.956739999615  16.828378500809  26.656960001020 # o*
 1297 310   7   0.4238  11.812443999373   7.925638500127  47.316960002793 # h*
 1298 310   7   0.4238  11.456207999346   6.653698501117  48.115459999095 # h*
 1299 310   6  -0.8476  10.963109998353   7.428428501139  47.678760002595 # o*
 1300 311   7   0.4238  -4.868060713303   7.991808501311  36.064559998550 # h*
 1301 311   7   0.4238  -3.472470712581   8.362688501217  35.399159998575 # h*
 1302 311   6  -0.8476  -3.962290713592   7.604988501077  35.819860002423 # o*
 1303 312   7   0.4238  -3.800860712356  18.667578499624  46.034659999765 # h*
 1304 312   7   0.4238   9.166919286348   1.191968500604  46.667659999263 # h*
 1305 312   6  -0.8476   9.403019288089   0.341340499761  46.131260000575 # o*
 1306 313   7   0.4238   1.329449287229   7.640478500876  32.766459999201 # h*
 1307 313   7   0.4238   0.080119287604   8.095628500606  33.663760002290 # h*
 1308 313   6  -0.8476   1.021609286953   7.665378499738  33.740259998806 # o*
 1309 314   7   0.4238  -1.142190712078  16.614878500243  41.058959999654 # h*
 1310 314   7   0.4238  -1.380320713376  18.081078500565  41.388560001031 # h*
 1311 314   6  -0.8476  -0.809940711576  17.538778500147  40.747560002441 # o*
 1312 315   7   0.4238   6.765939999481  10.646778499839   0.612809997878 # h*
 1313 315   7   0.4238   8.128819998774  11.424878500645   0.845049999499 # h*
 1314 315   6  -0.8476   7.728409999244  10.460178501277   0.863360002854 # o*
 1315 316   7   0.4238  -4.619340713237  11.010178500435  28.177359998848 # h*
 1316 316   7   0.4238  -5.634070712979  11.684278500374  29.176360002515 # h*
 1317 316   6  -0.8476  -5.580310712781  10.928278500757  28.475660002736 # o*
 1318 317   7   0.4238   7.446189999676  11.658778500009  46.565860000426 # h*
 1319 317   7   0.4238   7.698269999723  12.236978500692  48.140259999051 # h*
 1320 317   6  -0.8476   8.126229999066  11.801578500933  47.302559998891 # o*
 1321 318   7   0.4238   5.634219285939   5.415518501120  29.711259999643 # h*
 1322 318   7   0.4238   6.949019287778   4.608118499771  29.133460002189 # h*
 1323 318   6  -0.8476   6.011019287326   4.463918500944  29.506660002775 # o*
 1324 319   7   0.4238  11.845684000079   8.554518499992  35.017860000637 # h*
 1325 319   7   0.4238  11.537676000826   7.881228499653  36.449760000542 # h*
 1326 319   6  -0.8476  11.142479999501   8.062238500464  35.516459998768 # o*
 1327 320   7   0.4238  14.364560000362   8.264228500779  33.471259999553 # h*
 1328 320   7   0.4238  13.650329999472   8.904798500599  34.831460002398 # h*
 1329 320   6  -0.8476  13.510999999619   8.247158501169  34.056259998958 # o*
 1330 321   7   0.4238   1.265509288488   5.213828499689  30.774960000471 # h*
 1331 321   7   0.4238   2.121919286547   4.135848501240  31.593759997585 # h*
 1332 321   6  -0.8476   1.739119287430   5.091138500012  31.644060001914 # o*
 1333 322   7   0.4238  11.274351998723   8.996728501305  39.009459997814 # h*
 1334 322   7   0.4238  11.137499998985  10.580478500011  38.979360001572 # h*
 1335 322   6  -0.8476  11.510672000454   9.841018500356  39.547359998061 # o*
 1336 323   7   0.4238  -5.500200712545  13.080178500188  34.452160002850 # h*
 1337 323   7   0.4238  -4.371620712653  13.110478501369  33.249260001198 # h*
 1338 323   6  -0.8476  -5.173800713731  12.605978500372  33.598860003075 # o*
 1339 324   7   0.4238  -4.752100713406  15.219078500679  47.766459997842 # h*
 1340 324   7   0.4238  -3.537680711963  14.396278499981  46.901059998401 # h*
 1341 324   6  -0.8476  -3.772380713499  15.185678501073  47.515960003064 # o*
 1342 325   7   0.4238   1.371659286889  16.174978500419  28.599760000774 # h*
 1343 325   7   0.4238   1.973519287642  14.793378500935  28.093260001810 # h*
 1344 325   6  -0.8476   1.102069286826  15.217878501409  28.416260001860 # o*
 1345 326   7   0.4238  15.730809999123   2.401848500694  33.998359999641 # h*
 1346 326   7   0.4238  14.921489999325   1.077193500300  34.299560002854 # h*
 1347 326   6  -0.8476  15.711799998647   1.611578501345  34.633959998152 # o*
 1348 327   7   0.4238   5.803950000052  12.716878499843  30.570959998692 # h*
 1349 327   7   0.4238   5.563050000265  11.549078499808  29.511959999061 # h*
 1350 327   6  -0.8476   5.688499998390  11.732978500947  30.487460002278 # o*
 1351 328   7   0.4238   8.757519287711   3.405318499857  47.367059999535 # h*
 1352 328   7   0.4238  10.015329999260   3.376008499849  46.481659999594 # h*
 1353 328   6  -0.8476   9.068719287066   2.994798500031  46.492060001182 # o*
 1354 329   7   0.4238   3.344319287056   5.520908500425  26.158859999720 # h*
 1355 329   7   0.4238   2.181619286641   5.275018500354  25.131260001372 # h*
 1356 329   6  -0.8476   2.383919286428   5.814988500352  25.970959999921 # o*
 1357 330   7   0.4238  -8.889982713436  18.131978501045  35.352860002094 # h*
 1358 330   7   0.4238   4.535641388036   0.066065205749  36.242160000555 # h*
 1359 330   6  -0.8476  -7.928191713187  17.980678501245  35.615760002385 # o*
 1360 331   7   0.4238   9.734449999029  14.141478500566  51.754359998551 # h*
 1361 331   7   0.4238   8.729609998883  14.867178500871  52.717659998309 # h*
 1362 331   6  -0.8476   9.650689999467  14.998378500757  52.315560002729 # o*
 1363 332   7   0.4238   9.635119288290   1.021859500332  43.085159997564 # h*
 1364 332   7   0.4238   8.728719288244   0.040077600254  42.296059998121 # h*
 1365 332   6  -0.8476   9.705119287387   0.220848501219  42.479660000829 # o*
 1366 333   7   0.4238  -5.472030713170  18.158778500931  32.177160002706 # h*
 1367 333   7   0.4238  -6.850970712850  17.688678500177  31.587760002416 # h*
 1368 333   6  -0.8476  -6.148640712997  18.389778500502  31.414560001296 # o*
 1369 334   7   0.4238   9.560199999033   4.947238500069  35.660859997618 # h*
 1370 334   7   0.4238   9.332319287135   3.616348500027  36.627859999377 # h*
 1371 334   6  -0.8476  10.031569999880   4.243888500645  36.225560001745 # o*
 1372 335   7   0.4238  10.176970001010  15.151678499963  32.000259999584 # h*
 1373 335   7   0.4238  10.935310000233  14.248878500610  33.165159998625 # h*
 1374 335   6  -0.8476  10.199909998323  14.234278501397  32.449159999543 # o*
 1375 336   7   0.4238  -3.409140713582  12.386078500586  52.991760002864 # h*
 1376 336   7   0.4238  -3.272650712259  11.784978500446  54.358160002930 # h*
 1377 336   6  -0.8476  -4.003340712306  12.214978499754  53.820159998889 # o*
 1378 337   7   0.4238  12.137052000200   0.873332499837  27.957959999507 # h*
 1379 337   7   0.4238   0.199000000400  18.165078499900  27.269759997965 # h*
 1380 337   6  -0.8476   0.387399999173  18.664078500196  28.130659998262 # o*
 1381 338   7   0.4238   5.412919287492   4.400718501408  40.333259997867 # h*
 1382 338   7   0.4238   5.921119286974   5.751558500054  41.190359997903 # h*
 1383 338   6  -0.8476   6.158719286710   4.819948500077  40.904360001269 # o*
 1384 339   7   0.4238   7.094589998573   9.253088501265  53.137360002962 # h*
 1385 339   7   0.4238   8.008919999486   8.164388501367  52.160460001979 # h*
 1386 339   6  -0.8476   7.605229999179   8.371188500094  53.084459999619 # o*
 1387 340   7   0.4238  -6.635290713749  16.309978500484  51.804460000827 # h*
 1388 340   7   0.4238  -7.215580713271  16.258378500119  50.341459999951 # h*
 1389 340   6  -0.8476  -6.319480712358  16.290478500205  50.839059998887 # o*
 1390 341   7   0.4238   9.780280000906  12.200178500041  46.563659999984 # h*
 1391 341   7   0.4238   9.773650000030  12.325178501208  45.005359997804 # h*
 1392 341   6  -0.8476  10.224499999584  12.714578499685  45.826360000895 # o*
 1393 342   7   0.4238  -4.833190712258  15.847878501090  51.364859999468 # h*
 1394 342   7   0.4238  -4.645140713536  15.234678500529  52.805659999402 # h*
 1395 342   6  -0.8476  -4.108190714007  15.565878500788  52.000660000032 # o*
 1396 343   7   0.4238   0.536079287981   9.685808500662  37.333659998924 # h*
 1397 343   7   0.4238  -0.225950713092   9.660858500740  35.908860002711 # h*
 1398 343   6  -0.8476   0.185479287011   9.078498500471  36.616759998906 # o*
 1399 344   7   0.4238 -10.270460713098  17.647378501329  54.774360002100 # h*
 1400 344   7   0.4238  -9.111180712200  18.564478501012  54.047759999377 # h*
 1401 344   6  -0.8476  -9.988970711593  18.117378499964  53.901559998655 # o*
 1402 345   7   0.4238   6.080439999781  16.444278500664  36.995260001312 # h*
 1403 345   7   0.4238   7.134760000166  15.165078499906  36.949760001973 # h*
 1404 345   6  -0.8476   7.074149999229  16.192778500176  36.855660001917 # o*
 1405 346   7   0.4238   6.984789999142  17.559178500813  52.470760001739 # h*
 1406 346   7   0.4238   5.391619999819  18.013578499599  52.449460001732 # h*
 1407 346   6  -0.8476   6.031770000516  17.212778499838  52.243160001251 # o*
 1408 347   7   0.4238  -0.854230712259  13.347978500412  36.485960001281 # h*
 1409 347   7   0.4238   0.805359287122  13.505778499682  36.227659998394 # h*
 1410 347   6  -0.8476  -0.127480712874  13.649978500377  35.798860002728 # o*
 1411 348   7   0.4238   4.943119288046   4.083888499599  25.945959997912 # h*
 1412 348   7   0.4238   5.547719286627   2.498408500109  25.507260003023 # h*
 1413 348   6  -0.8476   4.970119286445   3.339748500176  25.231160000078 # o*
 1414 349   7   0.4238   2.516319287339   6.282948499855  41.052760002433 # h*
 1415 349   7   0.4238   2.897819287233   5.588448501118  39.649460002745 # h*
 1416 349   6  -0.8476   2.060219286528   5.698008501342  40.304259999079 # o*
 1417 350   7   0.4238  -2.044260713833  11.204278500973   0.210290001862 # h*
 1418 350   7   0.4238  -0.502650712195  11.247278500343  55.068860000192 # h*
 1419 350   6  -0.8476  -1.435260712620  11.641278501004  54.885859998108 # o*
 1420 351   7   0.4238  14.561089998768   1.433798501340  39.446960002525 # h*
 1421 351   7   0.4238  15.516019999873   2.468368499953  40.058559998222 # h*
 1422 351   6  -0.8476  15.369479998912   2.002558501165  39.178859998673 # o*
 1423 352   7   0.4238  13.924530000303   2.861438499965  25.561259998285 # h*
 1424 352   7   0.4238  14.308320000664   4.278088500387  25.891660002338 # h*
 1425 352   6  -0.8476  13.742399999463   3.789128500584  25.219560002776 # o*
 1426 353   7   0.4238  10.721259999910  10.532378500941  49.718960000301 # h*
 1427 353   7   0.4238  11.886557999991   9.712798499716  50.525760001542 # h*
 1428 353   6  -0.8476  11.655008999017  10.591078500412  50.058959997732 # o*
 1429 354   7   0.4238   4.969019287629   4.141828500528  44.965859999169 # h*
 1430 354   7   0.4238   5.037619287984   3.967288500793  43.419159999826 # h*
 1431 354   6  -0.8476   5.616219287381   4.250808500046  44.197660001162 # o*
 1432 355   7   0.4238   0.020739287246  13.897078501052  47.964459998917 # h*
 1433 355   7   0.4238  -0.659050714099  14.058978501253  46.531359997765 # h*
 1434 355   6  -0.8476  -0.761980712307  13.576678499826  47.423659999345 # o*
 1435 356   7   0.4238   8.122470000034   6.180638500046  51.733560000909 # h*
 1436 356   7   0.4238   7.509219287151   5.463158500532  53.084060001048 # h*
 1437 356   6  -0.8476   7.769319287567   5.314278500069  52.107559998636 # o*
 1438 357   7   0.4238   4.324819287559   2.225028499731  40.728560001135 # h*
 1439 357   7   0.4238   5.282919287741   2.066208500894  42.040560001834 # h*
 1440 357   6  -0.8476   4.396719287204   2.445428500770  41.726359998020 # o*
 1441 358   7   0.4238   0.989789287788   3.222748500369  26.115959999395 # h*
 1442 358   7   0.4238   1.180039286320   3.025588501132  27.671660002561 # h*
 1443 358   6  -0.8476   0.469549287380   3.181038501054  26.976559999380 # o*
 1444 359   7   0.4238   6.599819288740   4.099588499699  47.110360002001 # h*
 1445 359   7   0.4238   6.793919287067   4.505408500828  48.687659999951 # h*
 1446 359   6  -0.8476   7.118719288234   4.673708500249  47.745359999888 # o*
 1447 360   7   0.4238  -6.007410712531  11.220178499706  53.928760001106 # h*
 1448 360   7   0.4238  -6.888870711215  12.290978499597  53.142560000989 # h*
 1449 360   6  -0.8476  -6.897320712372  11.704378500289  53.954059997892 # o*
 1450 361   7   0.4238  11.581034998657   0.706607501093  38.610260001560 # h*
 1451 361   7   0.4238  -1.705470713959  18.202978501439  38.481560000584 # h*
 1452 361   6  -0.8476  10.622819287825   0.509474500224  38.287059999458 # o*
 1453 362   7   0.4238  -0.998640713127   3.114958500656  27.958760002183 # h*
 1454 362   7   0.4238  18.143749999535   2.511968500826  28.244059999935 # h*
 1455 362   6  -0.8476  -1.759640712004   3.079368500607  28.638860000838 # o*
 1456 363   7   0.4238   5.966539999262   9.393998500630  47.976859998895 # h*
 1457 363   7   0.4238   4.645419287718  10.299478500346  48.099259998856 # h*
 1458 363   6  -0.8476   5.618610000095  10.267878499644  48.341660001816 # o*
 1459 364   7   0.4238  11.630701999261   4.473258499682  47.297360000864 # h*
 1460 364   7   0.4238  12.349601699244   4.549298501120  45.727359997590 # h*
 1461 364   6  -0.8476  11.544846999098   4.319638500795  46.278160000180 # o*
 1462 365   7   0.4238  17.951989999102   3.106118501301  35.752860001025 # h*
 1463 365   7   0.4238  -1.627490713602   3.206658500599  34.521160002638 # h*
 1464 365   6  -0.8476  18.778139999488   2.646408500983  35.349360002145 # o*
 1465 366   7   0.4238  18.158090000157   2.719708499666  51.018560001022 # h*
 1466 366   7   0.4238  16.634199999350   3.002218500685  50.428760002161 # h*
 1467 366   6  -0.8476  17.222389998835   2.355118501133  50.919360001199 # o*
 1468 367   7   0.4238   3.012819287566   6.279378500439  32.342460002991 # h*
 1469 367   7   0.4238   4.296019287871   5.665858500197  33.137859997915 # h*
 1470 367   6  -0.8476   3.974619286966   6.457108501253  32.628559997885 # o*
 1471 368   7   0.4238   9.583219998918  11.105778500808  53.361260001447 # h*
 1472 368   7   0.4238   9.070549999028  11.894778500898  52.130059999891 # h*
 1473 368   6  -0.8476   8.748210000998  11.263478499828  52.822660002317 # o*
 1474 369   7   0.4238  -6.502900713176  14.712578500276  26.591859999753 # h*
 1475 369   7   0.4238  -6.605100712372  15.649278500488  27.919660002119 # h*
 1476 369   6  -0.8476  -5.991160713728  15.357278501288  27.183360002225 # o*
 1477 370   7   0.4238  15.159910001081   0.236712499638  45.883659999588 # h*
 1478 370   7   0.4238  14.567629999559   1.384818500813  47.003160003084 # h*
 1479 370   6  -0.8476  15.402849998994   0.948887500153  46.589660001187 # o*
 1480 371   7   0.4238   1.681119286375  14.497278500804  49.177460001846 # h*
 1481 371   7   0.4238   2.342819286558  13.292378501234  49.884659999158 # h*
 1482 371   6  -0.8476   1.638719287685  13.459378501135  49.148359999264 # o*
 1483 372   7   0.4238  14.357410000563   3.115288499801  30.242159999992 # h*
 1484 372   7   0.4238  13.593440001289   2.428108499600  31.498460001816 # h*
 1485 372   6  -0.8476  14.415649998596   2.351768501147  30.925660000337 # o*
 1486 373   7   0.4238   4.987519998649  14.809678500670  33.375959998250 # h*
 1487 373   7   0.4238   6.254519999069  15.711078500252  33.163660002600 # h*
 1488 373   6  -0.8476   5.855479999412  14.831878500240  32.822459998387 # o*
 1489 374   7   0.4238  13.630479998189   2.831858501334  52.861860000641 # h*
 1490 374   7   0.4238  14.622819999501   1.972778500166  52.011360001932 # h*
 1491 374   6  -0.8476  14.321860000698   2.929238499815  52.085760001799 # o*
 1492 375   7   0.4238   8.773669999881  13.669078499655  32.896259997631 # h*
 1493 375   7   0.4238   7.126499999537  13.862178501424  32.891660000228 # h*
 1494 375   6  -0.8476   7.886220001129  13.222378499609  33.136660002202 # o*
 1495 376   7   0.4238   2.440519287287  10.319078500875  48.429660002909 # h*
 1496 376   7   0.4238   3.266419288279  11.097278500064  47.410760002537 # h*
 1497 376   6  -0.8476   3.073319287117  10.122778500431  47.645360002922 # o*
 1498 377   7   0.4238  -0.129950713342  11.227878500315  29.156360002015 # h*
 1499 377   7   0.4238   0.114679287295  10.465578499860  27.744860001181 # h*
 1500 377   6  -0.8476  -0.618130712872  10.889978500084  28.295659998236 # o*
 1501 378   7   0.4238  14.280999999079   5.436918500555  46.394559999437 # h*
 1502 378   7   0.4238  14.629660000492   5.722568499726  44.933459998691 # h*
 1503 378   6  -0.8476  13.930119999446   6.021018501073  45.618060002025 # o*
 1504 379   7   0.4238  -1.608760712650  14.376678501319  26.451359999422 # h*
 1505 379   7   0.4238  -0.175840712930  14.630578500347  27.194959999527 # h*
 1506 379   6  -0.8476  -0.625940713109  14.252278499787  26.335860001101 # o*
 1507 380   7   0.4238   3.536309999535  15.465978500852  34.603960000169 # h*
 1508 380   7   0.4238   3.620150000307  13.850278499634  35.061760000158 # h*
 1509 380   6  -0.8476   4.033529999604  14.612378501456  34.489160000731 # o*
 1510 381   7   0.4238   4.872619285873   3.249848501006  35.833960000478 # h*
 1511 381   7   0.4238   5.598419287204   1.959338500497  36.174460000274 # h*
 1512 381   6  -0.8476   4.684219287916   2.380058499722  36.318360002294 # o*
 1513 382   7   0.4238   6.647219287932   0.608034500913  26.843860001625 # h*
 1514 382   7   0.4238   6.771119285744   2.178348501229  27.229659998706 # h*
 1515 382   6  -0.8476   6.214519286348   1.537118501250  26.632259999324 # o*
 1516 383   7   0.4238  10.455219288173   1.860848499796  25.374460001474 # h*
 1517 383   7   0.4238  10.604489999232   3.420338500869  25.008359999046 # h*
 1518 383   6  -0.8476  10.995319998348   2.715738501116  25.631159999008 # o*
 1519 384   7   0.4238  -2.929530711877   9.716708499610  44.571059998265 # h*
 1520 384   7   0.4238  -1.351320712280   9.285238500542  44.585860000738 # h*
 1521 384   6  -0.8476  -1.999210713404  10.094168500307  44.500960001023 # o*
 1522 385   7   0.4238  -2.888480712122   4.463778500966  38.445159997792 # h*
 1523 385   7   0.4238  -1.995780712247   5.188898500565  39.579260001709 # h*
 1524 385   6  -0.8476  -2.728390712506   4.519338500417  39.435660000001 # o*
 1525 386   7   0.4238   4.767819287798   1.344978500392  34.298459999865 # h*
 1526 386   7   0.4238   4.837819286921   1.732808500727  32.710960002380 # h*
 1527 386   6  -0.8476   4.202819286942   1.556108500812  33.471959998436 # o*
 1528 387   7   0.4238   3.259219287919  10.032018500600  52.706660001631 # h*
 1529 387   7   0.4238   1.723519286684   9.643848499787  53.173259997854 # h*
 1530 387   6  -0.8476   2.681119287575   9.557808501319  53.405559999538 # o*
 1531 388   7   0.4238   9.359319287691   0.980260500118  52.034260001757 # h*
 1532 388   7   0.4238   9.698019288047   0.335479500266  53.554659999585 # h*
 1533 388   6  -0.8476   9.364519287383   1.130388500271  53.031759998330 # o*
 1534 389   7   0.4238  10.700890000038   5.214678500884  51.817160001117 # h*
 1535 389   7   0.4238   9.293070000893   4.615968499821  51.478459997659 # h*
 1536 389   6  -0.8476  10.237530000581   4.578168500400  51.166960002186 # o*
 1537 390   7   0.4238  -2.159980713355  12.323478500685  38.488059998118 # h*
 1538 390   7   0.4238  -2.583260714185  13.755478501265  37.935759999503 # h*
 1539 390   6  -0.8476  -1.778020712795  13.117778500976  37.972160002295 # o*
 1540 391   7   0.4238   3.137519285898   9.547758501362  38.508760003035 # h*
 1541 391   7   0.4238   3.725419286651   9.568428500650  37.040360002079 # h*
 1542 391   6  -0.8476   4.026919286711   9.470588500643  38.003960002149 # o*
 1543 392   7   0.4238  16.952140000091   2.572268500569  22.516559998574 # h*
 1544 392   7   0.4238  17.966629999647   3.408468501210  23.560160000643 # h*
 1545 392   6  -0.8476  17.441910000973   2.516208499865  23.443659997592 # o*
 1546 393   7   0.4238  -6.037490712423  13.360578500218  39.759160002415 # h*
 1547 393   7   0.4238  -6.452070712975  14.942778499711  40.115159998032 # h*
 1548 393   6  -0.8476  -5.813940713370  14.337378500009  39.662560001605 # o*
 1549 394   7   0.4238  10.938200000865   3.229068500135  50.042959999546 # h*
 1550 394   7   0.4238  10.839119287404   1.669098500475  49.779159998319 # h*
 1551 394   6  -0.8476  11.382193999963   2.479968500990  49.515160000575 # o*
 1552 395   7   0.4238  13.406510000020   1.664008500240  36.584959999052 # h*
 1553 395   7   0.4238  13.700265100091   0.190165206529  37.087859999808 # h*
 1554 395   6  -0.8476  13.225770000065   0.672053500127  36.345259998898 # o*
 1555 396   7   0.4238  15.062499998621   4.163938501181  48.341559998023 # h*
 1556 396   7   0.4238  15.001330000669   3.257618499735  47.071459998455 # h*
 1557 396   6  -0.8476  15.080359999705   4.207718499890  47.336959997759 # o*
 1558 397   7   0.4238  15.052920000949   4.490488500066  34.045060000227 # h*
 1559 397   7   0.4238  13.431839998540   4.921708501309  34.420060002684 # h*
 1560 397   6  -0.8476  14.332379999172   4.533668501008  34.773060000716 # o*
 1561 398   7   0.4238   1.088149287143   5.568788500065  45.235459999046 # h*
 1562 398   7   0.4238   0.435819287202   5.176898500393  43.823160001070 # h*
 1563 398   6  -0.8476   1.195289287587   5.764378501159  44.247059999021 # o*
 1564 399   7   0.4238  12.017829999448  10.103278500151  41.445959997983 # h*
 1565 399   7   0.4238  12.150910999730   9.763998500947  43.025259999857 # h*
 1566 399   6  -0.8476  12.617155999224  10.244078499801  42.252960001277 # o*
 1567 400   7   0.4238  -4.117180712294   8.566918501165  43.998660000891 # h*
 1568 400   7   0.4238  -4.362740712573   8.030688500822  42.436159999880 # h*
 1569 400   6  -0.8476  -3.683160713554   7.999818500268  43.224659998699 # o*
 1570 401   7   0.4238   7.161469999066  10.980878499891  32.216859997859 # h*
 1571 401   7   0.4238   7.971980000291   9.745058500576  31.567460001604 # h*
 1572 401   6  -0.8476   7.422939999552  10.009648500791  32.368560002454 # o*
 1573 402   7   0.4238   2.942319286179  13.989378500630  43.945359998978 # h*
 1574 402   7   0.4238   1.451919286640  13.318378500984  43.696860002589 # h*
 1575 402   6  -0.8476   2.312919286469  13.260278501148  44.279960001863 # o*
 1576 403   7   0.4238  11.817514998910   5.490298500896  28.448660002338 # h*
 1577 403   7   0.4238  10.965539999448   6.467478500891  29.358260001611 # h*
 1578 403   6  -0.8476  11.664148999754   6.471398500250  28.615660000701 # o*
 1579 404   7   0.4238   1.615219287278  10.981878500528  31.351860002524 # h*
 1580 404   7   0.4238   1.165549286405   9.641738500666  30.536259999513 # h*
 1581 404   6  -0.8476   0.826669287704  10.586378499846  30.839259999062 # o*
 1582 405   7   0.4238  -1.688650713147   4.878258499878  24.913160001537 # h*
 1583 405   7   0.4238  -1.002780712717   4.641108500778  26.460559999763 # h*
 1584 405   6  -0.8476  -1.753070713117   5.052608500444  25.913960001540 # o*
 1585 406   7   0.4238 -11.076560711892  17.187578500224  38.563760003027 # h*
 1586 406   7   0.4238   8.725770000029  17.101478501233  37.280460000804 # h*
 1587 406   6  -0.8476 -11.014850713104  16.986078499829  37.586359999679 # o*
 1588 407   7   0.4238   0.101699998553  18.062778501424  33.485559999661 # h*
 1589 407   7   0.4238  13.178314000284   0.012111899655  34.663360001045 # h*
 1590 407   6  -0.8476   1.022999999428  18.504578500403  33.650859999947 # o*
 1591 408   7   0.4238  11.925278999354   7.611458500286  43.567760003042 # h*
 1592 408   7   0.4238  10.958740000424   8.137988500615  44.699360000670 # h*
 1593 408   6  -0.8476  11.756556999779   8.404988500702  44.131260000387 # o*
 1594 409   7   0.4238   9.907960000409   7.036278500443  34.816659999924 # h*
 1595 409   7   0.4238   8.415199998550   6.684548500874  35.219660001974 # h*
 1596 409   6  -0.8476   9.209809999929   6.312198501208  34.737559998860 # o*
 1597 410   7   0.4238  -5.607190712439  16.781678499642  35.967360002651 # h*
 1598 410   7   0.4238  -4.054640712784  16.983978500173  35.930560001288 # h*
 1599 410   6  -0.8476  -4.732770711909  16.239778500226  36.008659997623 # o*
 1600 411   7   0.4238  -3.973000711969   9.303418500504  55.052260001382 # h*
 1601 411   7   0.4238  -4.765940713460   7.997888500850  54.399359999643 # h*
 1602 411   6  -0.8476  -4.200880713604   8.836218501410  54.143360000992 # o*
 1603 412   7   0.4238   6.078119286781   6.104908500693  48.444559998107 # h*
 1604 412   7   0.4238   4.949619286241   7.160288500438  48.532559999200 # h*
 1605 412   6  -0.8476   5.849519285896   6.967768501243  48.945960002838 # o*
 1606 413   7   0.4238  -3.240830712494  15.109878499863   0.203849998856 # h*
 1607 413   7   0.4238  -4.519630714394  15.682478501462  54.958659998156 # h*
 1608 413   6  -0.8476  -3.691540713407  16.038178501449   0.103169999339 # o*
 1609 414   7   0.4238  18.574109999881   2.223688500484  30.154459999211 # h*
 1610 414   7   0.4238  18.261010000562   1.251258500245  31.452259998060 # h*
 1611 414   6  -0.8476  18.444569998760   2.186688501199  31.188959999199 # o*
 1612 415   7   0.4238  10.717479998273  12.110478501371  51.176359999045 # h*
 1613 415   7   0.4238  10.154399999318  13.137278501255  50.027059999619 # h*
 1614 415   6  -0.8476   9.969859999464  12.798378500387  51.000559998912 # o*
 1615 416   7   0.4238  -9.338272713818  17.318378500976  49.637460002276 # h*
 1616 416   7   0.4238  -8.909877712138  16.107878500455  48.719060001234 # h*
 1617 416   6  -0.8476  -8.507589812325  16.775978500308  49.329160000906 # o*
 1618 417   7   0.4238   5.085419287045   0.065688599720  29.319059997753 # h*
 1619 417   7   0.4238   5.047319286021   1.048572501326  27.979959998396 # h*
 1620 417   6  -0.8476   4.540019287900   0.722417500908  28.783359997948 # o*
 1621 418   7   0.4238   1.959619287802   4.076898500209  40.425960000157 # h*
 1622 418   7   0.4238   2.661719287881   2.662118500548  40.071859999136 # h*
 1623 418   6  -0.8476   1.759419288531   3.088978499836  40.245260002308 # o*
 1624 419   7   0.4238  -8.036767714120  15.604078501211  41.828059998597 # h*
 1625 419   7   0.4238  -7.347130713974  16.845778501432  41.057660000148 # h*
 1626 419   6  -0.8476  -7.107750713286  16.028478501435  41.601359999046 # o*
 1627 420   7   0.4238   3.428619287650   8.657598499674  47.605159999870 # h*
 1628 420   7   0.4238   3.824319287172   7.564918499893  46.458060000886 # h*
 1629 420   6  -0.8476   3.619919287981   7.657388499711  47.433859998880 # o*
 1630 421   7   0.4238  -4.415990713637   9.847118500693  49.454360001933 # h*
 1631 421   7   0.4238  -5.508380712165   9.400868500840  48.504659997866 # h*
 1632 421   6  -0.8476  -5.424550711856   9.899088499930  49.368860001594 # o*
 1633 422   7   0.4238  -6.720790713539  18.142378500945  44.444859998044 # h*
 1634 422   7   0.4238  -8.083012712704  17.841978501251  43.723459998882 # h*
 1635 422   6  -0.8476  -7.262680713720  18.421978500839  43.642160002910 # o*
 1636 423   7   0.4238   1.254434388331   0.173165205041  29.337159998122 # h*
 1637 423   7   0.4238   2.715819288015   0.272010499628  28.702060001976 # h*
 1638 423   6  -0.8476 -10.470230714057  18.629378501069  28.509259998927 # o*
 1639 424   7   0.4238   5.137040000345  11.805278500862  44.902160001202 # h*
 1640 424   7   0.4238   5.090940000916  12.591678500043  46.325559999649 # h*
 1641 424   6  -0.8476   5.738110000940  12.335778499741  45.554659998835 # o*
 1642 425   7   0.4238  -2.080990712933   6.310438500162  49.919760002443 # h*
 1643 425   7   0.4238  -1.096150713763   6.855448501204  48.866260001150 # h*
 1644 425   6  -0.8476  -1.465630712302   5.946738500682  49.196959999981 # o*
 1645 426   7   0.4238  -5.259260711877  16.724578500444  26.952459998307 # h*
 1646 426   7   0.4238  -4.600640712628  17.844378499791  27.827959999024 # h*
 1647 426   6  -0.8476  -4.986430713035  17.727778500986  26.864560001008 # o*
 1648 427   7   0.4238  -5.233770711908  12.588878500501  43.973560000624 # h*
 1649 427   7   0.4238  -3.945630712615  13.090578500088  44.954860002491 # h*
 1650 427   6  -0.8476  -4.641800713301  12.393578500693  44.795360000856 # o*
 1651 428   7   0.4238   1.593719287467   1.487308500325  41.500760001456 # h*
 1652 428   7   0.4238   2.509119287164   0.975541500010  42.764059997645 # h*
 1653 428   6  -0.8476   1.828619287067   0.676824500067  42.068560001427 # o*
 1654 429   7   0.4238  15.286930000595   4.670008500320  38.806060002193 # h*
 1655 429   7   0.4238  13.853219998584   4.700288500704  38.046560002162 # h*
 1656 429   6  -0.8476  14.473609998737   5.250308500660  38.697660002029 # o*
 1657 430   7   0.4238  -4.755660712570  17.839378500342  30.015760000752 # h*
 1658 430   7   0.4238   8.730374388578   0.092665205133  29.686159999375 # h*
 1659 430   6  -0.8476  -4.075180713793  18.004278500586  29.304460002867 # o*
 1660 431   7   0.4238   9.197369999924   9.289088499912  47.847360000777 # h*
 1661 431   7   0.4238   8.700399999327  10.645078501185  48.187460002002 # h*
 1662 431   6  -0.8476   9.132259998500   9.877788500746  48.662259999371 # o*
 1663 432   7   0.4238   3.104819286550  11.659778500646  44.121859997994 # h*
 1664 432   7   0.4238   2.780219287525  10.173778501161  44.224559997766 # h*
 1665 432   6  -0.8476   3.600819287410  10.769578501100  44.105160000925 # o*
 1666 433   7   0.4238  -1.880080713428   4.889778501462  33.229860001322 # h*
 1667 433   7   0.4238  -0.514460712883   4.570688501090  32.546759999548 # h*
 1668 433   6  -0.8476  -1.075960713109   4.289708500354  33.346359998838 # o*
 1669 434   7   0.4238   7.281439999568  17.680478500184  26.426559999467 # h*
 1670 434   7   0.4238   7.089529999733  16.047578500712  26.789860000828 # h*
 1671 434   6  -0.8476   6.736139999031  16.992978500302  26.919959999570 # o*
 1672 435   7   0.4238  16.162969999754   4.673428500295  52.921759998347 # h*
 1673 435   7   0.4238  -3.290090712467   5.568818500327  52.851759999364 # h*
 1674 435   6  -0.8476  16.762550000687   5.177708499994  53.544360001791 # o*
 1675 436   7   0.4238  -0.642070712323   1.472568501135  35.738359998863 # h*
 1676 436   7   0.4238   0.122899287899   0.601462500814  36.832760002092 # h*
 1677 436   6  -0.8476   0.212949288366   0.906585500028  35.896860001304 # o*
 1678 437   7   0.4238  -3.166860713530  10.883478500613  35.775259998485 # h*
 1679 437   7   0.4238  -3.593170712661  10.469878501291  37.357559997944 # h*
 1680 437   6  -0.8476  -3.898770711390  10.510278499753  36.369860002336 # o*
 1681 438   7   0.4238   4.977519287029   8.221138500622  38.319559998195 # h*
 1682 438   7   0.4238   5.645519288372   7.533058500035  39.640860003028 # h*
 1683 438   6  -0.8476   5.566319286153   7.420968500759  38.627360002735 # o*
 1684 439   7   0.4238  18.208549999559   0.286359499762  38.398260000688 # h*
 1685 439   7   0.4238  19.474689999164   1.204488500958  38.845959999400 # h*
 1686 439   6  -0.8476  18.998529999496   0.306599499654  39.033859999199 # o*
 1687 440   7   0.4238   1.245549287493   1.539338500087  50.284760001882 # h*
 1688 440   7   0.4238   0.561459286845   2.922888499786  50.391159998122 # h*
 1689 440   6  -0.8476   1.505169287498   2.508298501159  50.366059997854 # o*
 1690 441   7   0.4238   7.585930000073   7.917388500943  46.218560002785 # h*
 1691 441   7   0.4238   7.555199999765   9.292278500992  45.263759998951 # h*
 1692 441   6  -0.8476   7.001619999872   8.741208501208  45.915459999442 # o*
 1693 442   7   0.4238   9.904819288352   1.875568500057  29.472160000113 # h*
 1694 442   7   0.4238   8.996319286372   2.187148500857  30.806960002378 # h*
 1695 442   6  -0.8476   9.498919287060   1.465018499969  30.278660001043 # o*
 1696 443   7   0.4238  -1.986900713129   7.581908500049  42.258660001669 # h*
 1697 443   7   0.4238  -0.897530711717   7.107678499971  41.154959999840 # h*
 1698 443   6  -0.8476  -1.054210713992   7.748188501135  41.904760002701 # o*
 1699 444   7   0.4238   2.035219287062   3.596768500295  48.714360000037 # h*
 1700 444   7   0.4238   2.118619287689   4.942008499857  47.683459998257 # h*
 1701 444   6  -0.8476   2.378719286859   3.953658500088  47.807159997725 # o*
 1702 445   7   0.4238   7.631540000391  13.909978499742  38.928560000413 # h*
 1703 445   7   0.4238   7.829330000290  13.263578500075  40.402060001137 # h*
 1704 445   6  -0.8476   8.111559999386  14.045278500558  39.805560002690 # o*
 1705 446   7   0.4238 -11.536760713860  18.556278501019  53.312260002159 # h*
 1706 446   7   0.4238  20.120699999547   0.796875500363  53.361260001447 # h*
 1707 446   6  -0.8476  20.517830001194   0.063526899650  52.786959998408 # o*
 1708 447   7   0.4238  18.981769999515   1.516258500927  47.009960000930 # h*
 1709 447   7   0.4238  -0.161020711704   1.522418499919  46.602960002101 # h*
 1710 447   6  -0.8476  19.748220000484   0.895105500038  46.811359999230 # o*
 1711 448   7   0.4238  -3.999360713569  14.920878500892  27.723260000862 # h*
 1712 448   7   0.4238  -2.922930714004  14.805278500856  28.796359998549 # h*
 1713 448   6  -0.8476  -3.033910713428  14.617178500404  27.797560002471 # o*
 1714 449   7   0.4238   3.739719287621   3.098558500670  47.010560001553 # h*
 1715 449   7   0.4238   4.885419287333   2.269168499715  47.721460000868 # h*
 1716 449   6  -0.8476   4.730019286603   2.993368499998  47.025760002598 # o*
 1717 450   7   0.4238  -3.140780713328  14.540978500060  31.861959999696 # h*
 1718 450   7   0.4238  -2.037440711964  13.863278500443  32.888460000591 # h*
 1719 450   6  -0.8476  -3.032170712119  13.878078500157  32.648360001866 # o*
 1720 451   7   0.4238  -6.622800711637  11.217278499914  33.776759999857 # h*
 1721 451   7   0.4238  12.894714998911  10.946978500900  32.740059999427 # h*
 1722 451   6  -0.8476  13.122795000505  10.872078500077  33.731260000518 # o*
 1723 452   7   0.4238   4.467709999320  11.574578500173  27.473859998003 # h*
 1724 452   7   0.4238   6.116030001065  11.722078499795  27.182559999549 # h*
 1725 452   6  -0.8476   5.221380000238  12.207478499647  27.344759998456 # o*
 1726 453   7   0.4238  -0.810820712433  15.865778501098  52.807360003014 # h*
 1727 453   7   0.4238  -1.344310714044  15.854478500811  54.202060002985 # h*
 1728 453   6  -0.8476  -0.888090713002  15.216078500636  53.587660000687 # o*
 1729 454   7   0.4238   7.387019287737   4.654048501063  42.272960001777 # h*
 1730 454   7   0.4238   8.552819287292   5.356448500910  43.130160000072 # h*
 1731 454   6  -0.8476   8.222119286681   4.446108499854  42.812659998361 # o*
 1732 455   7   0.4238  -1.966790713345   9.475748500867  48.844360000520 # h*
 1733 455   7   0.4238  -2.651030713280  10.956778501165  49.116160000839 # h*
 1734 455   6  -0.8476  -2.721280712259   9.966118499906  49.339360000441 # o*
 1735 456   7   0.4238  12.271287810265  10.844378499805  53.805559998469 # h*
 1736 456   7   0.4238  10.950349999584  10.664578501464  54.736960000113 # h*
 1737 456   6  -0.8476  11.278860000858  10.541778500204  53.732960000473 # o*
 1738 457   7   0.4238  15.419339998402   7.125908500992  49.185160000627 # h*
 1739 457   7   0.4238  14.318960000823   7.335248500104  50.277259999619 # h*
 1740 457   6  -0.8476  15.094839999369   6.689778501085  50.067360000930 # o*
 1741 458   7   0.4238  -4.132260712434   7.008198499966  47.245860000822 # h*
 1742 458   7   0.4238  15.008620000400   7.481038499738  47.039860000653 # h*
 1743 458   6  -0.8476  -4.758410712647   7.780678500891  47.377760001435 # o*
 1744 459   7   0.4238   2.338229999578  16.954578501246  36.451660000673 # h*
 1745 459   7   0.4238   2.832209998368  17.655578501322  35.037659999085 # h*
 1746 459   6  -0.8476   2.938540000022  16.849078500358  35.640059999976 # o*
 1747 460   7   0.4238  -6.287120714337  11.211178501445  49.308559999782 # h*
 1748 460   7   0.4238  12.896467998797  11.599678501405  49.370859999984 # h*
 1749 460   6  -0.8476  -6.882400712053  12.028778500326  49.125759999751 # o*
 1750 461   7   0.4238   6.147219286886   0.150930000928  42.626760002486 # h*
 1751 461   7   0.4238   7.187019287713   1.370428499698  42.855160000116 # h*
 1752 461   6  -0.8476   6.954219286056   0.651106500912  42.170860002629 # o*
 1753 462   7   0.4238   8.400440000413   6.986798500532  31.526460001409 # h*
 1754 462   7   0.4238   7.865149999459   6.750218500805  33.081460000158 # h*
 1755 462   6  -0.8476   7.591319287680   6.728208500403  32.103259999668 # o*
 1756 463   7   0.4238   1.635619287307   2.969058501306  46.474459997643 # h*
 1757 463   7   0.4238   1.446269287995   2.556818500161  45.071260001749 # h*
 1758 463   6  -0.8476   0.976479287775   2.396668499673  45.959260000703 # o*
 1759 464   7   0.4238   4.518119288518   8.099098499772  32.853659997618 # h*
 1760 464   7   0.4238   5.458119287241   9.358248499807  32.312859998045 # h*
 1761 464   6  -0.8476   4.664719287480   9.125288500556  32.908859999662 # o*
 1762 465   7   0.4238  16.880019998547   4.530918500658  44.110359998952 # h*
 1763 465   7   0.4238  16.509229999350   5.930158500993  43.337859998319 # h*
 1764 465   6  -0.8476  16.115999999235   5.035908499707  43.639159999791 # o*
 1765 466   7   0.4238  12.056434999291   2.865928500564  28.760059999551 # h*
 1766 466   7   0.4238  11.447853999306   2.593458500038  27.301960001925 # h*
 1767 466   6  -0.8476  11.378298000070   2.289708500358  28.283060001740 # o*
 1768 467   7   0.4238  -2.649050712538  16.659878500887  48.003160000411 # h*
 1769 467   7   0.4238  -2.664790714052  18.231878500981  48.001760002645 # h*
 1770 467   6  -0.8476  -2.508810712812  17.414678501235  48.611359999952 # o*
 1771 468   7   0.4238  15.509809999709   3.802168501119  42.569360000000 # h*
 1772 468   7   0.4238  14.795459998661   4.428288501168  41.452859999622 # h*
 1773 468   6  -0.8476  15.095059998344   3.501628501448  41.676059999225 # o*
 1774 469   7   0.4238  -0.059560713954   0.391719500673  24.275360002583 # h*
 1775 469   7   0.4238   6.754549999864  18.585378501062  24.278459998427 # h*
 1776 469   6  -0.8476   7.645290000008  18.475578500610  24.718660000410 # o*
 1777 470   7   0.4238  16.239210000325   4.729628500975  35.742660001489 # h*
 1778 470   7   0.4238  -3.735770713308   5.963788501362  36.170359999701 # h*
 1779 470   6  -0.8476  17.099079998900   4.953898500313  36.192959999214 # o*
 1780 471   7   0.4238   8.586119286156   4.387288501204  24.953759997626 # h*
 1781 471   7   0.4238   7.737519286508   3.164898500225  24.202260002222 # h*
 1782 471   6  -0.8476   8.097619288361   3.514668500115  25.085959998551 # o*
 1783 472   7   0.4238  -6.510750713023  13.665378499726  29.885960002322 # h*
 1784 472   7   0.4238  -5.177240713809  12.917178500968  30.576959999396 # h*
 1785 472   6  -0.8476  -6.096510712362  12.745978499886  30.175260002387 # o*
 1786 473   7   0.4238  -1.110440714042   4.412728501045  49.882159998404 # h*
 1787 473   7   0.4238  -0.722870711774   4.306118499805  51.365159999780 # h*
 1788 473   6  -0.8476  -0.875100713745   3.676978500783  50.584260001483 # o*
 1789 474   7   0.4238  12.187234598716   7.163168501301  51.653360002391 # h*
 1790 474   7   0.4238  13.354980000347   8.224768500562  51.659859999925 # h*
 1791 474   6  -0.8476  12.550006998685   7.917668500897  51.097360001774 # o*
 1792 475   7   0.4238   5.431219287386   4.825648501279  27.998759997649 # h*
 1793 475   7   0.4238   5.747319286802   5.978298499789  26.839259998687 # h*
 1794 475   6  -0.8476   5.103719286928   5.241038500041  27.121559998854 # o*
 1795 476   7   0.4238   8.998290000726   8.564178500279  24.780359999988 # h*
 1796 476   7   0.4238   9.353619998913   8.691068501137  26.377659998438 # h*
 1797 476   6  -0.8476   8.606819999194   8.485328499835  25.728260002183 # o*
 1798 477   7   0.4238  10.461099998934  13.920878500894  47.628759998578 # h*
 1799 477   7   0.4238   9.304980000397  14.618478499924  48.376759999567 # h*
 1800 477   6  -0.8476  10.167590000579  14.122778500423  48.591759998024 # o*
 1801 478   7   0.4238  -5.826220713235   9.669388499879  45.461760000027 # h*
 1802 478   7   0.4238  -4.605710713367  10.633178501263  44.915359998322 # h*
 1803 478   6  -0.8476  -5.022210713985   9.700418501207  44.818659999253 # o*
 1804 479   7   0.4238  12.479015998697   7.485698500577  38.773259997610 # h*
 1805 479   7   0.4238  11.018060000605   6.729888500128  38.848660002207 # h*
 1806 479   6  -0.8476  11.499815000472   7.505588500526  38.434559999686 # o*
 1807 480   7   0.4238   9.564219287871   1.540638499607  37.781359997635 # h*
 1808 480   7   0.4238   8.446019287737   2.428588500055  38.524259998857 # h*
 1809 480   6  -0.8476   8.802819286348   2.236968501247  37.581359998170 # o*
 1810 481   7   0.4238   9.419770000157  12.314278500056  35.444659997913 # h*
 1811 481   7   0.4238   8.130100000218  12.818978499686  34.701059997809 # h*
 1812 481   6  -0.8476   8.396470000354  12.303878500156  35.555160000261 # o*
 1813 482   7   0.4238   3.870219287719   7.343638501133  43.140160003090 # h*
 1814 482   7   0.4238   2.418019287203   6.643848499793  43.372260002721 # h*
 1815 482   6  -0.8476   3.034419286129   6.988228500565  42.631960000513 # o*
 1816 483   7   0.4238   9.429009999334   6.879378499691  47.264359999762 # h*
 1817 483   7   0.4238   8.032519287489   6.023838501413  47.378559998577 # h*
 1818 483   6  -0.8476   8.615649999816   6.551398500773  46.733960001778 # o*
 1819 484   7   0.4238   2.221519287918  11.364978500036  39.116159999900 # h*
 1820 484   7   0.4238   1.688119287133  12.962578500746  39.140059998921 # h*
 1821 484   6  -0.8476   2.502119288123  12.336478499626  39.041960002086 # o*
 1822 485   7   0.4238  -9.753300712447  17.370778499610  40.094159998337 # h*
 1823 485   7   0.4238  -9.348386712485  18.512678500145  41.145159998876 # h*
 1824 485   6  -0.8476  -8.929429712115  17.838778500707  40.515560001068 # o*
 1825 486   7   0.4238   8.263039998763  11.248378501231  26.341260001181 # h*
 1826 486   7   0.4238   7.464569999347   9.899578499850  26.486860001279 # h*
 1827 486   6  -0.8476   7.496169999837  10.843578499669  26.864860001320 # o*
 1828 487   7   0.4238  10.104750000692  15.804378500467  25.106460001416 # h*
 1829 487   7   0.4238  -9.048193713040  15.531478500545  24.592060001618 # h*
 1830 487   6  -0.8476  10.746800000400  15.072978500829  24.753459997849 # o*
 1831 488   7   0.4238   0.727789287867   7.619158500894  36.638759997796 # h*
 1832 488   7   0.4238   1.301189287019   6.982168499955  35.276560002096 # h*
 1833 488   6  -0.8476   1.183559287216   6.756868499717  36.284060001685 # o*
 1834 489   7   0.4238   2.067214899512  18.680113294627  43.583160000605 # h*
 1835 489   7   0.4238   2.606630000844  17.210578499931  43.735259998236 # h*
 1836 489   6  -0.8476   2.682800000452  18.140478499921  44.172760002947 # o*
 1837 490   7   0.4238   6.483019287517   2.565188500393  49.547160002482 # h*
 1838 490   7   0.4238   6.126019287863   1.075166500658  49.384760001521 # h*
 1839 490   6  -0.8476   6.913119286346   1.681308500613  49.232659998355 # o*
 1840 491   7   0.4238   6.578949999861  17.639978499604  28.613559998518 # h*
 1841 491   7   0.4238   6.017110000074  16.993978500939  30.112859998392 # h*
 1842 491   6  -0.8476   6.512539999280  17.781378500757  29.631960002060 # o*
 1843 492   7   0.4238   6.240140000697  12.210678500191  40.893160002538 # h*
 1844 492   7   0.4238   7.003140000205  12.505078499799  42.266960001074 # h*
 1845 492   6  -0.8476   7.180159999980  12.170278499862  41.320760002491 # o*
 1846 493   7   0.4238   6.955719287767   3.077248500153  44.193460002330 # h*
 1847 493   7   0.4238   8.233319287027   2.519748500888  45.023359999915 # h*
 1848 493   6  -0.8476   7.465419288283   2.218188499782  44.409960002346 # o*
 1849 494   7   0.4238   3.623219287575   0.671432500309  50.324460002570 # h*
 1850 494   7   0.4238  -7.602408712201  18.114678500673  50.384560002329 # h*
 1851 494   6  -0.8476   4.620419287786   0.444826500499  50.370159998427 # o*
 1852 495   7   0.4238  -0.396860713048  11.853978501434  46.638860002528 # h*
 1853 495   7   0.4238  -0.615870712682  11.001878500192  45.257860002041 # h*
 1854 495   6  -0.8476   0.026049286651  11.142178500457  46.020860002021 # o*
 1855 496   7   0.4238  17.034845099848   0.052665205806  45.630160001691 # h*
 1856 496   7   0.4238   6.285399999110  18.607678500883  45.971260002110 # h*
 1857 496   6  -0.8476   5.496180000417  18.041978499756  45.655059999906 # o*
 1858 497   7   0.4238   8.978340000459   6.529398499835  45.110360001813 # h*
 1859 497   7   0.4238   8.926119999557   7.827368500725  44.047759998438 # h*
 1860 497   6  -0.8476   9.211049999013   6.838808500990  44.159160001721 # o*
 1861 498   7   0.4238  10.698604386193   0.020965206722  30.156759997912 # h*
 1862 498   7   0.4238  -0.345200712821  17.822778499855  29.597660001452 # h*
 1863 498   6  -0.8476  -1.135400711904  17.772878500013  30.257759999607 # o*
 1864 499   7   0.4238  10.685209999377   7.361658500320  31.467459999104 # h*
 1865 499   7   0.4238   9.772749999427   8.000248499664  30.392460001286 # h*
 1866 499   6  -0.8476   9.928310000835   7.086958499625  30.827360001449 # o*
 1867 500   7   0.4238   2.542219287852   2.689418499818  30.231059999521 # h*
 1868 500   7   0.4238   3.560119287671   2.225158500243  29.115960002444 # h*
 1869 500   6  -0.8476   2.689319287047   2.741688499807  29.238259998611 # o*
 1870 501   7   0.4238  13.934180000145   0.205887501345  28.950159999793 # h*
 1871 501   7   0.4238  14.976489999225   1.175588501416  29.833860001656 # h*
 1872 501   6  -0.8476  14.924599999510   0.345069500566  29.239459999858 # o*
 1873 502   7   0.4238  11.877136000258   5.708818499841  53.567759998446 # h*
 1874 502   7   0.4238  10.934380000461   6.970498500796  53.313059999302 # h*
 1875 502   6  -0.8476  11.466688998872   6.245458500651  52.818759998262 # o*
 1876 503   7   0.4238  -4.255400712777  11.365678499922  32.644659999865 # h*
 1877 503   7   0.4238  -3.314040713256  10.728978500269  31.480660001759 # h*
 1878 503   6  -0.8476  -3.808540713647  10.510578500504  32.342059998886 # o*
 1879 504   7   0.4238   4.519019288359   7.574788500147  29.441059999142 # h*
 1880 504   7   0.4238   4.489119286520   7.817518501269  27.775259997734 # h*
 1881 504   6  -0.8476   4.002519287074   8.067168499925  28.659560000221 # o*
 1882 505   7   0.4238   3.005819287122   3.312118499893  51.423059999096 # h*
 1883 505   7   0.4238   3.891919286560   2.670488500780  52.452360001057 # h*
 1884 505   6  -0.8476   3.914119287408   3.466058500329  51.858060003053 # o*
 1885 506   7   0.4238   7.128879998857   7.725608501360  26.086260001724 # h*
 1886 506   7   0.4238   5.748519287794   8.124248500194  25.660660000161 # h*
 1887 506   6  -0.8476   6.172419287771   7.428258500900  26.246359998449 # o*
 1888 507   7   0.4238  10.544020000364  14.642278499767  42.576759998469 # h*
 1889 507   7   0.4238   9.985730000222  15.082678500843  41.100659998732 # h*
 1890 507   6  -0.8476  10.763509999372  14.665678500476  41.572059999946 # o*
 1891 508   7   0.4238   3.472650000009  16.336278500986  31.061459999470 # h*
 1892 508   7   0.4238   3.854909999616  17.117578500467  29.723560001362 # h*
 1893 508   6  -0.8476   3.741970000522  16.170578500605  30.097060002259 # o*
 1894 509   7   0.4238  -0.462520713882   6.558728500641  25.632759998827 # h*
 1895 509   7   0.4238   1.193339286636   6.748748501046  25.612459998015 # h*
 1896 509   6  -0.8476   0.273459287190   7.251598500712  25.572959999380 # o*
 1897 510   7   0.4238  -2.390600712115  14.447178500460  41.766659999331 # h*
 1898 510   7   0.4238  -2.150300713016  15.696878500173  42.767859997906 # h*
 1899 510   6  -0.8476  -1.730020713046  15.242678500021  41.932460001982 # o*
 1900 511   7   0.4238   9.943679998628  10.187178501104  30.090959997762 # h*
 1901 511   7   0.4238   8.636089998967   9.883358501436  29.082260002459 # h*
 1902 511   6  -0.8476   9.147880000539   9.568428500650  29.911659997679 # o*
 1903 512   7   0.4238   2.487019287353   4.083608499645  35.272659998041 # h*
 1904 512   7   0.4238   2.235119287552   5.473728500671  35.942759999214 # h*
 1905 512   6  -0.8476   2.987419286800   4.889418500187  35.634960000208 # o*
 1906 513   7   0.4238  -6.631120711702  12.888578500309  50.754960001848 # h*
 1907 513   7   0.4238  -7.139820712330  13.970378499735  51.753560001409 # h*
 1908 513   6  -0.8476  -6.718170713364  13.058478500002  51.744159999016 # o*
 1909 514   7   0.4238   9.253919287515   2.561868500669  53.855860002798 # h*
 1910 514   7   0.4238   8.233219287929   3.580858500229  54.924959998172 # h*
 1911 514   6  -0.8476   9.132519287698   3.310048500498  54.591759998587 # o*
 1912 515   7   0.4238   1.935199998556  16.043178500898  52.846959999908 # h*
 1913 515   7   0.4238   2.810619999599  14.631778499617  52.675160002089 # h*
 1914 515   6  -0.8476   2.555120000292  15.368678499957  53.306459997974 # o*
 1915 516   7   0.4238 -11.398130712893  18.012878499713  51.213360002460 # h*
 1916 516   7   0.4238   9.152299998961  17.492578500233  49.627060000688 # h*
 1917 516   6  -0.8476 -10.908600712253  17.876678500378  50.359760002374 # o*
 1918 517   7   0.4238   6.015219286795   1.519248499637  30.973860002483 # h*
 1919 517   7   0.4238   5.950119287319   3.072758501422  30.721259999987 # h*
 1920 517   6  -0.8476   5.522419287289   2.367558500165  31.291160002141 # o*
 1921 518   7   0.4238   2.909119288472   2.115498499769  32.411260000726 # h*
 1922 518   7   0.4238   1.782819288538   1.238358499687  31.693859998344 # h*
 1923 518   6  -0.8476   2.172119288529   2.173558499878  31.728459999264 # o*
 1924 519   7   0.4238   8.568009999801  15.723478501426  40.123860001543 # h*
 1925 519   7   0.4238   8.058899999962  17.241178499995  40.112660002812 # h*
 1926 519   6  -0.8476   8.880849998130  16.691378501338  40.268359998652 # o*
 1927 520   7   0.4238  16.938779999541   1.492498500811  52.327259998290 # h*
 1928 520   7   0.4238  17.217640000181   1.466928500457  53.932560001367 # h*
 1929 520   6  -0.8476  16.659169999793   1.029223499874  53.198560000175 # o*
 1930 521   7   0.4238  -4.423850713569  14.675978500125  38.722160001673 # h*
 1931 521   7   0.4238  -3.907400713375  15.519378500122  37.357360001426 # h*
 1932 521   6  -0.8476  -3.593290713168  14.929178501136  38.152559999831 # o*
 1933 522   7   0.4238   6.107444387291   0.037765205841  46.684259998073 # h*
 1934 522   7   0.4238   6.920719286829   0.883992500762  45.708259998025 # h*
 1935 522   6  -0.8476  -5.359740712554  18.603378501319  46.013660000070 # o*
 1936 523   7   0.4238  11.652215999653  13.256078499967  35.097560002325 # h*
 1937 523   7   0.4238  12.040033998849  11.802478501320  34.930159999856 # h*
 1938 523   6  -0.8476  11.359160998663  12.350478501072  35.426560003079 # o*
 1939 524   7   0.4238  -7.281180712480  11.396678500988  30.497159999449 # h*
 1940 524   7   0.4238  11.805665998810  11.629178500582  30.708160001126 # h*
 1941 524   6  -0.8476  12.613710999921  11.103578500901  31.053060001806 # o*
 1942 525   7   0.4238   6.674719287439   2.979428500944  33.284659999260 # h*
 1943 525   7   0.4238   6.837719286916   4.064878501107  34.364560000328 # h*
 1944 525   6  -0.8476   7.346319288120   3.357368500229  33.908560002211 # o*
 1945 526   7   0.4238   0.520689288184   6.612998500036  47.931359999557 # h*
 1946 526   7   0.4238   2.061619287638   6.936588500473  47.687360002312 # h*
 1947 526   6  -0.8476   1.299239287146   6.317228500919  47.380459998708 # o*
 1948 527   7   0.4238  13.400139999045   7.406488500726  26.922259998271 # h*
 1949 527   7   0.4238  13.689070000481   8.793258499898  26.040160001762 # h*
 1950 527   6  -0.8476  13.604839999456   7.780148501244  26.008460000167 # o*
 1951 528   7   0.4238  11.549718999369  13.580378499754  25.037959998458 # h*
 1952 528   7   0.4238  -7.785534714250  12.962778501247  24.390359998540 # h*
 1953 528   6  -0.8476  12.201891098713  12.802878500452  25.112659998637 # o*
 1954 529   7   0.4238   8.127730000457   9.377128499654  42.801459999631 # h*
 1955 529   7   0.4238   9.041399999283  10.336778500382  43.621660000045 # h*
 1956 529   6  -0.8476   8.507459998923   9.486108501040  43.728960002755 # o*
 1957 530   7   0.4238  14.045039999877   1.994918501081  42.316359998933 # h*
 1958 530   7   0.4238  12.510765000121   1.484668499690  42.212159997601 # h*
 1959 530   6  -0.8476  13.296099999831   1.563148501262  42.860760002248 # o*
 1960 531   7   0.4238  16.756719999706   4.111318501249  32.398760002489 # h*
 1961 531   7   0.4238  15.566220000282   3.010778500086  32.098259998160 # h*
 1962 531   6  -0.8476  15.932549998532   3.682938501143  32.775959999854 # o*
 1963 532   7   0.4238  -2.809640712849   9.353398499800  53.031159997706 # h*
 1964 532   7   0.4238  -2.018340711602   9.555848499772  51.662660000991 # h*
 1965 532   6  -0.8476  -2.197810712071   8.842598499833  52.350960000792 # o*
 1966 533   7   0.4238   8.565319287420   3.930998500859  28.265260001682 # h*
 1967 533   7   0.4238   8.174519285623   3.498838501371  26.732159998030 # h*
 1968 533   6  -0.8476   7.925719287840   3.372198500205  27.717860000782 # o*
 1969 536   8  -1.0411  -4.437113263311  10.612956000902  39.894172197021 # oc
 1970 535   8  -1.0411  -3.397882777933   8.812956001279  39.894172197021 # oc
 1971 536   8  -1.0411  -5.476343748989   8.812956001279  39.894172197021 # oc
 1972 536   9   1.1233  -4.437113263003   9.412956000531  39.894172197021 # co

Bonds

    1   1    38    85 # oh-ho
    2   1    39    86 # oh-ho
    3   1    54    55 # oh-ho
    4   1    56    57 # oh-ho
    5   1   106   763 # oh-ho
    6   1   107   751 # oh-ho
    7   1   124   764 # oh-ho
    8   1   125   752 # oh-ho
    9   1   136   137 # oh-ho
   10   1   138   139 # oh-ho
   11   1   204   251 # oh-ho
   12   1   205   252 # oh-ho
   13   1   220   221 # oh-ho
   14   1   222   223 # oh-ho
   15   1   290   341 # oh-ho
   16   1   291   342 # oh-ho
   17   1   306   307 # oh-ho
   18   1   308   309 # oh-ho
   19   1   310   311 # oh-ho
   20   1   312   313 # oh-ho
   21   1   362   765 # oh-ho
   22   1   363   753 # oh-ho
   23   1   380   766 # oh-ho
   24   1   381   754 # oh-ho
   25   1   392   393 # oh-ho
   26   1   394   395 # oh-ho
   27   1   442   767 # oh-ho
   28   1   443   755 # oh-ho
   29   1   460   768 # oh-ho
   30   1   461   756 # oh-ho
   31   1   472   473 # oh-ho
   32   1   474   475 # oh-ho
   33   1   476   477 # oh-ho
   34   1   478   479 # oh-ho
   35   1   526   769 # oh-ho
   36   1   527   757 # oh-ho
   37   1   544   770 # oh-ho
   38   1   545   758 # oh-ho
   39   1   556   557 # oh-ho
   40   1   558   559 # oh-ho
   41   1   560   561 # oh-ho
   42   1   562   563 # oh-ho
   43   1   610   771 # oh-ho
   44   1   611   759 # oh-ho
   45   1   628   772 # oh-ho
   46   1   629   760 # oh-ho
   47   1   640   641 # oh-ho
   48   1   642   643 # oh-ho
   49   1   690   773 # oh-ho
   50   1   691   761 # oh-ho
   51   1   708   774 # oh-ho
   52   1   709   762 # oh-ho
   53   1   720   721 # oh-ho
   54   1   722   723 # oh-ho
   55   2    58    59 # o*-h*
   56   2    58    60 # o*-h*
   57   2    61    62 # o*-h*
   58   2    61    63 # o*-h*
   59   2    64    65 # o*-h*
   60   2    64    66 # o*-h*
   61   2    67    68 # o*-h*
   62   2    67    69 # o*-h*
   63   2    70    71 # o*-h*
   64   2    70    72 # o*-h*
   65   2    73    74 # o*-h*
   66   2    73    75 # o*-h*
   67   2    76   333 # o*-h*
   68   2    76   334 # o*-h*
   69   2    79    80 # o*-h*
   70   2    79    81 # o*-h*
   71   2    82    83 # o*-h*
   72   2    82    84 # o*-h*
   73   2   140   141 # o*-h*
   74   2   140   142 # o*-h*
   75   2   143   144 # o*-h*
   76   2   143   145 # o*-h*
   77   2   146   147 # o*-h*
   78   2   146   148 # o*-h*
   79   2   149   150 # o*-h*
   80   2   149   151 # o*-h*
   81   2   152   153 # o*-h*
   82   2   152   154 # o*-h*
   83   2   155   156 # o*-h*
   84   2   155   157 # o*-h*
   85   2   158   415 # o*-h*
   86   2   158   416 # o*-h*
   87   2   161   162 # o*-h*
   88   2   161   163 # o*-h*
   89   2   164   165 # o*-h*
   90   2   164   166 # o*-h*
   91   2   224   225 # o*-h*
   92   2   224   226 # o*-h*
   93   2   227   228 # o*-h*
   94   2   227   229 # o*-h*
   95   2   230   231 # o*-h*
   96   2   230   232 # o*-h*
   97   2   233   234 # o*-h*
   98   2   233   235 # o*-h*
   99   2   236   237 # o*-h*
  100   2   236   238 # o*-h*
  101   2   239   240 # o*-h*
  102   2   239   241 # o*-h*
  103   2   242   499 # o*-h*
  104   2   242   500 # o*-h*
  105   2   245   246 # o*-h*
  106   2   245   247 # o*-h*
  107   2   248   249 # o*-h*
  108   2   248   250 # o*-h*
  109   2   314   315 # o*-h*
  110   2   314   316 # o*-h*
  111   2   317   318 # o*-h*
  112   2   317   319 # o*-h*
  113   2   320   321 # o*-h*
  114   2   320   322 # o*-h*
  115   2   323   324 # o*-h*
  116   2   323   325 # o*-h*
  117   2   326   327 # o*-h*
  118   2   326   328 # o*-h*
  119   2   329   330 # o*-h*
  120   2   329   331 # o*-h*
  121   2   332   583 # o*-h*
  122   2   332   584 # o*-h*
  123   2   335   336 # o*-h*
  124   2   335   337 # o*-h*
  125   2   338   339 # o*-h*
  126   2   338   340 # o*-h*
  127   2   396   397 # o*-h*
  128   2   396   398 # o*-h*
  129   2   399   400 # o*-h*
  130   2   399   401 # o*-h*
  131   2   402   403 # o*-h*
  132   2   402   404 # o*-h*
  133   2   405   406 # o*-h*
  134   2   405   407 # o*-h*
  135   2   408   409 # o*-h*
  136   2   408   410 # o*-h*
  137   2   411   412 # o*-h*
  138   2   411   413 # o*-h*
  139   2   414   663 # o*-h*
  140   2   414   664 # o*-h*
  141   2   417   418 # o*-h*
  142   2   417   419 # o*-h*
  143   2   420   421 # o*-h*
  144   2   420   422 # o*-h*
  145   2   480   481 # o*-h*
  146   2   480   482 # o*-h*
  147   2   483   484 # o*-h*
  148   2   483   485 # o*-h*
  149   2   486   487 # o*-h*
  150   2   486   488 # o*-h*
  151   2   489   490 # o*-h*
  152   2   489   491 # o*-h*
  153   2   492   493 # o*-h*
  154   2   492   494 # o*-h*
  155   2   495   496 # o*-h*
  156   2   495   497 # o*-h*
  157   2   498   743 # o*-h*
  158   2   498   744 # o*-h*
  159   2   501   502 # o*-h*
  160   2   501   503 # o*-h*
  161   2   504   505 # o*-h*
  162   2   504   506 # o*-h*
  163   2   564   565 # o*-h*
  164   2   564   566 # o*-h*
  165   2   567   568 # o*-h*
  166   2   567   569 # o*-h*
  167   2   570   571 # o*-h*
  168   2   570   572 # o*-h*
  169   2   573   574 # o*-h*
  170   2   573   575 # o*-h*
  171   2   576   577 # o*-h*
  172   2   576   578 # o*-h*
  173   2   579   580 # o*-h*
  174   2   579   581 # o*-h*
  175   2   582    77 # o*-h*
  176   2   582    78 # o*-h*
  177   2   585   586 # o*-h*
  178   2   585   587 # o*-h*
  179   2   588   589 # o*-h*
  180   2   588   590 # o*-h*
  181   2   644   645 # o*-h*
  182   2   644   646 # o*-h*
  183   2   647   648 # o*-h*
  184   2   647   649 # o*-h*
  185   2   650   651 # o*-h*
  186   2   650   652 # o*-h*
  187   2   653   654 # o*-h*
  188   2   653   655 # o*-h*
  189   2   656   657 # o*-h*
  190   2   656   658 # o*-h*
  191   2   659   660 # o*-h*
  192   2   659   661 # o*-h*
  193   2   662   159 # o*-h*
  194   2   662   160 # o*-h*
  195   2   665   666 # o*-h*
  196   2   665   667 # o*-h*
  197   2   668   669 # o*-h*
  198   2   668   670 # o*-h*
  199   2   724   725 # o*-h*
  200   2   724   726 # o*-h*
  201   2   727   728 # o*-h*
  202   2   727   729 # o*-h*
  203   2   730   731 # o*-h*
  204   2   730   732 # o*-h*
  205   2   733   734 # o*-h*
  206   2   733   735 # o*-h*
  207   2   736   737 # o*-h*
  208   2   736   738 # o*-h*
  209   2   739   740 # o*-h*
  210   2   739   741 # o*-h*
  211   2   742   243 # o*-h*
  212   2   742   244 # o*-h*
  213   2   745   746 # o*-h*
  214   2   745   747 # o*-h*
  215   2   748   749 # o*-h*
  216   2   748   750 # o*-h*
  217   2   777   775 # o*-h*
  218   2   777   776 # o*-h*
  219   2   780   778 # o*-h*
  220   2   780   779 # o*-h*
  221   2   783   781 # o*-h*
  222   2   783   782 # o*-h*
  223   2   786   784 # o*-h*
  224   2   786   785 # o*-h*
  225   2   789   787 # o*-h*
  226   2   789   788 # o*-h*
  227   2   792   790 # o*-h*
  228   2   792   791 # o*-h*
  229   2   795   793 # o*-h*
  230   2   795   794 # o*-h*
  231   2   798   796 # o*-h*
  232   2   798   797 # o*-h*
  233   2   801   799 # o*-h*
  234   2   801   800 # o*-h*
  235   2   804   802 # o*-h*
  236   2   804   803 # o*-h*
  237   2   807   805 # o*-h*
  238   2   807   806 # o*-h*
  239   2   810   808 # o*-h*
  240   2   810   809 # o*-h*
  241   2   813   811 # o*-h*
  242   2   813   812 # o*-h*
  243   2   816   814 # o*-h*
  244   2   816   815 # o*-h*
  245   2   819   817 # o*-h*
  246   2   819   818 # o*-h*
  247   2   822   820 # o*-h*
  248   2   822   821 # o*-h*
  249   2   825   823 # o*-h*
  250   2   825   824 # o*-h*
  251   2   828   826 # o*-h*
  252   2   828   827 # o*-h*
  253   2   831   829 # o*-h*
  254   2   831   830 # o*-h*
  255   2   834   832 # o*-h*
  256   2   834   833 # o*-h*
  257   2   837   835 # o*-h*
  258   2   837   836 # o*-h*
  259   2   840   838 # o*-h*
  260   2   840   839 # o*-h*
  261   2   843   841 # o*-h*
  262   2   843   842 # o*-h*
  263   2   846   844 # o*-h*
  264   2   846   845 # o*-h*
  265   2   849   847 # o*-h*
  266   2   849   848 # o*-h*
  267   2   852   850 # o*-h*
  268   2   852   851 # o*-h*
  269   2   855   853 # o*-h*
  270   2   855   854 # o*-h*
  271   2   858   856 # o*-h*
  272   2   858   857 # o*-h*
  273   2   861   859 # o*-h*
  274   2   861   860 # o*-h*
  275   2   864   862 # o*-h*
  276   2   864   863 # o*-h*
  277   2   867   865 # o*-h*
  278   2   867   866 # o*-h*
  279   2   870   868 # o*-h*
  280   2   870   869 # o*-h*
  281   2   873   871 # o*-h*
  282   2   873   872 # o*-h*
  283   2   876   874 # o*-h*
  284   2   876   875 # o*-h*
  285   2   879   877 # o*-h*
  286   2   879   878 # o*-h*
  287   2   882   880 # o*-h*
  288   2   882   881 # o*-h*
  289   2   885   883 # o*-h*
  290   2   885   884 # o*-h*
  291   2   888   886 # o*-h*
  292   2   888   887 # o*-h*
  293   2   891   889 # o*-h*
  294   2   891   890 # o*-h*
  295   2   894   892 # o*-h*
  296   2   894   893 # o*-h*
  297   2   897   895 # o*-h*
  298   2   897   896 # o*-h*
  299   2   900   898 # o*-h*
  300   2   900   899 # o*-h*
  301   2   903   901 # o*-h*
  302   2   903   902 # o*-h*
  303   2   906   904 # o*-h*
  304   2   906   905 # o*-h*
  305   2   909   907 # o*-h*
  306   2   909   908 # o*-h*
  307   2   912   910 # o*-h*
  308   2   912   911 # o*-h*
  309   2   915   913 # o*-h*
  310   2   915   914 # o*-h*
  311   2   918   916 # o*-h*
  312   2   918   917 # o*-h*
  313   2   921   919 # o*-h*
  314   2   921   920 # o*-h*
  315   2   924   922 # o*-h*
  316   2   924   923 # o*-h*
  317   2   927   925 # o*-h*
  318   2   927   926 # o*-h*
  319   2   930   928 # o*-h*
  320   2   930   929 # o*-h*
  321   2   933   931 # o*-h*
  322   2   933   932 # o*-h*
  323   2   936   934 # o*-h*
  324   2   936   935 # o*-h*
  325   2   939   937 # o*-h*
  326   2   939   938 # o*-h*
  327   2   942   940 # o*-h*
  328   2   942   941 # o*-h*
  329   2   945   943 # o*-h*
  330   2   945   944 # o*-h*
  331   2   948   946 # o*-h*
  332   2   948   947 # o*-h*
  333   2   951   949 # o*-h*
  334   2   951   950 # o*-h*
  335   2   954   952 # o*-h*
  336   2   954   953 # o*-h*
  337   2   957   955 # o*-h*
  338   2   957   956 # o*-h*
  339   2   960   958 # o*-h*
  340   2   960   959 # o*-h*
  341   2   963   961 # o*-h*
  342   2   963   962 # o*-h*
  343   2   966   964 # o*-h*
  344   2   966   965 # o*-h*
  345   2   969   967 # o*-h*
  346   2   969   968 # o*-h*
  347   2   972   970 # o*-h*
  348   2   972   971 # o*-h*
  349   2   975   973 # o*-h*
  350   2   975   974 # o*-h*
  351   2   978   976 # o*-h*
  352   2   978   977 # o*-h*
  353   2   981   979 # o*-h*
  354   2   981   980 # o*-h*
  355   2   984   982 # o*-h*
  356   2   984   983 # o*-h*
  357   2   987   985 # o*-h*
  358   2   987   986 # o*-h*
  359   2   990   988 # o*-h*
  360   2   990   989 # o*-h*
  361   2   993   991 # o*-h*
  362   2   993   992 # o*-h*
  363   2   996   994 # o*-h*
  364   2   996   995 # o*-h*
  365   2   999   997 # o*-h*
  366   2   999   998 # o*-h*
  367   2  1002  1000 # o*-h*
  368   2  1002  1001 # o*-h*
  369   2  1005  1003 # o*-h*
  370   2  1005  1004 # o*-h*
  371   2  1008  1006 # o*-h*
  372   2  1008  1007 # o*-h*
  373   2  1011  1009 # o*-h*
  374   2  1011  1010 # o*-h*
  375   2  1014  1012 # o*-h*
  376   2  1014  1013 # o*-h*
  377   2  1017  1015 # o*-h*
  378   2  1017  1016 # o*-h*
  379   2  1020  1018 # o*-h*
  380   2  1020  1019 # o*-h*
  381   2  1023  1021 # o*-h*
  382   2  1023  1022 # o*-h*
  383   2  1026  1024 # o*-h*
  384   2  1026  1025 # o*-h*
  385   2  1029  1027 # o*-h*
  386   2  1029  1028 # o*-h*
  387   2  1032  1030 # o*-h*
  388   2  1032  1031 # o*-h*
  389   2  1035  1033 # o*-h*
  390   2  1035  1034 # o*-h*
  391   2  1038  1036 # o*-h*
  392   2  1038  1037 # o*-h*
  393   2  1041  1039 # o*-h*
  394   2  1041  1040 # o*-h*
  395   2  1044  1042 # o*-h*
  396   2  1044  1043 # o*-h*
  397   2  1047  1045 # o*-h*
  398   2  1047  1046 # o*-h*
  399   2  1050  1048 # o*-h*
  400   2  1050  1049 # o*-h*
  401   2  1053  1051 # o*-h*
  402   2  1053  1052 # o*-h*
  403   2  1056  1054 # o*-h*
  404   2  1056  1055 # o*-h*
  405   2  1059  1057 # o*-h*
  406   2  1059  1058 # o*-h*
  407   2  1062  1060 # o*-h*
  408   2  1062  1061 # o*-h*
  409   2  1065  1063 # o*-h*
  410   2  1065  1064 # o*-h*
  411   2  1068  1066 # o*-h*
  412   2  1068  1067 # o*-h*
  413   2  1071  1069 # o*-h*
  414   2  1071  1070 # o*-h*
  415   2  1074  1072 # o*-h*
  416   2  1074  1073 # o*-h*
  417   2  1077  1075 # o*-h*
  418   2  1077  1076 # o*-h*
  419   2  1080  1078 # o*-h*
  420   2  1080  1079 # o*-h*
  421   2  1083  1081 # o*-h*
  422   2  1083  1082 # o*-h*
  423   2  1086  1084 # o*-h*
  424   2  1086  1085 # o*-h*
  425   2  1089  1087 # o*-h*
  426   2  1089  1088 # o*-h*
  427   2  1092  1090 # o*-h*
  428   2  1092  1091 # o*-h*
  429   2  1095  1093 # o*-h*
  430   2  1095  1094 # o*-h*
  431   2  1098  1096 # o*-h*
  432   2  1098  1097 # o*-h*
  433   2  1101  1099 # o*-h*
  434   2  1101  1100 # o*-h*
  435   2  1104  1102 # o*-h*
  436   2  1104  1103 # o*-h*
  437   2  1107  1105 # o*-h*
  438   2  1107  1106 # o*-h*
  439   2  1110  1108 # o*-h*
  440   2  1110  1109 # o*-h*
  441   2  1113  1111 # o*-h*
  442   2  1113  1112 # o*-h*
  443   2  1116  1114 # o*-h*
  444   2  1116  1115 # o*-h*
  445   2  1119  1117 # o*-h*
  446   2  1119  1118 # o*-h*
  447   2  1122  1120 # o*-h*
  448   2  1122  1121 # o*-h*
  449   2  1125  1123 # o*-h*
  450   2  1125  1124 # o*-h*
  451   2  1128  1126 # o*-h*
  452   2  1128  1127 # o*-h*
  453   2  1131  1129 # o*-h*
  454   2  1131  1130 # o*-h*
  455   2  1134  1132 # o*-h*
  456   2  1134  1133 # o*-h*
  457   2  1137  1135 # o*-h*
  458   2  1137  1136 # o*-h*
  459   2  1140  1138 # o*-h*
  460   2  1140  1139 # o*-h*
  461   2  1143  1141 # o*-h*
  462   2  1143  1142 # o*-h*
  463   2  1146  1144 # o*-h*
  464   2  1146  1145 # o*-h*
  465   2  1149  1147 # o*-h*
  466   2  1149  1148 # o*-h*
  467   2  1152  1150 # o*-h*
  468   2  1152  1151 # o*-h*
  469   2  1155  1153 # o*-h*
  470   2  1155  1154 # o*-h*
  471   2  1158  1156 # o*-h*
  472   2  1158  1157 # o*-h*
  473   2  1161  1159 # o*-h*
  474   2  1161  1160 # o*-h*
  475   2  1164  1162 # o*-h*
  476   2  1164  1163 # o*-h*
  477   2  1167  1165 # o*-h*
  478   2  1167  1166 # o*-h*
  479   2  1170  1168 # o*-h*
  480   2  1170  1169 # o*-h*
  481   2  1173  1171 # o*-h*
  482   2  1173  1172 # o*-h*
  483   2  1176  1174 # o*-h*
  484   2  1176  1175 # o*-h*
  485   2  1179  1177 # o*-h*
  486   2  1179  1178 # o*-h*
  487   2  1182  1180 # o*-h*
  488   2  1182  1181 # o*-h*
  489   2  1185  1183 # o*-h*
  490   2  1185  1184 # o*-h*
  491   2  1188  1186 # o*-h*
  492   2  1188  1187 # o*-h*
  493   2  1191  1189 # o*-h*
  494   2  1191  1190 # o*-h*
  495   2  1194  1192 # o*-h*
  496   2  1194  1193 # o*-h*
  497   2  1197  1195 # o*-h*
  498   2  1197  1196 # o*-h*
  499   2  1200  1198 # o*-h*
  500   2  1200  1199 # o*-h*
  501   2  1203  1201 # o*-h*
  502   2  1203  1202 # o*-h*
  503   2  1206  1204 # o*-h*
  504   2  1206  1205 # o*-h*
  505   2  1209  1207 # o*-h*
  506   2  1209  1208 # o*-h*
  507   2  1212  1210 # o*-h*
  508   2  1212  1211 # o*-h*
  509   2  1215  1213 # o*-h*
  510   2  1215  1214 # o*-h*
  511   2  1218  1216 # o*-h*
  512   2  1218  1217 # o*-h*
  513   2  1221  1219 # o*-h*
  514   2  1221  1220 # o*-h*
  515   2  1224  1222 # o*-h*
  516   2  1224  1223 # o*-h*
  517   2  1227  1225 # o*-h*
  518   2  1227  1226 # o*-h*
  519   2  1230  1228 # o*-h*
  520   2  1230  1229 # o*-h*
  521   2  1233  1231 # o*-h*
  522   2  1233  1232 # o*-h*
  523   2  1236  1234 # o*-h*
  524   2  1236  1235 # o*-h*
  525   2  1239  1237 # o*-h*
  526   2  1239  1238 # o*-h*
  527   2  1242  1240 # o*-h*
  528   2  1242  1241 # o*-h*
  529   2  1245  1243 # o*-h*
  530   2  1245  1244 # o*-h*
  531   2  1248  1246 # o*-h*
  532   2  1248  1247 # o*-h*
  533   2  1251  1249 # o*-h*
  534   2  1251  1250 # o*-h*
  535   2  1254  1252 # o*-h*
  536   2  1254  1253 # o*-h*
  537   2  1257  1255 # o*-h*
  538   2  1257  1256 # o*-h*
  539   2  1260  1258 # o*-h*
  540   2  1260  1259 # o*-h*
  541   2  1263  1261 # o*-h*
  542   2  1263  1262 # o*-h*
  543   2  1266  1264 # o*-h*
  544   2  1266  1265 # o*-h*
  545   2  1269  1267 # o*-h*
  546   2  1269  1268 # o*-h*
  547   2  1272  1270 # o*-h*
  548   2  1272  1271 # o*-h*
  549   2  1275  1273 # o*-h*
  550   2  1275  1274 # o*-h*
  551   2  1278  1276 # o*-h*
  552   2  1278  1277 # o*-h*
  553   2  1281  1279 # o*-h*
  554   2  1281  1280 # o*-h*
  555   2  1284  1282 # o*-h*
  556   2  1284  1283 # o*-h*
  557   2  1287  1285 # o*-h*
  558   2  1287  1286 # o*-h*
  559   2  1290  1288 # o*-h*
  560   2  1290  1289 # o*-h*
  561   2  1293  1291 # o*-h*
  562   2  1293  1292 # o*-h*
  563   2  1296  1294 # o*-h*
  564   2  1296  1295 # o*-h*
  565   2  1299  1297 # o*-h*
  566   2  1299  1298 # o*-h*
  567   2  1302  1300 # o*-h*
  568   2  1302  1301 # o*-h*
  569   2  1305  1303 # o*-h*
  570   2  1305  1304 # o*-h*
  571   2  1308  1306 # o*-h*
  572   2  1308  1307 # o*-h*
  573   2  1311  1309 # o*-h*
  574   2  1311  1310 # o*-h*
  575   2  1314  1312 # o*-h*
  576   2  1314  1313 # o*-h*
  577   2  1317  1315 # o*-h*
  578   2  1317  1316 # o*-h*
  579   2  1320  1318 # o*-h*
  580   2  1320  1319 # o*-h*
  581   2  1323  1321 # o*-h*
  582   2  1323  1322 # o*-h*
  583   2  1326  1324 # o*-h*
  584   2  1326  1325 # o*-h*
  585   2  1329  1327 # o*-h*
  586   2  1329  1328 # o*-h*
  587   2  1332  1330 # o*-h*
  588   2  1332  1331 # o*-h*
  589   2  1335  1333 # o*-h*
  590   2  1335  1334 # o*-h*
  591   2  1338  1336 # o*-h*
  592   2  1338  1337 # o*-h*
  593   2  1341  1339 # o*-h*
  594   2  1341  1340 # o*-h*
  595   2  1344  1342 # o*-h*
  596   2  1344  1343 # o*-h*
  597   2  1347  1345 # o*-h*
  598   2  1347  1346 # o*-h*
  599   2  1350  1348 # o*-h*
  600   2  1350  1349 # o*-h*
  601   2  1353  1351 # o*-h*
  602   2  1353  1352 # o*-h*
  603   2  1356  1354 # o*-h*
  604   2  1356  1355 # o*-h*
  605   2  1359  1357 # o*-h*
  606   2  1359  1358 # o*-h*
  607   2  1362  1360 # o*-h*
  608   2  1362  1361 # o*-h*
  609   2  1365  1363 # o*-h*
  610   2  1365  1364 # o*-h*
  611   2  1368  1366 # o*-h*
  612   2  1368  1367 # o*-h*
  613   2  1371  1369 # o*-h*
  614   2  1371  1370 # o*-h*
  615   2  1374  1372 # o*-h*
  616   2  1374  1373 # o*-h*
  617   2  1377  1375 # o*-h*
  618   2  1377  1376 # o*-h*
  619   2  1380  1378 # o*-h*
  620   2  1380  1379 # o*-h*
  621   2  1383  1381 # o*-h*
  622   2  1383  1382 # o*-h*
  623   2  1386  1384 # o*-h*
  624   2  1386  1385 # o*-h*
  625   2  1389  1387 # o*-h*
  626   2  1389  1388 # o*-h*
  627   2  1392  1390 # o*-h*
  628   2  1392  1391 # o*-h*
  629   2  1395  1393 # o*-h*
  630   2  1395  1394 # o*-h*
  631   2  1398  1396 # o*-h*
  632   2  1398  1397 # o*-h*
  633   2  1401  1399 # o*-h*
  634   2  1401  1400 # o*-h*
  635   2  1404  1402 # o*-h*
  636   2  1404  1403 # o*-h*
  637   2  1407  1405 # o*-h*
  638   2  1407  1406 # o*-h*
  639   2  1410  1408 # o*-h*
  640   2  1410  1409 # o*-h*
  641   2  1413  1411 # o*-h*
  642   2  1413  1412 # o*-h*
  643   2  1416  1414 # o*-h*
  644   2  1416  1415 # o*-h*
  645   2  1419  1417 # o*-h*
  646   2  1419  1418 # o*-h*
  647   2  1422  1420 # o*-h*
  648   2  1422  1421 # o*-h*
  649   2  1425  1423 # o*-h*
  650   2  1425  1424 # o*-h*
  651   2  1428  1426 # o*-h*
  652   2  1428  1427 # o*-h*
  653   2  1431  1429 # o*-h*
  654   2  1431  1430 # o*-h*
  655   2  1434  1432 # o*-h*
  656   2  1434  1433 # o*-h*
  657   2  1437  1435 # o*-h*
  658   2  1437  1436 # o*-h*
  659   2  1440  1438 # o*-h*
  660   2  1440  1439 # o*-h*
  661   2  1443  1441 # o*-h*
  662   2  1443  1442 # o*-h*
  663   2  1446  1444 # o*-h*
  664   2  1446  1445 # o*-h*
  665   2  1449  1447 # o*-h*
  666   2  1449  1448 # o*-h*
  667   2  1452  1450 # o*-h*
  668   2  1452  1451 # o*-h*
  669   2  1455  1453 # o*-h*
  670   2  1455  1454 # o*-h*
  671   2  1458  1456 # o*-h*
  672   2  1458  1457 # o*-h*
  673   2  1461  1459 # o*-h*
  674   2  1461  1460 # o*-h*
  675   2  1464  1462 # o*-h*
  676   2  1464  1463 # o*-h*
  677   2  1467  1465 # o*-h*
  678   2  1467  1466 # o*-h*
  679   2  1470  1468 # o*-h*
  680   2  1470  1469 # o*-h*
  681   2  1473  1471 # o*-h*
  682   2  1473  1472 # o*-h*
  683   2  1476  1474 # o*-h*
  684   2  1476  1475 # o*-h*
  685   2  1479  1477 # o*-h*
  686   2  1479  1478 # o*-h*
  687   2  1482  1480 # o*-h*
  688   2  1482  1481 # o*-h*
  689   2  1485  1483 # o*-h*
  690   2  1485  1484 # o*-h*
  691   2  1488  1486 # o*-h*
  692   2  1488  1487 # o*-h*
  693   2  1491  1489 # o*-h*
  694   2  1491  1490 # o*-h*
  695   2  1494  1492 # o*-h*
  696   2  1494  1493 # o*-h*
  697   2  1497  1495 # o*-h*
  698   2  1497  1496 # o*-h*
  699   2  1500  1498 # o*-h*
  700   2  1500  1499 # o*-h*
  701   2  1503  1501 # o*-h*
  702   2  1503  1502 # o*-h*
  703   2  1506  1504 # o*-h*
  704   2  1506  1505 # o*-h*
  705   2  1509  1507 # o*-h*
  706   2  1509  1508 # o*-h*
  707   2  1512  1510 # o*-h*
  708   2  1512  1511 # o*-h*
  709   2  1515  1513 # o*-h*
  710   2  1515  1514 # o*-h*
  711   2  1518  1516 # o*-h*
  712   2  1518  1517 # o*-h*
  713   2  1521  1519 # o*-h*
  714   2  1521  1520 # o*-h*
  715   2  1524  1522 # o*-h*
  716   2  1524  1523 # o*-h*
  717   2  1527  1525 # o*-h*
  718   2  1527  1526 # o*-h*
  719   2  1530  1528 # o*-h*
  720   2  1530  1529 # o*-h*
  721   2  1533  1531 # o*-h*
  722   2  1533  1532 # o*-h*
  723   2  1536  1534 # o*-h*
  724   2  1536  1535 # o*-h*
  725   2  1539  1537 # o*-h*
  726   2  1539  1538 # o*-h*
  727   2  1542  1540 # o*-h*
  728   2  1542  1541 # o*-h*
  729   2  1545  1543 # o*-h*
  730   2  1545  1544 # o*-h*
  731   2  1548  1546 # o*-h*
  732   2  1548  1547 # o*-h*
  733   2  1551  1549 # o*-h*
  734   2  1551  1550 # o*-h*
  735   2  1554  1552 # o*-h*
  736   2  1554  1553 # o*-h*
  737   2  1557  1555 # o*-h*
  738   2  1557  1556 # o*-h*
  739   2  1560  1558 # o*-h*
  740   2  1560  1559 # o*-h*
  741   2  1563  1561 # o*-h*
  742   2  1563  1562 # o*-h*
  743   2  1566  1564 # o*-h*
  744   2  1566  1565 # o*-h*
  745   2  1569  1567 # o*-h*
  746   2  1569  1568 # o*-h*
  747   2  1572  1570 # o*-h*
  748   2  1572  1571 # o*-h*
  749   2  1575  1573 # o*-h*
  750   2  1575  1574 # o*-h*
  751   2  1578  1576 # o*-h*
  752   2  1578  1577 # o*-h*
  753   2  1581  1579 # o*-h*
  754   2  1581  1580 # o*-h*
  755   2  1584  1582 # o*-h*
  756   2  1584  1583 # o*-h*
  757   2  1587  1585 # o*-h*
  758   2  1587  1586 # o*-h*
  759   2  1590  1588 # o*-h*
  760   2  1590  1589 # o*-h*
  761   2  1593  1591 # o*-h*
  762   2  1593  1592 # o*-h*
  763   2  1596  1594 # o*-h*
  764   2  1596  1595 # o*-h*
  765   2  1599  1597 # o*-h*
  766   2  1599  1598 # o*-h*
  767   2  1602  1600 # o*-h*
  768   2  1602  1601 # o*-h*
  769   2  1605  1603 # o*-h*
  770   2  1605  1604 # o*-h*
  771   2  1608  1606 # o*-h*
  772   2  1608  1607 # o*-h*
  773   2  1611  1609 # o*-h*
  774   2  1611  1610 # o*-h*
  775   2  1614  1612 # o*-h*
  776   2  1614  1613 # o*-h*
  777   2  1617  1615 # o*-h*
  778   2  1617  1616 # o*-h*
  779   2  1620  1618 # o*-h*
  780   2  1620  1619 # o*-h*
  781   2  1623  1621 # o*-h*
  782   2  1623  1622 # o*-h*
  783   2  1626  1624 # o*-h*
  784   2  1626  1625 # o*-h*
  785   2  1629  1627 # o*-h*
  786   2  1629  1628 # o*-h*
  787   2  1632  1630 # o*-h*
  788   2  1632  1631 # o*-h*
  789   2  1635  1633 # o*-h*
  790   2  1635  1634 # o*-h*
  791   2  1638  1636 # o*-h*
  792   2  1638  1637 # o*-h*
  793   2  1641  1639 # o*-h*
  794   2  1641  1640 # o*-h*
  795   2  1644  1642 # o*-h*
  796   2  1644  1643 # o*-h*
  797   2  1647  1645 # o*-h*
  798   2  1647  1646 # o*-h*
  799   2  1650  1648 # o*-h*
  800   2  1650  1649 # o*-h*
  801   2  1653  1651 # o*-h*
  802   2  1653  1652 # o*-h*
  803   2  1656  1654 # o*-h*
  804   2  1656  1655 # o*-h*
  805   2  1659  1657 # o*-h*
  806   2  1659  1658 # o*-h*
  807   2  1662  1660 # o*-h*
  808   2  1662  1661 # o*-h*
  809   2  1665  1663 # o*-h*
  810   2  1665  1664 # o*-h*
  811   2  1668  1666 # o*-h*
  812   2  1668  1667 # o*-h*
  813   2  1671  1669 # o*-h*
  814   2  1671  1670 # o*-h*
  815   2  1674  1672 # o*-h*
  816   2  1674  1673 # o*-h*
  817   2  1677  1675 # o*-h*
  818   2  1677  1676 # o*-h*
  819   2  1680  1678 # o*-h*
  820   2  1680  1679 # o*-h*
  821   2  1683  1681 # o*-h*
  822   2  1683  1682 # o*-h*
  823   2  1686  1684 # o*-h*
  824   2  1686  1685 # o*-h*
  825   2  1689  1687 # o*-h*
  826   2  1689  1688 # o*-h*
  827   2  1692  1690 # o*-h*
  828   2  1692  1691 # o*-h*
  829   2  1695  1693 # o*-h*
  830   2  1695  1694 # o*-h*
  831   2  1698  1696 # o*-h*
  832   2  1698  1697 # o*-h*
  833   2  1701  1699 # o*-h*
  834   2  1701  1700 # o*-h*
  835   2  1704  1702 # o*-h*
  836   2  1704  1703 # o*-h*
  837   2  1707  1705 # o*-h*
  838   2  1707  1706 # o*-h*
  839   2  1710  1708 # o*-h*
  840   2  1710  1709 # o*-h*
  841   2  1713  1711 # o*-h*
  842   2  1713  1712 # o*-h*
  843   2  1716  1714 # o*-h*
  844   2  1716  1715 # o*-h*
  845   2  1719  1717 # o*-h*
  846   2  1719  1718 # o*-h*
  847   2  1722  1720 # o*-h*
  848   2  1722  1721 # o*-h*
  849   2  1725  1723 # o*-h*
  850   2  1725  1724 # o*-h*
  851   2  1728  1726 # o*-h*
  852   2  1728  1727 # o*-h*
  853   2  1731  1729 # o*-h*
  854   2  1731  1730 # o*-h*
  855   2  1734  1732 # o*-h*
  856   2  1734  1733 # o*-h*
  857   2  1737  1735 # o*-h*
  858   2  1737  1736 # o*-h*
  859   2  1740  1738 # o*-h*
  860   2  1740  1739 # o*-h*
  861   2  1743  1741 # o*-h*
  862   2  1743  1742 # o*-h*
  863   2  1746  1744 # o*-h*
  864   2  1746  1745 # o*-h*
  865   2  1749  1747 # o*-h*
  866   2  1749  1748 # o*-h*
  867   2  1752  1750 # o*-h*
  868   2  1752  1751 # o*-h*
  869   2  1755  1753 # o*-h*
  870   2  1755  1754 # o*-h*
  871   2  1758  1756 # o*-h*
  872   2  1758  1757 # o*-h*
  873   2  1761  1759 # o*-h*
  874   2  1761  1760 # o*-h*
  875   2  1764  1762 # o*-h*
  876   2  1764  1763 # o*-h*
  877   2  1767  1765 # o*-h*
  878   2  1767  1766 # o*-h*
  879   2  1770  1768 # o*-h*
  880   2  1770  1769 # o*-h*
  881   2  1773  1771 # o*-h*
  882   2  1773  1772 # o*-h*
  883   2  1776  1774 # o*-h*
  884   2  1776  1775 # o*-h*
  885   2  1779  1777 # o*-h*
  886   2  1779  1778 # o*-h*
  887   2  1782  1780 # o*-h*
  888   2  1782  1781 # o*-h*
  889   2  1785  1783 # o*-h*
  890   2  1785  1784 # o*-h*
  891   2  1788  1786 # o*-h*
  892   2  1788  1787 # o*-h*
  893   2  1791  1789 # o*-h*
  894   2  1791  1790 # o*-h*
  895   2  1794  1792 # o*-h*
  896   2  1794  1793 # o*-h*
  897   2  1797  1795 # o*-h*
  898   2  1797  1796 # o*-h*
  899   2  1800  1798 # o*-h*
  900   2  1800  1799 # o*-h*
  901   2  1803  1801 # o*-h*
  902   2  1803  1802 # o*-h*
  903   2  1806  1804 # o*-h*
  904   2  1806  1805 # o*-h*
  905   2  1809  1807 # o*-h*
  906   2  1809  1808 # o*-h*
  907   2  1812  1810 # o*-h*
  908   2  1812  1811 # o*-h*
  909   2  1815  1813 # o*-h*
  910   2  1815  1814 # o*-h*
  911   2  1818  1816 # o*-h*
  912   2  1818  1817 # o*-h*
  913   2  1821  1819 # o*-h*
  914   2  1821  1820 # o*-h*
  915   2  1824  1822 # o*-h*
  916   2  1824  1823 # o*-h*
  917   2  1827  1825 # o*-h*
  918   2  1827  1826 # o*-h*
  919   2  1830  1828 # o*-h*
  920   2  1830  1829 # o*-h*
  921   2  1833  1831 # o*-h*
  922   2  1833  1832 # o*-h*
  923   2  1836  1834 # o*-h*
  924   2  1836  1835 # o*-h*
  925   2  1839  1837 # o*-h*
  926   2  1839  1838 # o*-h*
  927   2  1842  1840 # o*-h*
  928   2  1842  1841 # o*-h*
  929   2  1845  1843 # o*-h*
  930   2  1845  1844 # o*-h*
  931   2  1848  1846 # o*-h*
  932   2  1848  1847 # o*-h*
  933   2  1851  1849 # o*-h*
  934   2  1851  1850 # o*-h*
  935   2  1854  1852 # o*-h*
  936   2  1854  1853 # o*-h*
  937   2  1857  1855 # o*-h*
  938   2  1857  1856 # o*-h*
  939   2  1860  1858 # o*-h*
  940   2  1860  1859 # o*-h*
  941   2  1863  1861 # o*-h*
  942   2  1863  1862 # o*-h*
  943   2  1866  1864 # o*-h*
  944   2  1866  1865 # o*-h*
  945   2  1869  1867 # o*-h*
  946   2  1869  1868 # o*-h*
  947   2  1872  1870 # o*-h*
  948   2  1872  1871 # o*-h*
  949   2  1875  1873 # o*-h*
  950   2  1875  1874 # o*-h*
  951   2  1878  1876 # o*-h*
  952   2  1878  1877 # o*-h*
  953   2  1881  1879 # o*-h*
  954   2  1881  1880 # o*-h*
  955   2  1884  1882 # o*-h*
  956   2  1884  1883 # o*-h*
  957   2  1887  1885 # o*-h*
  958   2  1887  1886 # o*-h*
  959   2  1890  1888 # o*-h*
  960   2  1890  1889 # o*-h*
  961   2  1893  1891 # o*-h*
  962   2  1893  1892 # o*-h*
  963   2  1896  1894 # o*-h*
  964   2  1896  1895 # o*-h*
  965   2  1899  1897 # o*-h*
  966   2  1899  1898 # o*-h*
  967   2  1902  1900 # o*-h*
  968   2  1902  1901 # o*-h*
  969   2  1905  1903 # o*-h*
  970   2  1905  1904 # o*-h*
  971   2  1908  1906 # o*-h*
  972   2  1908  1907 # o*-h*
  973   2  1911  1909 # o*-h*
  974   2  1911  1910 # o*-h*
  975   2  1914  1912 # o*-h*
  976   2  1914  1913 # o*-h*
  977   2  1917  1915 # o*-h*
  978   2  1917  1916 # o*-h*
  979   2  1920  1918 # o*-h*
  980   2  1920  1919 # o*-h*
  981   2  1923  1921 # o*-h*
  982   2  1923  1922 # o*-h*
  983   2  1926  1924 # o*-h*
  984   2  1926  1925 # o*-h*
  985   2  1929  1927 # o*-h*
  986   2  1929  1928 # o*-h*
  987   2  1932  1930 # o*-h*
  988   2  1932  1931 # o*-h*
  989   2  1935  1933 # o*-h*
  990   2  1935  1934 # o*-h*
  991   2  1938  1936 # o*-h*
  992   2  1938  1937 # o*-h*
  993   2  1941  1939 # o*-h*
  994   2  1941  1940 # o*-h*
  995   2  1944  1942 # o*-h*
  996   2  1944  1943 # o*-h*
  997   2  1947  1945 # o*-h*
  998   2  1947  1946 # o*-h*
  999   2  1950  1948 # o*-h*
 1000   2  1950  1949 # o*-h*
 1001   2  1953  1951 # o*-h*
 1002   2  1953  1952 # o*-h*
 1003   2  1956  1954 # o*-h*
 1004   2  1956  1955 # o*-h*
 1005   2  1959  1957 # o*-h*
 1006   2  1959  1958 # o*-h*
 1007   2  1962  1960 # o*-h*
 1008   2  1962  1961 # o*-h*
 1009   2  1965  1963 # o*-h*
 1010   2  1965  1964 # o*-h*
 1011   2  1968  1966 # o*-h*
 1012   2  1968  1967 # o*-h*
 1013   3  1972  1969 # co-oc
 1014   3  1972  1970 # co-oc
 1015   3  1972  1971 # co-oc

Angles

    1   1     6    38    85 # st-oh-ho
    2   1     5    39    86 # st-oh-ho
    3   1     7    54    55 # st-oh-ho
    4   1     8    56    57 # st-oh-ho
    5   1    87   106   763 # st-oh-ho
    6   1     2   107   751 # st-oh-ho
    7   1    93   124   764 # st-oh-ho
    8   1    94   125   752 # st-oh-ho
    9   1    91   136   137 # st-oh-ho
   10   1    92   138   139 # st-oh-ho
   11   1   172   204   251 # st-oh-ho
   12   1   171   205   252 # st-oh-ho
   13   1   173   220   221 # st-oh-ho
   14   1   174   222   223 # st-oh-ho
   15   1   258   290   341 # st-oh-ho
   16   1   257   291   342 # st-oh-ho
   17   1     5   306   307 # st-oh-ho
   18   1     6   308   309 # st-oh-ho
   19   1   259   310   311 # st-oh-ho
   20   1   260   312   313 # st-oh-ho
   21   1   343   362   765 # st-oh-ho
   22   1   254   363   753 # st-oh-ho
   23   1   349   380   766 # st-oh-ho
   24   1   350   381   754 # st-oh-ho
   25   1   347   392   393 # st-oh-ho
   26   1   348   394   395 # st-oh-ho
   27   1   423   442   767 # st-oh-ho
   28   1   344   443   755 # st-oh-ho
   29   1   429   460   768 # st-oh-ho
   30   1   430   461   756 # st-oh-ho
   31   1   171   472   473 # st-oh-ho
   32   1   172   474   475 # st-oh-ho
   33   1   427   476   477 # st-oh-ho
   34   1   428   478   479 # st-oh-ho
   35   1   507   526   769 # st-oh-ho
   36   1   672   527   757 # st-oh-ho
   37   1   513   544   770 # st-oh-ho
   38   1   514   545   758 # st-oh-ho
   39   1   257   556   557 # st-oh-ho
   40   1   258   558   559 # st-oh-ho
   41   1   511   560   561 # st-oh-ho
   42   1   512   562   563 # st-oh-ho
   43   1   591   610   771 # st-oh-ho
   44   1   508   611   759 # st-oh-ho
   45   1   597   628   772 # st-oh-ho
   46   1   598   629   760 # st-oh-ho
   47   1   595   640   641 # st-oh-ho
   48   1   596   642   643 # st-oh-ho
   49   1   671   690   773 # st-oh-ho
   50   1   592   691   761 # st-oh-ho
   51   1   677   708   774 # st-oh-ho
   52   1   678   709   762 # st-oh-ho
   53   1   675   720   721 # st-oh-ho
   54   1   676   722   723 # st-oh-ho
   55   2    59    58    60 # h*-o*-h*
   56   2    63    61    62 # h*-o*-h*
   57   2    65    64    66 # h*-o*-h*
   58   2    68    67    69 # h*-o*-h*
   59   2    72    70    71 # h*-o*-h*
   60   2    75    73    74 # h*-o*-h*
   61   2   334    76   333 # h*-o*-h*
   62   2    80    79    81 # h*-o*-h*
   63   2    83    82    84 # h*-o*-h*
   64   2   141   140   142 # h*-o*-h*
   65   2   145   143   144 # h*-o*-h*
   66   2   147   146   148 # h*-o*-h*
   67   2   150   149   151 # h*-o*-h*
   68   2   154   152   153 # h*-o*-h*
   69   2   157   155   156 # h*-o*-h*
   70   2   416   158   415 # h*-o*-h*
   71   2   162   161   163 # h*-o*-h*
   72   2   165   164   166 # h*-o*-h*
   73   2   226   224   225 # h*-o*-h*
   74   2   229   227   228 # h*-o*-h*
   75   2   232   230   231 # h*-o*-h*
   76   2   234   233   235 # h*-o*-h*
   77   2   237   236   238 # h*-o*-h*
   78   2   241   239   240 # h*-o*-h*
   79   2   499   242   500 # h*-o*-h*
   80   2   247   245   246 # h*-o*-h*
   81   2   250   248   249 # h*-o*-h*
   82   2   316   314   315 # h*-o*-h*
   83   2   319   317   318 # h*-o*-h*
   84   2   322   320   321 # h*-o*-h*
   85   2   324   323   325 # h*-o*-h*
   86   2   327   326   328 # h*-o*-h*
   87   2   331   329   330 # h*-o*-h*
   88   2   583   332   584 # h*-o*-h*
   89   2   336   335   337 # h*-o*-h*
   90   2   339   338   340 # h*-o*-h*
   91   2   397   396   398 # h*-o*-h*
   92   2   401   399   400 # h*-o*-h*
   93   2   404   402   403 # h*-o*-h*
   94   2   406   405   407 # h*-o*-h*
   95   2   409   408   410 # h*-o*-h*
   96   2   413   411   412 # h*-o*-h*
   97   2   664   414   663 # h*-o*-h*
   98   2   418   417   419 # h*-o*-h*
   99   2   421   420   422 # h*-o*-h*
  100   2   482   480   481 # h*-o*-h*
  101   2   484   483   485 # h*-o*-h*
  102   2   488   486   487 # h*-o*-h*
  103   2   490   489   491 # h*-o*-h*
  104   2   493   492   494 # h*-o*-h*
  105   2   497   495   496 # h*-o*-h*
  106   2   744   498   743 # h*-o*-h*
  107   2   502   501   503 # h*-o*-h*
  108   2   506   504   505 # h*-o*-h*
  109   2   565   564   566 # h*-o*-h*
  110   2   569   567   568 # h*-o*-h*
  111   2   572   570   571 # h*-o*-h*
  112   2   574   573   575 # h*-o*-h*
  113   2   578   576   577 # h*-o*-h*
  114   2   580   579   581 # h*-o*-h*
  115   2    78   582    77 # h*-o*-h*
  116   2   586   585   587 # h*-o*-h*
  117   2   590   588   589 # h*-o*-h*
  118   2   646   644   645 # h*-o*-h*
  119   2   649   647   648 # h*-o*-h*
  120   2   651   650   652 # h*-o*-h*
  121   2   654   653   655 # h*-o*-h*
  122   2   657   656   658 # h*-o*-h*
  123   2   660   659   661 # h*-o*-h*
  124   2   160   662   159 # h*-o*-h*
  125   2   666   665   667 # h*-o*-h*
  126   2   670   668   669 # h*-o*-h*
  127   2   726   724   725 # h*-o*-h*
  128   2   728   727   729 # h*-o*-h*
  129   2   731   730   732 # h*-o*-h*
  130   2   734   733   735 # h*-o*-h*
  131   2   738   736   737 # h*-o*-h*
  132   2   741   739   740 # h*-o*-h*
  133   2   243   742   244 # h*-o*-h*
  134   2   746   745   747 # h*-o*-h*
  135   2   749   748   750 # h*-o*-h*
  136   2   775   777   776 # h*-o*-h*
  137   2   778   780   779 # h*-o*-h*
  138   2   781   783   782 # h*-o*-h*
  139   2   784   786   785 # h*-o*-h*
  140   2   788   789   787 # h*-o*-h*
  141   2   790   792   791 # h*-o*-h*
  142   2   793   795   794 # h*-o*-h*
  143   2   796   798   797 # h*-o*-h*
  144   2   800   801   799 # h*-o*-h*
  145   2   803   804   802 # h*-o*-h*
  146   2   805   807   806 # h*-o*-h*
  147   2   809   810   808 # h*-o*-h*
  148   2   812   813   811 # h*-o*-h*
  149   2   814   816   815 # h*-o*-h*
  150   2   818   819   817 # h*-o*-h*
  151   2   820   822   821 # h*-o*-h*
  152   2   823   825   824 # h*-o*-h*
  153   2   826   828   827 # h*-o*-h*
  154   2   829   831   830 # h*-o*-h*
  155   2   833   834   832 # h*-o*-h*
  156   2   836   837   835 # h*-o*-h*
  157   2   838   840   839 # h*-o*-h*
  158   2   841   843   842 # h*-o*-h*
  159   2   845   846   844 # h*-o*-h*
  160   2   847   849   848 # h*-o*-h*
  161   2   850   852   851 # h*-o*-h*
  162   2   853   855   854 # h*-o*-h*
  163   2   857   858   856 # h*-o*-h*
  164   2   860   861   859 # h*-o*-h*
  165   2   862   864   863 # h*-o*-h*
  166   2   865   867   866 # h*-o*-h*
  167   2   868   870   869 # h*-o*-h*
  168   2   871   873   872 # h*-o*-h*
  169   2   874   876   875 # h*-o*-h*
  170   2   877   879   878 # h*-o*-h*
  171   2   881   882   880 # h*-o*-h*
  172   2   883   885   884 # h*-o*-h*
  173   2   887   888   886 # h*-o*-h*
  174   2   889   891   890 # h*-o*-h*
  175   2   893   894   892 # h*-o*-h*
  176   2   896   897   895 # h*-o*-h*
  177   2   899   900   898 # h*-o*-h*
  178   2   902   903   901 # h*-o*-h*
  179   2   904   906   905 # h*-o*-h*
  180   2   908   909   907 # h*-o*-h*
  181   2   910   912   911 # h*-o*-h*
  182   2   914   915   913 # h*-o*-h*
  183   2   916   918   917 # h*-o*-h*
  184   2   919   921   920 # h*-o*-h*
  185   2   923   924   922 # h*-o*-h*
  186   2   926   927   925 # h*-o*-h*
  187   2   928   930   929 # h*-o*-h*
  188   2   932   933   931 # h*-o*-h*
  189   2   934   936   935 # h*-o*-h*
  190   2   938   939   937 # h*-o*-h*
  191   2   941   942   940 # h*-o*-h*
  192   2   944   945   943 # h*-o*-h*
  193   2   947   948   946 # h*-o*-h*
  194   2   950   951   949 # h*-o*-h*
  195   2   953   954   952 # h*-o*-h*
  196   2   956   957   955 # h*-o*-h*
  197   2   958   960   959 # h*-o*-h*
  198   2   961   963   962 # h*-o*-h*
  199   2   965   966   964 # h*-o*-h*
  200   2   967   969   968 # h*-o*-h*
  201   2   971   972   970 # h*-o*-h*
  202   2   974   975   973 # h*-o*-h*
  203   2   976   978   977 # h*-o*-h*
  204   2   980   981   979 # h*-o*-h*
  205   2   983   984   982 # h*-o*-h*
  206   2   985   987   986 # h*-o*-h*
  207   2   988   990   989 # h*-o*-h*
  208   2   992   993   991 # h*-o*-h*
  209   2   995   996   994 # h*-o*-h*
  210   2   998   999   997 # h*-o*-h*
  211   2  1000  1002  1001 # h*-o*-h*
  212   2  1004  1005  1003 # h*-o*-h*
  213   2  1006  1008  1007 # h*-o*-h*
  214   2  1010  1011  1009 # h*-o*-h*
  215   2  1012  1014  1013 # h*-o*-h*
  216   2  1015  1017  1016 # h*-o*-h*
  217   2  1018  1020  1019 # h*-o*-h*
  218   2  1021  1023  1022 # h*-o*-h*
  219   2  1024  1026  1025 # h*-o*-h*
  220   2  1027  1029  1028 # h*-o*-h*
  221   2  1031  1032  1030 # h*-o*-h*
  222   2  1033  1035  1034 # h*-o*-h*
  223   2  1037  1038  1036 # h*-o*-h*
  224   2  1039  1041  1040 # h*-o*-h*
  225   2  1043  1044  1042 # h*-o*-h*
  226   2  1046  1047  1045 # h*-o*-h*
  227   2  1048  1050  1049 # h*-o*-h*
  228   2  1051  1053  1052 # h*-o*-h*
  229   2  1054  1056  1055 # h*-o*-h*
  230   2  1058  1059  1057 # h*-o*-h*
  231   2  1060  1062  1061 # h*-o*-h*
  232   2  1064  1065  1063 # h*-o*-h*
  233   2  1067  1068  1066 # h*-o*-h*
  234   2  1069  1071  1070 # h*-o*-h*
  235   2  1072  1074  1073 # h*-o*-h*
  236   2  1076  1077  1075 # h*-o*-h*
  237   2  1078  1080  1079 # h*-o*-h*
  238   2  1082  1083  1081 # h*-o*-h*
  239   2  1085  1086  1084 # h*-o*-h*
  240   2  1088  1089  1087 # h*-o*-h*
  241   2  1091  1092  1090 # h*-o*-h*
  242   2  1093  1095  1094 # h*-o*-h*
  243   2  1097  1098  1096 # h*-o*-h*
  244   2  1100  1101  1099 # h*-o*-h*
  245   2  1103  1104  1102 # h*-o*-h*
  246   2  1106  1107  1105 # h*-o*-h*
  247   2  1108  1110  1109 # h*-o*-h*
  248   2  1112  1113  1111 # h*-o*-h*
  249   2  1114  1116  1115 # h*-o*-h*
  250   2  1117  1119  1118 # h*-o*-h*
  251   2  1121  1122  1120 # h*-o*-h*
  252   2  1124  1125  1123 # h*-o*-h*
  253   2  1126  1128  1127 # h*-o*-h*
  254   2  1130  1131  1129 # h*-o*-h*
  255   2  1132  1134  1133 # h*-o*-h*
  256   2  1135  1137  1136 # h*-o*-h*
  257   2  1138  1140  1139 # h*-o*-h*
  258   2  1141  1143  1142 # h*-o*-h*
  259   2  1144  1146  1145 # h*-o*-h*
  260   2  1147  1149  1148 # h*-o*-h*
  261   2  1151  1152  1150 # h*-o*-h*
  262   2  1153  1155  1154 # h*-o*-h*
  263   2  1157  1158  1156 # h*-o*-h*
  264   2  1160  1161  1159 # h*-o*-h*
  265   2  1162  1164  1163 # h*-o*-h*
  266   2  1166  1167  1165 # h*-o*-h*
  267   2  1168  1170  1169 # h*-o*-h*
  268   2  1172  1173  1171 # h*-o*-h*
  269   2  1174  1176  1175 # h*-o*-h*
  270   2  1178  1179  1177 # h*-o*-h*
  271   2  1180  1182  1181 # h*-o*-h*
  272   2  1184  1185  1183 # h*-o*-h*
  273   2  1186  1188  1187 # h*-o*-h*
  274   2  1190  1191  1189 # h*-o*-h*
  275   2  1192  1194  1193 # h*-o*-h*
  276   2  1195  1197  1196 # h*-o*-h*
  277   2  1198  1200  1199 # h*-o*-h*
  278   2  1202  1203  1201 # h*-o*-h*
  279   2  1204  1206  1205 # h*-o*-h*
  280   2  1208  1209  1207 # h*-o*-h*
  281   2  1211  1212  1210 # h*-o*-h*
  282   2  1214  1215  1213 # h*-o*-h*
  283   2  1217  1218  1216 # h*-o*-h*
  284   2  1220  1221  1219 # h*-o*-h*
  285   2  1222  1224  1223 # h*-o*-h*
  286   2  1225  1227  1226 # h*-o*-h*
  287   2  1228  1230  1229 # h*-o*-h*
  288   2  1231  1233  1232 # h*-o*-h*
  289   2  1234  1236  1235 # h*-o*-h*
  290   2  1237  1239  1238 # h*-o*-h*
  291   2  1241  1242  1240 # h*-o*-h*
  292   2  1243  1245  1244 # h*-o*-h*
  293   2  1246  1248  1247 # h*-o*-h*
  294   2  1250  1251  1249 # h*-o*-h*
  295   2  1252  1254  1253 # h*-o*-h*
  296   2  1256  1257  1255 # h*-o*-h*
  297   2  1258  1260  1259 # h*-o*-h*
  298   2  1261  1263  1262 # h*-o*-h*
  299   2  1265  1266  1264 # h*-o*-h*
  300   2  1268  1269  1267 # h*-o*-h*
  301   2  1270  1272  1271 # h*-o*-h*
  302   2  1273  1275  1274 # h*-o*-h*
  303   2  1276  1278  1277 # h*-o*-h*
  304   2  1280  1281  1279 # h*-o*-h*
  305   2  1283  1284  1282 # h*-o*-h*
  306   2  1286  1287  1285 # h*-o*-h*
  307   2  1289  1290  1288 # h*-o*-h*
  308   2  1291  1293  1292 # h*-o*-h*
  309   2  1295  1296  1294 # h*-o*-h*
  310   2  1298  1299  1297 # h*-o*-h*
  311   2  1301  1302  1300 # h*-o*-h*
  312   2  1303  1305  1304 # h*-o*-h*
  313   2  1306  1308  1307 # h*-o*-h*
  314   2  1310  1311  1309 # h*-o*-h*
  315   2  1312  1314  1313 # h*-o*-h*
  316   2  1315  1317  1316 # h*-o*-h*
  317   2  1318  1320  1319 # h*-o*-h*
  318   2  1322  1323  1321 # h*-o*-h*
  319   2  1324  1326  1325 # h*-o*-h*
  320   2  1328  1329  1327 # h*-o*-h*
  321   2  1330  1332  1331 # h*-o*-h*
  322   2  1334  1335  1333 # h*-o*-h*
  323   2  1337  1338  1336 # h*-o*-h*
  324   2  1339  1341  1340 # h*-o*-h*
  325   2  1342  1344  1343 # h*-o*-h*
  326   2  1346  1347  1345 # h*-o*-h*
  327   2  1348  1350  1349 # h*-o*-h*
  328   2  1351  1353  1352 # h*-o*-h*
  329   2  1355  1356  1354 # h*-o*-h*
  330   2  1357  1359  1358 # h*-o*-h*
  331   2  1361  1362  1360 # h*-o*-h*
  332   2  1363  1365  1364 # h*-o*-h*
  333   2  1367  1368  1366 # h*-o*-h*
  334   2  1369  1371  1370 # h*-o*-h*
  335   2  1372  1374  1373 # h*-o*-h*
  336   2  1376  1377  1375 # h*-o*-h*
  337   2  1379  1380  1378 # h*-o*-h*
  338   2  1382  1383  1381 # h*-o*-h*
  339   2  1384  1386  1385 # h*-o*-h*
  340   2  1387  1389  1388 # h*-o*-h*
  341   2  1390  1392  1391 # h*-o*-h*
  342   2  1393  1395  1394 # h*-o*-h*
  343   2  1396  1398  1397 # h*-o*-h*
  344   2  1400  1401  1399 # h*-o*-h*
  345   2  1403  1404  1402 # h*-o*-h*
  346   2  1405  1407  1406 # h*-o*-h*
  347   2  1409  1410  1408 # h*-o*-h*
  348   2  1411  1413  1412 # h*-o*-h*
  349   2  1414  1416  1415 # h*-o*-h*
  350   2  1417  1419  1418 # h*-o*-h*
  351   2  1421  1422  1420 # h*-o*-h*
  352   2  1423  1425  1424 # h*-o*-h*
  353   2  1426  1428  1427 # h*-o*-h*
  354   2  1429  1431  1430 # h*-o*-h*
  355   2  1432  1434  1433 # h*-o*-h*
  356   2  1435  1437  1436 # h*-o*-h*
  357   2  1439  1440  1438 # h*-o*-h*
  358   2  1442  1443  1441 # h*-o*-h*
  359   2  1444  1446  1445 # h*-o*-h*
  360   2  1448  1449  1447 # h*-o*-h*
  361   2  1451  1452  1450 # h*-o*-h*
  362   2  1453  1455  1454 # h*-o*-h*
  363   2  1457  1458  1456 # h*-o*-h*
  364   2  1460  1461  1459 # h*-o*-h*
  365   2  1462  1464  1463 # h*-o*-h*
  366   2  1466  1467  1465 # h*-o*-h*
  367   2  1469  1470  1468 # h*-o*-h*
  368   2  1472  1473  1471 # h*-o*-h*
  369   2  1475  1476  1474 # h*-o*-h*
  370   2  1478  1479  1477 # h*-o*-h*
  371   2  1481  1482  1480 # h*-o*-h*
  372   2  1484  1485  1483 # h*-o*-h*
  373   2  1487  1488  1486 # h*-o*-h*
  374   2  1490  1491  1489 # h*-o*-h*
  375   2  1492  1494  1493 # h*-o*-h*
  376   2  1496  1497  1495 # h*-o*-h*
  377   2  1499  1500  1498 # h*-o*-h*
  378   2  1502  1503  1501 # h*-o*-h*
  379   2  1504  1506  1505 # h*-o*-h*
  380   2  1507  1509  1508 # h*-o*-h*
  381   2  1510  1512  1511 # h*-o*-h*
  382   2  1514  1515  1513 # h*-o*-h*
  383   2  1517  1518  1516 # h*-o*-h*
  384   2  1519  1521  1520 # h*-o*-h*
  385   2  1523  1524  1522 # h*-o*-h*
  386   2  1526  1527  1525 # h*-o*-h*
  387   2  1529  1530  1528 # h*-o*-h*
  388   2  1532  1533  1531 # h*-o*-h*
  389   2  1535  1536  1534 # h*-o*-h*
  390   2  1537  1539  1538 # h*-o*-h*
  391   2  1541  1542  1540 # h*-o*-h*
  392   2  1544  1545  1543 # h*-o*-h*
  393   2  1547  1548  1546 # h*-o*-h*
  394   2  1550  1551  1549 # h*-o*-h*
  395   2  1553  1554  1552 # h*-o*-h*
  396   2  1556  1557  1555 # h*-o*-h*
  397   2  1558  1560  1559 # h*-o*-h*
  398   2  1561  1563  1562 # h*-o*-h*
  399   2  1564  1566  1565 # h*-o*-h*
  400   2  1568  1569  1567 # h*-o*-h*
  401   2  1571  1572  1570 # h*-o*-h*
  402   2  1573  1575  1574 # h*-o*-h*
  403   2  1576  1578  1577 # h*-o*-h*
  404   2  1579  1581  1580 # h*-o*-h*
  405   2  1583  1584  1582 # h*-o*-h*
  406   2  1586  1587  1585 # h*-o*-h*
  407   2  1589  1590  1588 # h*-o*-h*
  408   2  1591  1593  1592 # h*-o*-h*
  409   2  1595  1596  1594 # h*-o*-h*
  410   2  1598  1599  1597 # h*-o*-h*
  411   2  1601  1602  1600 # h*-o*-h*
  412   2  1604  1605  1603 # h*-o*-h*
  413   2  1607  1608  1606 # h*-o*-h*
  414   2  1610  1611  1609 # h*-o*-h*
  415   2  1612  1614  1613 # h*-o*-h*
  416   2  1616  1617  1615 # h*-o*-h*
  417   2  1619  1620  1618 # h*-o*-h*
  418   2  1622  1623  1621 # h*-o*-h*
  419   2  1625  1626  1624 # h*-o*-h*
  420   2  1628  1629  1627 # h*-o*-h*
  421   2  1631  1632  1630 # h*-o*-h*
  422   2  1634  1635  1633 # h*-o*-h*
  423   2  1636  1638  1637 # h*-o*-h*
  424   2  1639  1641  1640 # h*-o*-h*
  425   2  1642  1644  1643 # h*-o*-h*
  426   2  1645  1647  1646 # h*-o*-h*
  427   2  1649  1650  1648 # h*-o*-h*
  428   2  1651  1653  1652 # h*-o*-h*
  429   2  1654  1656  1655 # h*-o*-h*
  430   2  1657  1659  1658 # h*-o*-h*
  431   2  1661  1662  1660 # h*-o*-h*
  432   2  1663  1665  1664 # h*-o*-h*
  433   2  1666  1668  1667 # h*-o*-h*
  434   2  1669  1671  1670 # h*-o*-h*
  435   2  1672  1674  1673 # h*-o*-h*
  436   2  1676  1677  1675 # h*-o*-h*
  437   2  1678  1680  1679 # h*-o*-h*
  438   2  1682  1683  1681 # h*-o*-h*
  439   2  1684  1686  1685 # h*-o*-h*
  440   2  1687  1689  1688 # h*-o*-h*
  441   2  1691  1692  1690 # h*-o*-h*
  442   2  1693  1695  1694 # h*-o*-h*
  443   2  1697  1698  1696 # h*-o*-h*
  444   2  1700  1701  1699 # h*-o*-h*
  445   2  1702  1704  1703 # h*-o*-h*
  446   2  1706  1707  1705 # h*-o*-h*
  447   2  1708  1710  1709 # h*-o*-h*
  448   2  1711  1713  1712 # h*-o*-h*
  449   2  1714  1716  1715 # h*-o*-h*
  450   2  1718  1719  1717 # h*-o*-h*
  451   2  1720  1722  1721 # h*-o*-h*
  452   2  1723  1725  1724 # h*-o*-h*
  453   2  1727  1728  1726 # h*-o*-h*
  454   2  1729  1731  1730 # h*-o*-h*
  455   2  1733  1734  1732 # h*-o*-h*
  456   2  1735  1737  1736 # h*-o*-h*
  457   2  1739  1740  1738 # h*-o*-h*
  458   2  1741  1743  1742 # h*-o*-h*
  459   2  1745  1746  1744 # h*-o*-h*
  460   2  1747  1749  1748 # h*-o*-h*
  461   2  1751  1752  1750 # h*-o*-h*
  462   2  1754  1755  1753 # h*-o*-h*
  463   2  1756  1758  1757 # h*-o*-h*
  464   2  1760  1761  1759 # h*-o*-h*
  465   2  1763  1764  1762 # h*-o*-h*
  466   2  1765  1767  1766 # h*-o*-h*
  467   2  1768  1770  1769 # h*-o*-h*
  468   2  1772  1773  1771 # h*-o*-h*
  469   2  1775  1776  1774 # h*-o*-h*
  470   2  1777  1779  1778 # h*-o*-h*
  471   2  1780  1782  1781 # h*-o*-h*
  472   2  1784  1785  1783 # h*-o*-h*
  473   2  1787  1788  1786 # h*-o*-h*
  474   2  1789  1791  1790 # h*-o*-h*
  475   2  1793  1794  1792 # h*-o*-h*
  476   2  1796  1797  1795 # h*-o*-h*
  477   2  1799  1800  1798 # h*-o*-h*
  478   2  1802  1803  1801 # h*-o*-h*
  479   2  1805  1806  1804 # h*-o*-h*
  480   2  1808  1809  1807 # h*-o*-h*
  481   2  1810  1812  1811 # h*-o*-h*
  482   2  1814  1815  1813 # h*-o*-h*
  483   2  1817  1818  1816 # h*-o*-h*
  484   2  1819  1821  1820 # h*-o*-h*
  485   2  1823  1824  1822 # h*-o*-h*
  486   2  1825  1827  1826 # h*-o*-h*
  487   2  1829  1830  1828 # h*-o*-h*
  488   2  1831  1833  1832 # h*-o*-h*
  489   2  1834  1836  1835 # h*-o*-h*
  490   2  1838  1839  1837 # h*-o*-h*
  491   2  1840  1842  1841 # h*-o*-h*
  492   2  1844  1845  1843 # h*-o*-h*
  493   2  1846  1848  1847 # h*-o*-h*
  494   2  1850  1851  1849 # h*-o*-h*
  495   2  1853  1854  1852 # h*-o*-h*
  496   2  1855  1857  1856 # h*-o*-h*
  497   2  1858  1860  1859 # h*-o*-h*
  498   2  1861  1863  1862 # h*-o*-h*
  499   2  1865  1866  1864 # h*-o*-h*
  500   2  1867  1869  1868 # h*-o*-h*
  501   2  1871  1872  1870 # h*-o*-h*
  502   2  1873  1875  1874 # h*-o*-h*
  503   2  1876  1878  1877 # h*-o*-h*
  504   2  1880  1881  1879 # h*-o*-h*
  505   2  1883  1884  1882 # h*-o*-h*
  506   2  1886  1887  1885 # h*-o*-h*
  507   2  1889  1890  1888 # h*-o*-h*
  508   2  1891  1893  1892 # h*-o*-h*
  509   2  1894  1896  1895 # h*-o*-h*
  510   2  1898  1899  1897 # h*-o*-h*
  511   2  1900  1902  1901 # h*-o*-h*
  512   2  1904  1905  1903 # h*-o*-h*
  513   2  1907  1908  1906 # h*-o*-h*
  514   2  1910  1911  1909 # h*-o*-h*
  515   2  1913  1914  1912 # h*-o*-h*
  516   2  1915  1917  1916 # h*-o*-h*
  517   2  1919  1920  1918 # h*-o*-h*
  518   2  1921  1923  1922 # h*-o*-h*
  519   2  1925  1926  1924 # h*-o*-h*
  520   2  1928  1929  1927 # h*-o*-h*
  521   2  1930  1932  1931 # h*-o*-h*
  522   2  1934  1935  1933 # h*-o*-h*
  523   2  1937  1938  1936 # h*-o*-h*
  524   2  1939  1941  1940 # h*-o*-h*
  525   2  1943  1944  1942 # h*-o*-h*
  526   2  1945  1947  1946 # h*-o*-h*
  527   2  1948  1950  1949 # h*-o*-h*
  528   2  1952  1953  1951 # h*-o*-h*
  529   2  1954  1956  1955 # h*-o*-h*
  530   2  1958  1959  1957 # h*-o*-h*
  531   2  1960  1962  1961 # h*-o*-h*
  532   2  1964  1965  1963 # h*-o*-h*
  533   2  1966  1968  1967 # h*-o*-h*
  534   3  1970  1972  1969 # oc-co-oc
  535   3  1970  1972  1971 # oc-co-oc
  536   3  1969  1972  1971 # oc-co-oc

Impropers

    1   1  1972  1969  1970  1971 # co-oc-oc-oc
