LAMMPS data file via write_data, version 20 Sep 2021, timestep = 200030

1992 atoms
7 atom types
1016 bonds
2 bond types
535 angles
2 angle types

-0.23102696925043276 20.436626969250025 xlo xhi
-0.007627200285059718 18.636382200285542 ylo yhi
0.867131846525351 57.565386153475785 zlo zhi
-12.223594260955027 0 0 xy xz yz

Masses

1 28.0855
2 40.078
3 15.9994
4 15.9994
5 1.00794
6 15.9994
7 1.00794

Bond Coeffs # harmonic/omp

1 554.135 1
2 554.135 1

Angle Coeffs # harmonic/omp

1 15 100
2 45.7696 109.47

Atoms # full

1 535 1 2.1 16.761778790177974 2.2123947392742074 4.252059538893448 0 0 0
4 538 1 2.1 11.596185522204003 5.492790869559473 8.556987018639887 0 0 0
5 21 1 2.1 16.258387739667555 4.522990589561167 2.2731185149814213 0 0 0
8 6 1 2.1 14.67534114884109 1.3133582070594911 10.671310024789696 0 0 0
9 539 1 2.1 14.420175916711305 5.96681373295756 3.9723354586108464 0 0 0
12 542 1 2.1 13.289379631811356 3.0248696397020702 8.434210718909249 0 0 0
13 543 2 1.05 16.80488515172904 2.716188259286965 7.64989849463747 0 0 0
16 546 2 1.05 10.994355051078724 5.610466850924734 5.253853994537924 0 0 0
17 547 2 1.05 13.256458406878844 2.6012477805070535 5.370810304889387 0 0 0
20 550 2 1.05 14.82335241347451 5.893664614484898 7.384876377489305 0 0 0
22 552 3 -1.05 16.42849345548463 3.20285666027055 3.10322956120572 0 0 0
25 555 3 -1.05 15.023407390597303 0.027932049026476925 9.777869884598424 0 1 0
26 556 3 -1.05 17.733302958259003 1.0461364357776952 3.877125855275324 0 1 0
29 559 3 -1.05 12.581915276336339 4.3129048235772895 8.984152785376224 0 0 0
30 560 3 -1.05 17.52707588721327 3.0566362150314306 5.329312690316127 0 0 0
33 563 3 -1.05 16.461506859728832 0.19845293065221642 7.77466347033116 0 1 0
34 564 3 -1.05 15.436430575327968 1.5182212867396263 4.7941684876813255 0 0 0
37 567 3 -1.05 10.479235299157503 4.87983569099727 7.660790064498264 0 0 0
1655 423 7 0.4238 9.867923334090719 15.086915819234587 1.5475633408554677 0 -1 1
42 570 3 -1.05 14.99037993618584 5.314479503957507 2.6717536136806896 0 0 0
45 573 3 -1.05 13.92210841520324 2.2617872422821446 9.663156835307204 0 0 0
46 574 3 -1.05 13.406399595238637 5.028231505749992 4.6553744500754 0 0 0
49 577 3 -1.05 12.277846250824707 2.0800920897981 7.661737650662267 0 0 0
50 578 3 -1.05 7.233043519487808 18.558591186058038 5.448916931036875 0 0 0
53 581 3 -1.05 14.402664054221885 3.4806468126373464 7.4147031850672835 0 0 0
151 12 5 0.425 12.398796792627545 8.119286117880456 11.468989214396183 0 0 0
925 180 7 0.4238 13.03507013288773 2.3581683347432247 1.1762209809883113 0 0 1
60 6 4 -0.95 16.061258553612568 2.069395222103721 11.166572137860442 0 0 0
61 6 5 0.425 16.774945438282433 1.8624081254885425 11.879551368912974 0 0 0
62 55 6 -0.8476 14.067092853803397 1.5865591565462207 2.2266141085719995 0 0 0
63 55 7 0.4238 14.507365604053469 1.0299749922197934 2.9297738813559784 0 0 0
64 55 7 0.4238 14.221037539517269 1.1200985820528553 1.313201504974464 0 0 0
407 32 5 0.425 -0.8107951556164733 8.849343302440545 11.006277969412098 0 0 0
948 187 6 -0.8476 5.070535034793325 5.077500508132544 2.2766398822520317 0 0 1
747 51 5 0.425 6.567231220674073 0.1662971631261464 1.1991226144010718 0 1 0
575 39 5 0.425 3.709565360797332 4.649209108343476 1.6537634475594467 0 0 0
792 49 5 0.425 -1.051826161677944 17.3746273792353 1.874489651283749 0 0 0
91 582 1 2.1 12.824523359626182 8.718448191418204 4.05597729220259 0 0 0
94 584 1 2.1 7.391197479699785 11.753015142981734 8.551763228151755 0 0 0
95 29 1 2.1 11.991210040065608 10.60814538440307 1.853055890950528 0 0 0
98 12 1 2.1 10.283979493648298 7.290963129760255 10.722312035140993 0 0 0
99 585 1 2.1 10.487825438262679 12.151539660020225 4.09806457634399 0 0 0
102 588 1 2.1 8.893838131199601 9.135427305814819 8.55149312184696 0 0 0
103 589 2 1.05 12.37967437762014 8.91822102360108 7.170878058381289 0 0 0
106 592 2 1.05 7.095094214390838 11.944856419575316 5.5104068344175134 0 0 0
107 593 2 1.05 9.205430567494966 8.82573092960835 5.132661132215875 0 0 0
110 596 2 1.05 10.707421465201634 11.962319322150064 7.398975940789667 0 0 0
112 598 3 -1.05 12.503789913766282 9.387575552446306 2.7091957780115012 0 0 0
115 601 3 -1.05 11.005541315730065 6.262347586653359 9.820345531770112 0 0 0
116 602 3 -1.05 13.750385901869093 7.389544939779102 3.82593895737773 0 0 0
119 605 3 -1.05 8.188580166113764 10.423841921553944 8.96321975801919 0 0 0
120 606 3 -1.05 13.598874455554144 9.670449465379827 4.986312285741333 0 0 0
123 609 3 -1.05 12.486678849408522 6.435008987974042 7.688053869141584 0 0 0
124 610 3 -1.05 11.52459570063806 8.198931999799058 4.733365293990907 0 0 0
127 613 3 -1.05 6.046470418244582 11.438084506440461 7.838548695935055 0 0 0
153 64 7 0.4238 8.758028154869086 7.790561809387139 2.132338333773128 0 0 0
132 616 3 -1.05 11.167449930244244 11.587301808895065 2.7600965495874954 0 0 0
135 619 3 -1.05 9.6585773696695 8.380380706433748 9.748251069842695 0 0 0
136 620 3 -1.05 9.422085073910326 11.267906326383333 4.751810053583451 0 0 0
139 623 3 -1.05 7.955434890277675 8.13787168176398 7.79640366953272 0 0 0
140 624 3 -1.05 15.600840967229592 6.146536932648992 5.030112154168226 0 0 0
143 627 3 -1.05 9.975633308085625 9.550308625344872 7.476679732954968 0 0 0
560 834 3 -1.05 6.969043367789878 0.5867393288060094 11.9533394714225 0 0 0
682 122 7 0.4238 0.4616856320728913 7.3917000613304324 11.5788003078788 0 0 0
150 12 4 -0.95 11.361044370585695 8.121495572689254 11.616510989713685 0 0 0
650 880 3 -1.05 3.6314566752898423 7.328079285379835 12.050050514540107 0 0 0
421 95 7 0.4238 -5.646678359829541 11.238014563761078 11.041744295255205 0 0 0
54 3 4 -0.95 10.897383803084066 4.924055543335459 1.4500371557309784 0 0 0
154 64 7 0.4238 9.753310408384262 9.040768826268033 1.6099279017205361 0 0 0
161 67 6 -0.8476 10.995172216292461 11.702223879936795 10.00107128955564 0 0 0
1670 428 7 0.4238 1.50526112729105 12.55177496858628 2.168882269295804 0 0 1
163 67 7 0.4238 11.237733877380524 10.952378782027285 10.635425966225919 0 0 0
166 68 7 0.4238 7.878051977182586 7.4675521444380975 11.852422089982266 0 0 0
401 29 5 0.425 -6.469636473802196 10.866787989839255 1.0508712328879077 1 0 0
181 13 1 2.1 8.797211841005081 14.746525490149086 4.124237265494488 0 0 0
184 630 1 2.1 3.2859742954262865 17.872224601574473 8.508545593492716 0 0 0
186 18 1 2.1 6.757750714142299 13.953265807041003 10.711911399482837 0 0 0
187 15 1 2.1 6.246559316127833 18.34761058291813 4.241985686479506 0 0 0
190 632 1 2.1 4.98128238063699 15.302492561662113 8.560251852887568 0 0 0
191 633 2 1.05 8.508445158183184 15.135977101149189 7.544785985589539 0 0 0
194 636 2 1.05 2.7029330989087437 17.87863553859422 5.196939611333772 0 0 0
195 637 2 1.05 5.189130822887172 14.945175688082552 5.3256509248162205 0 0 0
198 640 2 1.05 6.70929702343055 18.143961118016932 7.723286333921683 0 0 0
200 13 4 -0.95 8.339588754630041 15.373333433166014 2.723313639760492 0 0 0
203 643 3 -1.05 7.099373144866517 12.554306206928068 9.872188558314035 0 0 0
204 644 3 -1.05 9.763389504378418 13.529868437774741 3.817065979768607 0 0 0
207 647 3 -1.05 4.096430331398005 16.56681403103882 8.954764052161199 0 0 0
208 648 3 -1.05 9.531604454660057 15.608828809144883 5.134367922188507 0 0 0
211 651 3 -1.05 8.321912333975757 12.5199000343751 7.585797334574773 0 0 0
212 652 3 -1.05 7.426434378498536 14.17344673614239 4.866944959062681 0 0 0
215 655 3 -1.05 2.0682046053863385 17.542381908721143 7.616603229709464 0 0 0
218 15 4 -0.95 7.18793432312145 17.888642789740846 3.032629564624261 0 0 0
221 659 3 -1.05 5.533185519750255 14.60229661897394 9.891622326280983 0 0 0
222 660 3 -1.05 5.131111680403666 17.249034101032482 4.506394145105445 0 0 0
225 663 3 -1.05 4.043541067685648 14.390752740297664 7.658096310046403 0 0 0
226 664 3 -1.05 11.687874596786648 12.389169614770536 5.08847533699091 0 0 0
229 667 3 -1.05 6.188613516369374 15.740056684979786 7.667369498924153 0 0 0
232 18 4 -0.95 7.999112637441918 14.907099176793169 10.611709713517866 0 0 0
233 18 5 0.425 8.918834214245075 14.734838333331203 11.09864648986368 0 0 0
234 73 6 -0.8476 4.644950658550847 15.922126360824024 2.140113909842731 0 0 0
235 73 7 0.4238 4.969158423888617 16.127811629540606 3.057945383990659 0 0 0
236 73 7 0.4238 3.69339911940214 16.24193618492814 2.1224007911139986 0 0 0
243 76 6 -0.8476 6.803825290389309 17.67386803141847 10.071844457784183 0 0 0
244 76 7 0.4238 6.95064007245025 18.061798543982533 10.996407219781334 0 0 0
245 76 7 0.4238 7.509326015755561 16.907369225575138 10.021453706589561 0 0 0
73 58 7 0.4238 16.251900030899534 3.7679684098155977 11.269284067951363 0 0 0
261 668 1 2.1 2.7619634266693835 2.2161395329967606 4.196903725207091 0 0 0
264 670 1 2.1 -2.303591176586759 5.538450156601396 8.935068535370782 0 0 0
265 39 1 2.1 1.575238945153698 3.8400370535408035 1.926171158044217 0 0 0
268 24 1 2.1 0.6125488105212957 1.1240337148890682 11.187877754715576 0 0 0
269 671 1 2.1 0.5235704882254785 5.825006248110531 4.028221303472315 0 0 0
272 674 1 2.1 -0.5894362705630963 2.8940979092799264 9.004465076762246 0 0 0
273 675 2 1.05 2.769694187708815 2.554215213493928 7.437899213675375 0 0 0
276 678 2 1.05 -2.5984129786790358 5.697865065558193 5.123012920926138 0 0 0
277 679 2 1.05 -0.4944136929143041 2.603270422915326 5.90683163546969 0 0 0
280 682 2 1.05 0.8810046854113913 5.5502422148369 7.316191623731405 0 0 0
282 684 3 -1.05 2.190111958663517 2.7435180591502 2.873877448333568 0 0 0
285 687 3 -1.05 1.356990879680475 0.03014386809467763 10.233766951416872 0 1 0
286 688 3 -1.05 3.536316184867024 0.803317900900094 3.9592263006801414 0 1 0
289 691 3 -1.05 -1.4143687151768944 4.281428788250333 9.29754338793067 0 0 0
290 692 3 -1.05 3.791699650397474 3.206849709196094 4.829467460842632 0 0 0
293 695 3 -1.05 2.6955099912825164 0.19765219924929653 8.106198924907138 0 1 0
294 696 3 -1.05 1.5907914224032809 1.8173906696102915 5.1481286163208315 0 0 0
297 699 3 -1.05 16.988676411827004 4.9728084655845075 8.553738675147278 0 0 0
1427 347 7 0.4238 -1.8054616743918825 7.951659755292293 1.5566060970309492 0 0 1
302 702 3 -1.05 0.9080490009114714 5.083900983612579 2.6780043859889737 0 0 0
305 705 3 -1.05 0.021675384888908796 2.2602001918558865 10.280982652714972 0 0 0
306 706 3 -1.05 -0.1673880884999004 4.8458144075185565 4.982544213780651 0 0 0
309 709 3 -1.05 19.103463586573977 1.9795279746662728 8.240271946796573 0 0 0
310 710 3 -1.05 -6.567893426638742 18.59522117422156 5.091384588413249 0 0 0
313 713 3 -1.05 0.4626613693259172 3.309935856600997 7.926693493174714 0 0 0
314 21 4 -0.95 -3.0464478978764022 5.379534193529437 2.570819902754412 1 0 0
768 131 7 0.4238 -4.605072378762211 14.196106292054415 11.868259821213654 0 0 0
604 116 7 0.4238 -2.561396091896441 17.504405223576942 11.454167980516551 0 0 0
946 187 7 0.4238 5.543509388452922 5.75124489067854 1.7379082956663965 0 0 1
581 42 5 0.425 9.639622481237483 1.7792566408306811 11.51012566435893 0 0 0
732 922 3 -1.05 -1.5409667889300367 12.947254710014866 11.61553087733935 0 0 0
429 98 6 -0.8476 0.42034264556869727 5.80146412379509 12.015797910652639 0 0 0
677 121 6 -0.8476 5.808423920567767 10.709902269978084 11.489743597978213 0 0 0
764 130 7 0.4238 -0.15806199472644625 17.243031180630986 11.1971064672446 0 0 0
594 113 6 -0.8476 5.546779777851235 4.387484494003864 11.816600515179637 0 0 0
300 700 3 -1.05 20.08359356524071 0.4955122307207063 12.006867941081904 -1 0 0
791 47 5 0.425 0.7064589365435788 16.26331219705796 2.498908910712032 0 0 0
351 25 1 2.1 -1.0902820235153818 8.363913967367301 4.201775270090395 0 0 0
354 716 1 2.1 -6.249060420194683 11.833878630146929 8.498014123209064 0 0 0
356 32 1 2.1 -3.0241225501061564 7.888271705949941 10.720454193196309 0 0 0
357 27 1 2.1 -3.5208905857427704 12.249728453495294 3.94321453389425 0 0 0
360 718 1 2.1 -4.775501922999344 9.11526222583086 8.43814981462183 0 0 0
361 719 2 1.05 -1.1625958635954547 8.682046757198172 7.5710925627382055 0 0 0
364 722 2 1.05 -6.608681150595468 11.917340990820488 5.566121819280014 0 0 0
365 723 2 1.05 -4.673053117271441 8.600763668099782 5.407713913053226 0 0 0
368 726 2 1.05 -3.0198616075256433 11.865674950574594 7.07289579880978 0 0 0
370 25 4 -0.95 -1.4288239572548818 9.191494449470033 2.753989282138606 0 0 0
373 729 3 -1.05 -2.418293305000607 6.542544480568641 10.207318829206562 0 0 0
374 730 3 -1.05 -0.46424825766580685 6.988219160727108 3.7848124479357663 0 0 0
377 733 3 -1.05 -5.431619638605106 10.49291187507172 8.93761268370514 0 0 0
378 734 3 -1.05 -0.21588494075624404 9.22263805528238 5.158158505967339 0 0 0
381 737 3 -1.05 -1.6090225028526597 6.335371642669438 7.7733254292573175 0 0 0
382 738 3 -1.05 -2.418225635237709 8.003202358845574 4.955848451732494 0 0 0
385 741 3 -1.05 -7.539805983683077 11.276736057241807 7.7344966035250415 1 0 0
388 27 4 -0.95 -3.074053578842885 11.767410813830937 2.4883677093861025 0 0 0
391 745 3 -1.05 -4.059068142503775 8.419083369193075 9.68135959322663 0 0 0
392 746 3 -1.05 -4.372817961986041 11.156587972140686 4.616354952892086 0 0 0
395 749 3 -1.05 14.841458797528295 8.277661674742037 7.7588324945763585 0 0 0
396 750 3 -1.05 1.7005121485671626 6.415171708319958 4.8383005403946076 0 0 0
399 753 3 -1.05 -3.7669673458463526 9.489061205166415 7.320554055939668 0 0 0
474 787 3 -1.05 -7.72302381204791 13.206096412094086 12.072759245506672 0 0 0
55 3 5 0.425 11.550788477160383 4.169632938743232 1.1294223626097952 0 0 0
406 32 4 -0.95 -1.7683757299586376 8.817276316646172 10.575628628503972 0 0 0
591 112 6 -0.8476 8.015644697473233 4.7826461474901425 10.21537085688616 0 0 0
162 67 7 0.4238 10.886460217650251 12.57739262557052 10.460476469108281 0 0 0
246 77 6 -0.8476 3.3267429087133835 16.19035639854014 11.680025063116386 0 0 0
164 68 6 -0.8476 6.995615256026963 7.957659420821611 12.078627086842475 0 0 0
417 94 6 -0.8476 -2.935962976703393 11.664838671957668 9.67295438837799 0 0 0
418 94 7 0.4238 -2.484209630779232 12.110645445851127 10.493563765185336 0 0 0
419 94 7 0.4238 -2.9272731144126642 10.667889012111573 9.939213460097696 0 0 0
767 131 7 0.4238 -3.054343039008022 13.813494787749557 12.140672164266176 0 0 0
435 754 1 2.1 -5.22323740339211 14.89331216914953 4.182940990654861 0 0 0
438 757 1 2.1 -10.495022824754939 17.943227715912386 8.92487777658175 0 0 0
439 51 1 2.1 -6.261682282033383 16.837991141281126 2.001042685380955 0 0 0
442 36 1 2.1 -7.192673262341165 13.78441451367087 10.766512598393605 0 0 0
443 758 1 2.1 -7.814362240385251 18.239839171131464 4.255457879066757 0 0 0
446 761 1 2.1 -8.83932092514378 15.286087732320764 8.74931950373878 0 0 0
447 762 2 1.05 -5.224138699196224 15.240334793339043 7.393084592607303 0 0 0
450 765 2 1.05 -11.032008830963477 18.05015383950511 5.434096240359192 0 0 0
451 766 2 1.05 -8.659364631428417 14.875674797811014 5.6702887072599735 0 0 0
454 769 2 1.05 -7.245951320576208 18.051524724776087 7.454862348192005 0 0 0
456 771 3 -1.05 -5.647393793382528 15.68838688022456 2.9231467635642217 0 0 0
459 774 3 -1.05 -6.674415272186182 12.677778325187663 9.78906175635745 0 0 0
460 775 3 -1.05 -4.351522491340654 13.630780730534404 3.8569465591524414 0 0 0
463 778 3 -1.05 -9.579174443438527 16.569227606407654 9.216517675628328 0 0 0
464 779 3 -1.05 -4.374483942506589 15.769168409526154 5.221258775283325 0 0 0
467 782 3 -1.05 -5.406432418750348 12.715585231757503 7.60973151571946 0 0 0
468 783 3 -1.05 -6.50859717518453 14.457373142946674 4.971271071703914 0 0 0
471 786 3 -1.05 -11.655750228237801 17.50226281065151 8.024219569472539 1 0 0
752 54 4 -0.95 0.6260075601542237 14.225411654761807 11.488990606219788 0 0 0
476 789 3 -1.05 -7.34064078272126 17.548994843264275 2.9149847007899146 0 0 0
479 792 3 -1.05 -8.46384100409564 14.451088727604526 9.98774044079929 0 0 0
480 793 3 -1.05 -8.606028113191043 17.233620299880165 5.2013980104812365 0 0 0
483 796 3 -1.05 10.817097558284058 14.577040700564224 7.7518151300383495 0 0 0
484 797 3 -1.05 -2.1869960149071455 12.539499089215525 4.772729131163297 0 0 0
487 800 3 -1.05 -7.513585533101274 15.694477769246438 7.948441424807385 0 0 0
490 36 4 -0.95 -6.028585483954876 14.811281917352991 10.991480157844503 0 0 0
491 36 5 0.425 -6.224052148414378 15.83431136907941 10.916674330419985 0 0 0
746 51 4 -0.95 -5.201082170650278 18.011565006705737 1.6655671727937198 0 0 0
824 146 7 0.4238 -0.5342823606124443 9.940595180875937 1.3309988441786933 0 0 1
680 122 6 -0.8476 0.6491444058799294 8.430708893656375 11.717231732071683 0 0 0
1600 405 7 0.4238 -3.6266516562158833 17.76077051373314 1.4489412357103846 0 0 1
315 21 5 0.425 -2.761727330533297 6.0129462697754565 1.787714665796152 1 0 0
503 103 7 0.4238 -6.498269158371805 17.987272328695664 11.705873575925295 0 0 0
1219 278 7 0.4238 6.846010147789934 12.824561988239747 1.1546991247745242 -1 0 1
505 104 7 0.4238 -9.597965987440022 14.435850208400053 11.33494836635663 0 0 0
521 801 1 2.1 9.906577216175048 2.421656212565289 4.035526415895321 0 0 0
524 804 1 2.1 4.593005232802789 5.224097651171453 8.580290788371345 0 0 0
525 38 1 2.1 9.428045220287272 4.432124986047801 1.812291195688133 0 0 0
528 42 1 2.1 7.6180590945062505 1.1468770758350104 10.688882910957261 0 0 0
529 805 1 2.1 7.769629447116062 5.769640509167808 3.880409350375853 0 0 0
532 808 1 2.1 6.194182692076934 2.6685506963798655 8.496793398232771 0 0 0
533 809 2 1.05 9.844500383942089 2.6182955823490897 7.203918398775996 0 0 0
536 812 2 1.05 4.068732822042757 5.494670672349783 5.038682369308697 0 0 0
537 813 2 1.05 6.36439756925995 2.3765745020665503 5.397707756416972 0 0 0
540 816 2 1.05 7.945701353876869 5.583453554239863 7.479640173371587 0 0 0
542 818 3 -1.05 9.533350807043702 3.214497840181357 2.764349028608519 0 0 0
545 821 3 -1.05 8.331108072472976 0.018493818636402606 9.76103981666922 0 1 0
546 822 3 -1.05 10.581844185777362 1.0064567109985876 3.604925731587768 0 1 0
549 825 3 -1.05 5.345266428615024 3.91558159464461 9.017231354973342 0 0 0
550 826 3 -1.05 10.796607027227314 3.151624275208857 4.987655871491329 0 0 0
553 829 3 -1.05 9.700509998963062 0.21855305610397452 7.633115912505322 0 1 0
554 830 3 -1.05 8.607805058670465 1.9255367392872764 4.861626526569282 0 0 0
557 833 3 -1.05 3.198943775706413 4.9044634274720815 7.807056339788381 0 0 0
1671 428 6 -0.8476 0.7978003874881192 12.439153592654277 1.4381461209784714 0 0 1
562 836 3 -1.05 8.574247408032633 5.507304424105749 2.605320898386928 0 0 0
565 839 3 -1.05 6.625958467196033 1.8241933789086853 9.694396594596869 0 0 0
566 840 3 -1.05 6.766412908703686 4.629122949278801 4.116215568716715 0 0 0
569 843 3 -1.05 5.255298812941045 1.9746760545244735 7.437080665617684 0 0 0
570 844 3 -1.05 12.713724696644118 0.300438083681136 4.722093750279756 0 1 0
573 847 3 -1.05 7.4941035757695715 3.198351341917108 7.765701288584995 0 0 0
1654 423 7 0.4238 10.844312051304435 14.130641442879758 2.1948554669904614 0 -1 1
75 59 7 0.4238 14.322165096688119 4.1822021779628615 11.77096911333291 0 0 0
580 42 4 -0.95 8.82360609028848 2.1556518110321754 10.995007226143342 0 0 0
152 64 6 -0.8476 9.256906170960939 8.645259488613956 2.38457447014313 0 0 0
1669 428 7 0.4238 0.7332772855963925 11.454238992855036 1.1738849945551666 0 0 1
71 58 6 -0.8476 16.139912373747915 4.770926808976272 11.138957657135913 0 0 0
753 54 5 0.425 1.398580190681138 13.828412880297938 12.009682792959348 0 0 0
248 77 7 0.4238 3.7235640024997503 16.453029258175246 10.778352446949864 0 0 0
592 112 7 0.4238 8.412616043272882 5.390776944815143 10.916441850713346 0 0 0
593 112 7 0.4238 8.512374807196046 3.866935056260561 10.298592926292331 0 0 0
1646 420 7 0.4238 -2.056448765389589 13.201201975105885 1.594419402447897 0 0 1
790 27 5 0.425 -3.6810150231972387 11.169416213982954 1.8723526010231069 0 0 0
611 848 1 2.1 5.996746624662296 8.48012240881732 4.169762909344073 0 0 0
614 850 1 2.1 0.6017029579409322 11.555655896970864 8.476426071408284 0 0 0
615 44 1 2.1 4.979302616289046 10.426056598738452 1.8736252413301526 0 0 0
618 46 1 2.1 3.940054214122457 7.406807459465482 10.625578242763671 0 0 0
619 851 1 2.1 3.4027271542786894 12.087878268510458 4.029451294958491 0 0 0
622 854 1 2.1 2.1124913252160384 8.929453404858235 8.495483118484449 0 0 0
623 855 2 1.05 5.612398209325194 8.64757099178005 7.4697964893331825 0 0 0
626 858 2 1.05 -0.046334170577889154 11.606836775942787 5.188127438915946 0 0 0
627 859 2 1.05 2.3813035116072547 8.739915176428852 5.03999177786868 0 0 0
630 862 2 1.05 3.7628325777477336 11.675764203557883 7.378069194697585 0 0 0
632 864 3 -1.05 5.5921712131117935 9.358687555104689 2.9810274004221045 0 0 0
635 867 3 -1.05 4.202133699145055 6.088437612083633 9.811592151133299 0 0 0
636 868 3 -1.05 6.961909964118537 7.2630047715174415 3.6999331197600345 0 0 0
639 871 3 -1.05 1.3812971296176304 10.228180586827309 8.983951533875912 0 0 0
640 872 3 -1.05 6.868081482447955 9.481710654816402 5.065131692942887 0 0 0
643 875 3 -1.05 5.490207756620271 6.05378692319572 7.631060956566666 0 0 0
644 876 3 -1.05 4.8017367298961435 7.877156479941041 4.989968151740489 0 0 0
647 879 3 -1.05 -0.5323748784063028 11.086350219305475 7.546284653127961 0 0 0
504 104 6 -0.8476 10.329840771101779 14.468671425831506 12.077977048168272 -1 0 0
652 882 3 -1.05 4.099235673788506 11.428995302066234 2.7403895429032175 0 0 0
655 885 3 -1.05 2.778431668219599 8.2122422501981 9.856339153579482 0 0 0
656 886 3 -1.05 2.3740284172830837 10.978541903677682 4.6600349130524705 0 0 0
659 889 3 -1.05 1.0485935050807704 7.958539368697343 7.903898925225546 0 0 0
660 890 3 -1.05 8.696398371001285 5.920446283407818 5.136746226450195 0 0 0
663 893 3 -1.05 3.23150142050408 9.291278552293004 7.5712815537006835 0 0 0
666 46 4 -0.95 5.234210088571681 8.311998545917003 10.280758671091313 0 0 0
667 46 5 0.425 6.075522576346105 8.133243945692788 10.931862443335763 0 0 0
668 118 6 -0.8476 1.8991251741695887 8.263156126263576 2.4542986197591867 0 0 0
669 118 7 0.4238 2.7054042534531995 8.284235377390365 1.8531292194678488 0 0 0
670 118 7 0.4238 1.1761720067178212 8.672500652282938 1.8647507747447731 0 0 0
678 121 7 0.4238 5.437756076458902 9.852163338489603 11.077763531707893 0 0 0
76 59 7 0.4238 13.19168355463586 4.465911372128544 10.729277441526463 0 0 0
679 121 7 0.4238 6.5895583229318095 11.043471054625178 10.951311985127502 0 0 0
130 614 3 -1.05 9.258522081185673 6.701873582979561 11.697712680791849 0 0 0
386 742 3 -1.05 -3.53445001647581 7.849314266560526 12.131685900139644 0 0 0
697 47 1 2.1 1.8057359286408043 14.71527162734277 3.8627453222586867 0 0 0
700 896 1 2.1 -3.4698955885704312 17.914934212629095 8.439761818640191 0 0 0
702 54 1 2.1 -0.5070925932448126 13.50012565767258 10.661176864399334 0 0 0
703 49 1 2.1 -0.6960029635690915 18.40618429424949 3.919683597704826 0 0 0
706 898 1 2.1 -1.639323584196621 15.280619627864418 8.415443919745474 0 0 0
707 899 2 1.05 1.7555762756294508 15.09657317663893 7.21944927404644 0 0 0
710 902 2 1.05 -4.0166479493265905 18.22286481179398 5.436921545900612 0 0 0
711 903 2 1.05 -1.7827703915128863 15.061367224029334 5.08887629457903 0 0 0
714 906 2 1.05 -0.14026592751811548 18.360979170620997 7.222968658189688 0 0 0
716 47 4 -0.95 1.4598349279018632 15.562386813754927 2.5305427211505043 0 0 0
719 909 3 -1.05 0.02518278043172082 12.37496556227496 9.66478831361679 0 0 0
720 910 3 -1.05 2.4769911943887344 13.349934908621288 3.493569332588698 0 0 0
723 913 3 -1.05 -2.700161328362197 16.507282841808554 8.785626576073128 0 0 0
724 914 3 -1.05 2.812884054145047 15.593931079173005 4.646017228729236 0 0 0
727 917 3 -1.05 1.5433106547811148 12.515702437952292 7.666694663084297 0 0 0
728 918 3 -1.05 0.5708646821840947 14.429285856991681 4.64801939937429 0 0 0
731 921 3 -1.05 -4.740676210984455 17.620350618806448 7.667363311808038 0 0 0
734 49 4 -0.95 -0.29166917177533347 17.631259002673403 2.550905720786474 0 0 0
737 925 3 -1.05 -1.147680681922401 14.6304002576269 9.762064570330079 0 0 0
738 926 3 -1.05 -1.5704452542858145 17.415036682175284 4.871945361351133 0 0 0
741 929 3 -1.05 -2.4872479264715435 14.3501107814355 7.499513796634114 0 0 0
742 930 3 -1.05 4.3676536333219556 12.63225711625905 5.084457681485601 0 0 0
745 933 3 -1.05 -0.436346349939297 15.826455212330035 7.656213429107074 0 0 0
763 130 6 -0.8476 0.7309247105825761 16.774414119259756 11.333577929255629 0 0 0
947 187 7 0.4238 5.721369750679231 4.8708131955463205 3.0544880405990265 0 0 1
247 77 7 0.4238 2.342310489075812 16.376068291205385 11.576673161053861 0 0 0
681 122 7 0.4238 1.2577601125869282 8.56228484245577 10.935155189557145 0 0 0
595 113 7 0.4238 5.408549437690186 5.4046515636546975 11.661598583391251 0 0 0
72 58 7 0.4238 16.33213606878173 4.889195156667768 10.116020061880612 0 0 0
400 29 4 -0.95 -7.397273020163241 11.327739010461848 1.1963599264199165 1 0 0
596 113 7 0.4238 5.814335114572609 4.060435090185634 10.905125787212594 0 0 0
501 103 6 -0.8476 -7.022784191412961 17.10519674959469 11.631766116668304 0 0 0
765 130 7 0.4238 0.5438203361199677 15.758985826682189 11.281303283409626 0 0 0
40 568 3 -1.05 13.833676995513214 0.9923752378269928 11.889007756189336 0 0 0
787 13 5 0.425 8.095540700145506 16.356618917657553 2.5018461647622896 0 0 0
788 15 5 0.425 7.205162105964671 18.53089427571184 2.1886469542458458 0 0 0
789 25 5 0.425 -2.0057049602745534 10.047496194567255 2.7499270056261937 0 0 0
216 656 3 -1.05 6.370539464721862 13.663730138193126 12.132097027685262 0 0 0
1656 423 6 -0.8476 10.679291956674552 14.547641740847075 1.2854845277072855 0 -1 1
430 98 7 0.4238 1.0029141147148075 4.957163795144601 12.10610203400629 0 0 0
1220 278 7 0.4238 7.337364720708658 14.332299142268962 1.4680529597830105 -1 0 1
74 59 6 -0.8476 13.318477093391039 4.254477586943114 11.7057076128254 0 0 0
144 9 4 -0.95 6.1089335966156435 11.213491262223995 1.140123401994533 0 0 0
420 95 6 -0.8476 -5.534423861557975 11.339471553401095 12.05205893197743 0 0 0
574 39 4 -0.95 2.832816439354082 4.395949471450229 1.1023142045110423 0 0 0
324 82 7 0.4238 -0.26080233700774086 1.5833567263353951 1.1175533192282088 0 0 0
299 20 4 -0.95 0.4320922470220459 3.1743287098068684 1.0075814397035912 0 0 0
320 24 4 -0.95 1.6014762514192502 1.8184439088975912 12.19905361356283 0 0 0
256 80 7 0.4238 10.689962962676839 9.584636904269138 12.201919301630035 0 0 0
603 116 6 -0.8476 -1.8563358278666036 17.59988001587037 12.160063066998998 0 0 0
1602 405 6 -0.8476 -2.6603511094643033 17.791528391069196 1.022699061368038 0 0 1
333 85 7 0.4238 3.7589219049052955 4.020085709151158 12.17525654889214 0 0 0
1645 420 7 0.4238 -0.6083292896893581 13.261275657581901 0.903119987471524 0 0 1
2 536 1 2.1 15.20458727820863 2.875922982679839 23.28647763713903 0 0 0
3 537 1 2.1 1.7326175047973655 18.432729941783595 18.822098846347174 0 -1 0
7 5 1 2.1 12.88378917654768 1.669499514326015 16.547146904018057 0 0 0
10 540 1 2.1 16.985404127349337 0.3277768523242271 23.23506483229673 0 0 0
11 541 1 2.1 11.446182071722031 3.3288300256337062 18.71661976512486 0 0 0
14 544 2 1.05 15.273543567622863 3.093507941299739 19.772292139860134 0 0 0
15 545 2 1.05 13.560397935882792 0.14322647746858644 22.22349897905397 0 0 0
18 548 2 1.05 11.714632661751681 3.091174090646036 21.806479143896762 0 0 0
19 549 2 1.05 5.138156461633684 18.61429051049915 20.16832596845676 0 -1 0
21 551 2 1.05 0.47151139363122746 18.337544895922868 13.50721675212757 0 -1 0
24 554 3 -1.05 13.448658741829107 0.567447786969886 17.42275424949784 0 0 0
736 924 3 -1.05 -3.0973751317277474 15.317514892831392 17.56319002309769 0 0 0
28 558 3 -1.05 2.385226886690798 17.135813126343308 18.27972809637278 0 0 0
31 561 3 -1.05 7.833580329933811 16.28369017004583 22.001464263625028 0 0 0
32 562 3 -1.05 14.84762826377072 0.7044128109656449 19.676179515191123 0 0 0
35 565 3 -1.05 14.026407799661055 2.5447175863137 22.301307958358816 0 0 0
36 566 3 -1.05 0.3840755486683688 18.105091166072288 19.585238786559497 0 -1 0
205 645 3 -1.05 8.077819601377831 14.220691158088965 23.354422597270307 0 0 0
41 569 3 -1.05 12.186690030542104 1.271257133901826 15.250340934583381 0 0 0
44 572 3 -1.05 12.036798971204282 2.583438509951838 17.41993184769253 0 0 0
47 575 3 -1.05 3.8861147821545665 18.06593306324194 22.288239235122113 0 -1 0
48 576 3 -1.05 10.629935340038301 2.362807405413386 19.5831060511562 0 0 0
51 579 3 -1.05 18.16834037162333 0.789416454127059 22.293544157977767 0 0 0
52 580 3 -1.05 4.397004340073678 16.17224183053376 19.65802203526798 0 0 0
58 5 4 -0.95 14.19818741449924 2.6229115244932517 16.130035054229346 0 0 0
59 5 5 0.425 14.829511733396608 2.145129317740083 15.462988663240273 0 0 0
780 135 7 0.4238 -3.7349145724090707 15.756311871131995 13.111918384897537 0 0 0
68 57 6 -0.8476 5.6824633852022 17.5915880374261 16.985748238483318 0 -1 0
69 57 7 0.4238 6.305182773506051 17.985608801794605 17.682823045848234 0 -1 0
70 57 7 0.4238 5.5873308738726175 18.344275741411774 16.275560616337696 0 -1 0
744 932 3 -1.05 1.4326624446454592 10.255482319351081 19.908186675698374 0 0 0
743 931 3 -1.05 3.289280084468638 13.154058226342348 22.65109926359132 0 0 0
77 60 6 -0.8476 2.403049600495995 16.782437214088507 15.438171452682532 0 -1 0
78 60 7 0.4238 2.1174459429658667 15.829327180490518 15.448087324068267 0 -1 0
79 60 7 0.4238 2.1786863054445504 17.107466218457848 16.384763498870768 0 -1 0
80 61 6 -0.8476 15.477170741857954 0.9865765228721936 14.355433328662754 0 0 0
81 115 7 0.4238 10.432235185311088 3.3779227171792923 15.059231039259812 0 0 0
82 115 7 0.4238 10.268298254458369 4.044211626092482 16.528946069734044 0 0 0
83 62 6 -0.8476 4.4248122769916085 17.284781939117114 13.775820561561963 0 0 0
84 62 7 0.4238 4.124100569065729 16.67976538094072 13.05338194222548 0 0 0
85 62 7 0.4238 3.6862099931272643 17.041226032878985 14.401039131147353 0 0 0
171 124 7 0.4238 6.9411907582316665 8.486983268784133 15.612751210038555 0 0 0
87 63 7 0.4238 11.535203327232043 1.8676870351853467 13.835309319948585 0 0 0
336 86 7 0.4238 18.104196882628564 1.6376566212871881 13.88357719026345 -1 0 0
92 14 1 2.1 11.234022245448651 8.960098154838454 23.140048253596447 0 0 0
93 583 1 2.1 9.775763992639304 5.850760152013866 18.705117015170654 0 0 0
97 11 1 2.1 9.228978546295615 8.160054402982139 16.727586615285116 0 0 0
335 86 7 0.4238 18.907654091940664 1.4835858902044383 12.477192125611072 -1 0 0
101 587 1 2.1 7.331410806339341 9.577126903814685 18.88640810573542 0 0 0
104 590 2 1.05 10.909140913930466 9.276009664227141 19.732831112265707 0 0 0
105 591 2 1.05 9.341066305865985 5.967856942129568 21.780078577292542 0 0 0
108 594 2 1.05 7.516396341593432 9.294205398627591 22.128062719337365 0 0 0
109 595 2 1.05 13.100381430245282 6.051755134071187 20.31150421822113 0 0 0
111 597 2 1.05 9.261182356128154 5.960152285198087 13.864838563741953 0 0 0
114 600 3 -1.05 9.374723903007089 6.71733264489078 17.442684612703665 0 0 0
358 28 1 2.1 -0.8963780736531783 6.625223534854309 23.288231925783244 0 0 0
118 604 3 -1.05 10.592294211246934 4.53579944888839 18.281537970406088 0 0 0
121 607 3 -1.05 16.185970426649973 3.839146782692281 22.43865378131599 0 0 0
122 608 3 -1.05 10.69762186663893 6.675695467917214 19.68428117392497 0 0 0
125 611 3 -1.05 9.91130428655489 8.48226899122694 22.533710261227995 0 0 0
126 612 3 -1.05 8.484969537413711 5.484212985083212 19.56862162131677 0 0 0
733 923 3 -1.05 -2.125460562453714 14.462889689343177 15.336477183995612 0 0 0
131 615 3 -1.05 8.491156471775852 8.053338133081043 15.406900797033899 0 0 0
134 618 3 -1.05 8.243383715287298 8.945580974687035 17.726279196703025 0 0 0
137 621 3 -1.05 12.035320785354797 5.426592936548626 22.648831699474258 0 0 0
138 622 3 -1.05 6.313114874290457 8.562588188275688 19.46353816483739 0 0 0
141 625 3 -1.05 14.16651988583374 6.725014730468878 22.684241397114473 0 0 0
142 626 3 -1.05 12.659678890662041 3.909757956626322 19.50248907489277 0 0 0
148 11 4 -0.95 10.589629746067024 8.965234853975414 16.725212780699476 0 0 0
149 11 5 0.425 11.153278543064033 8.752950886625609 15.870562414267713 0 0 0
779 135 7 0.4238 -3.2218830562274765 15.560519377210941 14.52777097304821 0 0 0
158 66 6 -0.8476 13.409474431557436 5.089509796804309 15.385626631643749 0 0 0
159 66 7 0.4238 13.916225015145447 4.2125470132576845 15.593284899786092 0 0 0
160 66 7 0.4238 14.03901539495921 5.891473782649699 15.2526276741269 0 0 0
762 129 7 0.4238 2.2578155031551734 13.829895771589799 15.441087090810932 0 0 0
771 132 7 0.4238 0.27391608242200244 10.54698469954193 15.096862032671673 0 0 0
167 69 6 -0.8476 11.884536026633327 5.675535649697699 13.435945519845143 0 0 0
168 69 7 0.4238 12.42074698222791 5.298344574839152 12.645218313530341 0 0 0
169 69 7 0.4238 12.372594480328914 5.304618094070796 14.26966951023623 0 0 0
170 70 6 -0.8476 11.623969009095871 8.186393674223325 14.38250672272551 0 0 0
612 48 1 2.1 4.414439211914477 9.240566129677001 23.538590648780193 0 0 0
172 124 7 0.4238 5.543394404792208 8.436186041628341 14.790895948299266 0 0 0
173 71 6 -0.8476 16.52542027579729 3.9937587785562334 14.905405421497012 0 0 0
174 71 7 0.4238 16.29849475505848 3.0161962713418857 14.682840124415018 0 0 0
175 71 7 0.4238 16.639959163263647 4.130588578904214 15.908988867782673 0 0 0
176 72 6 -0.8476 7.861698761736128 9.98203944817684 13.64862846673253 0 0 0
177 72 7 0.4238 7.797490178496666 9.207051937714922 14.296638013138244 0 0 0
178 72 7 0.4238 7.376421663612455 10.807923950809124 13.95660738285083 0 0 0
182 628 1 2.1 7.093533733135545 15.462033827167906 23.089641176775185 0 0 0
183 629 1 2.1 5.517861929545166 12.210313851640935 18.78106620793837 0 0 0
185 17 1 2.1 4.437516836643419 14.158035580579 16.622692575540878 0 0 0
188 16 1 2.1 8.725177915624522 12.798735950555484 23.120107997406574 0 0 0
189 631 1 2.1 3.1114420909453644 15.747223681601998 18.84364632124644 0 0 0
192 634 2 1.05 6.785114191104435 15.586626734369261 19.817692902032363 0 0 0
193 635 2 1.05 5.409872586645012 12.530297318314858 21.992170848956594 0 0 0
196 638 2 1.05 3.400576636308216 15.814261464454392 22.15488643307202 0 0 0
197 639 2 1.05 8.818559047775132 12.558013224025252 20.01658463207504 0 0 0
199 641 2 1.05 4.775004071138669 11.842661529644216 13.521927962547649 0 0 0
202 642 3 -1.05 5.08201896734007 13.011452325366182 17.538981795539826 0 0 0
699 895 1 2.1 -1.073937585153963 12.330452074223102 18.79815232408223 0 0 0
206 646 3 -1.05 6.422600563743774 10.860073780080683 18.383534098261237 0 0 0
209 649 3 -1.05 12.058619179513133 9.793469912330623 22.190103764264514 0 0 0
210 650 3 -1.05 6.508340914411002 13.083490049464736 19.68432636270707 0 0 0
213 653 3 -1.05 5.68472093597869 15.088198572216337 22.627814587592628 0 0 0
214 654 3 -1.05 4.368101354196526 11.75541637472897 19.750845450854037 0 0 0
778 135 6 -0.8476 -3.419998456082151 16.33239613315632 13.897635998282238 0 0 0
217 657 3 -1.05 3.6844275179731394 13.540590508260475 15.435599655565131 0 0 0
220 658 3 -1.05 3.481139622435393 14.919495830326202 17.646220204437444 0 0 0
223 661 3 -1.05 7.668314749869547 11.938072354078928 22.336935676897884 0 0 0
224 662 3 -1.05 2.1134003520101516 15.104054401314762 19.846026372663598 0 0 0
227 665 3 -1.05 9.953471035670306 12.959211143686375 22.250458191808796 0 0 0
228 666 3 -1.05 8.304926195489328 10.050359906371023 19.942173230892145 0 0 0
230 17 4 -0.95 5.57223408677016 15.169585606052815 16.119880013961414 0 0 0
231 17 5 0.425 5.518764891470064 16.172288756107243 16.446794526981368 0 0 0
777 134 7 0.4238 3.3299762019234014 8.9885141070919 14.573116275777323 0 0 0
240 75 6 -0.8476 8.825044882116512 13.114157185620057 15.306734409467648 0 0 0
241 75 7 0.4238 8.220749540389193 13.697475309768189 14.763107665797518 0 0 0
242 75 7 0.4238 9.640879868769922 13.655714208682799 15.60524364775169 0 0 0
730 920 3 -1.05 -2.283304788825411 11.77284520836575 19.61984532672924 0 0 0
761 129 7 0.4238 0.8256391922360714 13.228181621165206 15.513022040088806 0 0 0
249 78 6 -0.8476 6.565579155749871 11.770666057219916 15.23786245889616 0 0 0
250 78 7 0.4238 7.445531954210123 12.298680974154083 15.400916291726755 0 0 0
251 78 7 0.4238 6.468372232681733 11.300411255827056 16.140099721582597 0 0 0
252 79 6 -0.8476 6.993256604861696 15.319848045145099 14.044040774234787 0 0 0
253 133 7 0.4238 0.4550311712110573 15.421999395848495 14.445210859990006 0 0 0
86 63 6 -0.8476 11.161315248228068 2.0359730023905227 12.899554446490939 0 0 0
257 80 7 0.4238 9.377919250749718 10.373374364478039 12.663638206724391 0 0 0
270 672 1 2.1 2.987398192782844 0.06488691024139619 23.270812963837113 0 0 0
502 103 7 0.4238 -7.799544513765774 17.13387951534628 12.281406449099423 0 0 0
258 81 6 -0.8476 3.1972404609944305 13.51079886188282 12.733163293386356 0 0 0
259 81 7 0.4238 3.0274090212729634 13.70371356687515 13.725734868178273 0 0 0
773 106 7 0.4238 -5.021261320560086 14.16081129937167 13.848509796588763 0 0 0
690 125 7 0.4238 7.530870140093744 3.8394139974937125 14.407357626907384 0 0 0
263 669 1 2.1 -12.017818133196805 18.56747254158763 18.543864472170295 0 -1 0
267 23 1 2.1 -0.9683542069250712 1.8307457525505026 16.284737878739218 0 0 0
255 80 6 -0.8476 10.364780929790669 10.52258094343509 12.451170104670547 0 0 0
271 673 1 2.1 -2.271119680260037 3.3550389891344707 18.606611741287928 0 0 0
274 676 2 1.05 1.1004262139364043 3.2505301361855605 20.040574842451942 0 0 0
275 677 2 1.05 8.177483345595236 18.628144107091423 21.757323687067906 -1 -1 0
278 680 2 1.05 -1.9985845212105529 3.234484027157478 22.057627076201175 0 0 0
279 681 2 1.05 3.207688801744394 0.09372972521543671 19.986979790743217 0 0 0
281 683 2 1.05 6.91422600624191 17.82227389311693 13.9539335159248 -1 -1 0
284 686 3 -1.05 -0.28584708958643074 0.6840200625716444 17.23342193866963 0 0 0
739 927 3 -1.05 1.1287624432808476 11.840475282308685 22.50815461757589 0 0 0
288 690 3 -1.05 -10.939281725477613 17.3779376780786 18.272628941934624 0 0 0
291 693 3 -1.05 -5.908502981167985 16.249437731194607 22.2269663634998 0 0 0
292 694 3 -1.05 0.8915729715385604 0.9337171784079533 19.46733358732858 0 0 0
295 697 3 -1.05 0.2409479268815231 2.364869433052637 22.336857344135275 0 0 0
296 698 3 -1.05 7.335941690913982 17.98352442778693 19.159533420321758 0 -1 0
698 894 1 2.1 0.26299188600744045 15.268500488068563 23.39577021164386 0 0 0
301 701 3 -1.05 18.580393196950478 1.1095774394319968 15.374762202952176 -1 0 0
304 704 3 -1.05 -1.7172781579137393 2.8501724990275785 17.220599485156793 0 0 0
307 707 3 -1.05 -10.049704472698659 17.856713249138043 22.21268232974018 0 -1 0
308 708 3 -1.05 17.62423409339099 2.2861834040490345 19.344402523337397 0 0 0
311 711 3 -1.05 4.343067622082975 0.5988760451471957 22.68971683973234 0 0 0
312 712 3 -1.05 -9.244008043228597 16.19572674359716 19.781383942463275 0 0 0
318 23 4 -0.95 0.19424965269999012 2.444266455828418 15.419931593175685 0 0 0
319 23 5 0.425 1.1524399786730544 1.9404111605331018 15.304638363466939 0 0 0
776 134 7 0.4238 3.778010915692324 8.518495371816563 13.032434870648428 0 0 0
328 84 6 -0.8476 3.8313785503149855 0.531050998688321 17.19598101651234 0 0 0
329 84 7 0.4238 3.5182476966791487 1.4211678916971442 17.61516992719444 0 0 0
330 84 7 0.4238 4.274244494694168 0.09805536712876207 17.999695785581718 0 0 0
760 129 6 -0.8476 1.2371206521584923 14.133210050395782 15.30573537645149 0 0 0
436 755 1 2.1 -6.797297511437781 15.207046382418387 23.035370825104398 0 0 0
337 87 6 -0.8476 -11.365984555640805 17.57321102327486 14.271372826193163 0 -1 0
338 87 7 0.4238 -10.754200914217133 18.31545507074489 14.590119742878246 0 -1 0
339 87 7 0.4238 -10.813575186999078 16.73914223376668 14.198860882177101 0 -1 0
340 88 6 -0.8476 2.5678099016280873 1.2355993155415814 14.941882965680893 0 0 0
341 61 7 0.4238 16.01981141371718 0.21918580438877303 14.010088485000338 0 0 0
342 61 7 0.4238 14.920228627469907 1.1266741794756696 13.526050738633224 0 0 0
343 89 6 -0.8476 -7.037274278293786 17.74666002407305 15.529424531847095 0 0 0
344 89 7 0.4238 -6.979194423676874 16.825804088735545 15.92745186022868 0 0 0
345 89 7 0.4238 -7.505282207438655 18.312772666966953 16.23734960550719 0 0 0
346 90 6 -0.8476 -1.7909296387631621 4.689924709841697 13.51030545651599 0 0 0
347 90 7 0.4238 -2.137154531847471 3.7155064117495575 13.422901626076966 0 0 0
348 90 7 0.4238 -0.8740222101678932 4.59884462462264 13.9805563483949 0 0 0
352 714 1 2.1 -2.560771885231182 9.223677537407886 23.38589175915431 0 0 0
353 715 1 2.1 -3.9353068743328183 5.9811135827727036 18.827151092758953 0 0 0
355 31 1 2.1 -5.130446759248901 7.96278935913666 16.605059281108826 0 0 0
262 26 1 2.1 1.4482811399806248 2.6398172702839413 23.265329365360454 0 0 0
359 717 1 2.1 13.984282217300978 9.323388829020539 18.713075002412793 -1 0 0
362 720 2 1.05 -2.9210298180688166 9.227217874154144 20.26203839968168 0 0 0
363 721 2 1.05 -4.214460803039605 6.172058880099406 22.041477349657175 0 0 0
366 724 2 1.05 -6.093987540921513 9.234505295364013 21.9889797322567 0 0 0
367 725 2 1.05 -0.6073190588343643 6.358046117285422 19.987666726243727 0 0 0
369 727 2 1.05 -3.9292460825878845 5.959934440423692 13.562035295283133 0 0 0
372 728 3 -1.05 -4.381235306942109 6.905633303112216 17.670722239568118 0 0 0
712 904 2 1.05 -3.300823154090107 15.315703853316395 22.41405875169595 0 0 0
376 732 3 -1.05 -3.2570565783295296 4.644066300108684 18.38477774985777 0 0 0
379 735 3 -1.05 2.539417274953 3.429322929719858 22.41541577387529 0 0 0
380 736 3 -1.05 -3.1004389454999663 6.827136020425271 19.819391695438696 0 0 0
383 739 3 -1.05 -3.754036552616835 8.7624689440569 22.490887199092956 0 0 0
384 740 3 -1.05 15.446514349710345 5.556583860837617 19.65285316389435 0 0 0
709 901 2 1.05 -1.4312196915825457 12.520563367505469 22.075851377444675 0 0 0
387 743 3 -1.05 15.036867503426128 7.204113314590737 15.363988497522664 -1 0 0
390 744 3 -1.05 14.40282946368506 8.625409601333105 17.439976811582763 -1 0 0
393 747 3 -1.05 -1.9197107575033145 5.612118653880504 22.654349829786106 0 0 0
394 748 3 -1.05 13.135433448495343 8.386497158969613 19.61800897852865 0 0 0
397 751 3 -1.05 0.2675156947231442 6.9427961391807544 22.30646748474999 0 0 0
398 752 3 -1.05 -1.0713073048747048 3.908698212485083 19.531876181489288 0 0 0
404 31 4 -0.95 -3.941799202900142 8.991814486642738 16.280825498388783 0 0 0
405 31 5 0.425 -4.249774152736121 9.783756463048794 15.694049819346786 0 0 0
775 134 6 -0.8476 3.9243593442334896 9.200493604446761 13.790087355004715 0 0 0
414 93 6 -0.8476 -0.6578845070036032 6.782520447727812 16.99201337890598 0 0 0
415 93 7 0.4238 0.07908522153760247 7.43393971577251 17.21578889213325 0 0 0
416 93 7 0.4238 -1.545007966552015 7.255973149008973 17.05301049209431 0 0 0
718 908 3 -1.05 -1.5005516670769783 13.384948586750978 17.640105168760254 0 0 0
729 919 3 -1.05 -0.7957215023780396 14.832611796291264 22.32683940269032 0 0 0
423 96 6 -0.8476 0.49692757396377796 5.078558155546484 15.0283546278253 0 0 0
424 96 7 0.4238 0.10154292127581724 5.751402244160649 15.679950654448271 0 0 0
425 96 7 0.4238 0.8245796307647133 4.279999329882624 15.555978920671572 0 0 0
426 97 6 -0.8476 -2.209145703938427 9.613602864266458 13.591025090674012 0 0 0
427 70 7 0.4238 11.447617682563289 8.122253887029748 13.39432092103926 0 0 0
428 70 7 0.4238 11.933975512508397 7.270799704709054 14.635905953334538 0 0 0
165 68 7 0.4238 7.271891594201942 8.88828544799108 12.427106864165053 0 0 0
715 907 2 1.05 -1.9730452311206648 12.214740538801726 13.956982474710523 0 0 0
254 133 7 0.4238 -1.1395043941185556 15.437991825412892 14.448202013436891 0 0 0
432 99 6 -0.8476 14.487289622707328 8.060885048275317 12.724028698710583 -1 0 0
433 99 7 0.4238 14.459425289301638 7.8635649622685655 13.69151343692766 -1 0 0
774 106 7 0.4238 -6.640901002139184 14.338268538665945 13.452645405613614 0 0 0
701 53 1 2.1 -1.8540976335902968 14.625144458138857 16.828899077011 0 0 0
437 756 1 2.1 -8.130512764037546 12.115414332265418 18.63940793618259 0 0 0
441 35 1 2.1 -8.5430232125727 14.339507257145232 16.63786280974653 0 0 0
321 24 5 0.425 1.4816869838589226 1.7178198235439743 13.226898176227914 0 0 0
445 760 1 2.1 -10.39712802829013 15.874790381352945 18.632120466148496 0 0 0
448 763 2 1.05 -6.822286227075631 15.293262132936604 19.91598796563628 0 0 0
449 764 2 1.05 -8.12171317113539 12.200695975139475 22.108029128268207 0 0 0
452 767 2 1.05 10.402690560772102 15.28925366701813 21.81821300313532 -1 0 0
453 768 2 1.05 -4.571326610405568 12.4428420922381 19.63473527418073 0 0 0
455 770 2 1.05 11.220639955939548 12.390866127631321 13.569151305942789 -1 0 0
458 773 3 -1.05 -8.300031338967374 12.981294082718275 17.314061561878233 0 0 0
722 912 3 -1.05 -0.23844410445502967 11.044883549337413 18.20473051631766 0 0 0
462 777 3 -1.05 13.23408457553202 10.685639415985655 18.278630218659092 -1 0 0
465 780 3 -1.05 -1.6511001814847703 10.181176491125331 22.4461983885666 0 0 0
466 781 3 -1.05 -7.127905016497799 12.90096409993109 19.55229084372955 0 0 0
469 784 3 -1.05 -7.934804393392653 14.627460178853713 22.17157325476307 0 0 0
470 785 3 -1.05 11.198580327826939 11.788679365792921 19.307968091405066 0 0 0
692 126 6 -0.8476 0.36411521020058374 9.202905322722591 14.313181617870338 0 0 0
475 788 3 -1.05 -9.145547447766075 14.152195424854778 15.273907623777687 0 0 0
478 791 3 -1.05 -9.661746424149714 15.108900381958973 17.53166516611894 0 0 0
481 794 3 -1.05 -5.815384681923309 11.56758387957921 22.3852199175854 0 0 0
482 795 3 -1.05 9.18486905330003 15.01542414813808 19.33092528420224 0 0 0
485 798 3 -1.05 -3.7305738294363024 13.064555920111829 22.283573422946482 0 0 0
486 799 3 -1.05 -5.416075089637719 9.774078535936042 19.52412971940034 0 0 0
488 35 4 -0.95 -7.209836417768476 15.25132197035642 16.48190505071741 0 0 0
489 35 5 0.425 -6.591848235925484 15.023903727341452 15.665070519799855 0 0 0
620 852 1 2.1 6.03085508435359 6.449615426022617 23.483010730269495 0 0 0
498 102 6 -0.8476 -4.3554055586056855 12.351882522674796 17.25267627081503 0 0 0
499 102 7 0.4238 -4.616281503642872 13.099483011314527 16.62315648405001 0 0 0
500 102 7 0.4238 -4.385550612875147 11.590111826751132 16.567675044324684 0 0 0
770 132 7 0.4238 -0.09669795710320249 11.284013944978346 16.360570382469405 0 0 0
708 900 2 1.05 -0.21252754548765393 15.641133843361587 20.091911622284027 0 0 0
507 105 6 -0.8476 12.789490658327688 10.60237208384215 14.878367954087738 -1 0 0
508 105 7 0.4238 12.533628285648488 9.643261585092842 14.726532928015784 -1 0 0
509 105 7 0.4238 12.850832670224682 10.742766248138897 15.873238740863583 -1 0 0
510 106 6 -0.8476 -5.938397664348873 14.436054297362645 14.143224240270234 0 0 0
511 79 7 0.4238 6.486579698542087 15.25424491078475 14.939134877733535 0 0 0
512 79 7 0.4238 6.666479335315877 14.480409908521528 13.487427856637886 0 0 0
513 107 6 -0.8476 -4.235448900926672 10.934524892837391 14.492114353717167 0 0 0
514 107 7 0.4238 -3.655748260798721 10.423523759352792 13.820196945748842 0 0 0
515 107 7 0.4238 -5.066162079199638 11.28167483351736 14.029643613526044 0 0 0
516 108 6 -0.8476 -8.791042654058364 16.41241660917394 13.879476601104015 0 0 0
517 108 7 0.4238 -8.923691396847362 15.484044699420819 14.390283273085076 0 0 0
518 108 7 0.4238 -8.144477690894396 17.02410681521634 14.32834188323059 0 0 0
444 759 1 2.1 -5.04258143251601 12.641105583151122 23.177722852263294 0 0 0
523 803 1 2.1 -5.368651490114411 18.531256122913128 18.680188237885922 0 -1 0
527 41 1 2.1 6.661919448743385 2.3652878025426998 16.8987871818294 0 0 0
694 126 7 0.4238 0.4284939617338058 8.812575529364475 13.376040454268743 0 0 0
531 807 1 2.1 4.578568536876807 3.440162544304088 18.845510133630757 0 0 0
534 810 2 1.05 8.024988958641218 2.9414340453737666 20.260316387655518 0 0 0
535 811 2 1.05 6.762031618509071 0.08660462434134183 22.194260139087273 0 0 0
538 814 2 1.05 4.900915252609989 2.88393907484106 22.34982586943181 0 0 0
539 815 2 1.05 10.063289333932998 0.10503603920607 20.32265068149104 0 0 0
541 817 2 1.05 7.148156704088472 0.16988860360252445 14.388665933360175 0 0 0
544 820 3 -1.05 6.804763408279394 0.8891728982725492 17.50193104546484 0 0 0
713 905 2 1.05 2.066504488655617 12.636416537651414 20.26392439363951 0 0 0
548 824 3 -1.05 -4.529288510282366 17.20031566400957 18.458644993480682 0 0 0
551 827 3 -1.05 1.1196975785704757 16.37493329392719 22.710858518391785 0 0 0
552 828 3 -1.05 7.544275079143697 0.6379497113355944 19.919857004056674 0 0 0
555 831 3 -1.05 7.159195743527847 2.5073747849313732 22.63594962496014 0 0 0
556 832 3 -1.05 -6.822789987982094 18.207126049675427 19.10124255997371 0 -1 0
726 916 3 -1.05 -0.1939172484150142 13.065515859224847 19.805606125127145 0 0 0
561 835 3 -1.05 6.671575610457997 2.3900966306389284 15.381481332462322 0 0 0
564 838 3 -1.05 5.453019935484638 2.9372759384202225 17.66265418200382 0 0 0
567 841 3 -1.05 -2.99678864325034 17.860574259072248 22.59855921396501 0 -1 0
568 842 3 -1.05 3.5163710468511904 2.345400867256804 19.114329770461378 0 0 0
571 845 3 -1.05 11.281223457308029 0.7539056937823101 22.180429343585413 0 0 0
572 846 3 -1.05 -2.532861417724232 16.31515523201919 19.852548107904436 0 0 0
578 41 4 -0.95 7.9767062299535905 3.1046031352187358 17.522967451558515 0 0 0
579 41 5 0.425 8.895076776315651 2.871670692349527 17.130568846051148 0 0 0
522 802 1 2.1 8.453285146295904 2.8887443113302846 23.35926580204053 0 0 0
588 111 6 -0.8476 -1.7514710241359637 18.37772246499487 17.603808760805514 0 -1 0
589 111 7 0.4238 -1.6258974415910044 17.493522544283568 17.14975260540187 0 -1 0
590 111 7 0.4238 -0.9290137796447141 18.481856494087662 18.193135887846523 0 -1 0
740 928 3 -1.05 -4.549043078967642 14.91250139142655 19.66634187953482 0 0 0
769 132 6 -0.8476 0.034243655880732374 11.514023514040046 15.38204379181553 0 0 0
597 114 6 -0.8476 9.22421244802175 0.9396401174217849 15.582728943416297 0 0 0
598 114 7 0.4238 9.521326373334302 0.4565240572169341 16.469805340222035 0 0 0
599 114 7 0.4238 10.160009096140897 1.1827419123879357 15.267430922927646 0 0 0
600 115 6 -0.8476 9.946269744124141 4.0880540434586035 15.564333315006305 0 0 0
601 88 7 0.4238 3.13247433065899 1.3652235255008986 14.072738178273301 0 0 0
602 88 7 0.4238 3.258065180595081 0.9450028962840723 15.674709343505839 0 0 0
334 86 6 -0.8476 18.152985432152498 2.0448959678982255 12.932735593645134 -1 0 0
434 99 7 0.4238 -5.185638324044231 8.152683083075692 12.50759734831986 0 0 0
693 126 7 0.4238 1.234060978739195 8.81230097331233 14.76440500761917 0 0 0
606 117 6 -0.8476 4.792211915543076 1.4455261133139399 13.421756952548291 0 0 0
607 117 7 0.4238 5.197638631610216 1.943538417857668 14.221253465036913 0 0 0
608 117 7 0.4238 5.489840322630549 1.4318089760750006 12.668684033902272 0 0 0
704 50 1 2.1 1.9695863970103493 12.772710247868606 23.414097279050686 0 0 0
613 849 1 2.1 2.935460771530388 5.983480110409492 18.966249480520254 0 0 0
617 45 1 2.1 2.5706707362852526 8.338460461576886 17.027134528466885 0 0 0
691 125 7 0.4238 6.696342050550026 4.538425790280775 13.19006975218397 0 0 0
621 853 1 2.1 0.48245921337859743 9.745130616636851 18.80868887043073 0 0 0
624 856 2 1.05 3.8996518301309835 9.345894692616605 20.333681928319717 0 0 0
625 857 2 1.05 2.719387249980419 5.874533689500111 22.36137983135952 0 0 0
628 860 2 1.05 0.8178292495608253 9.39819279500115 22.43590061070147 0 0 0
629 861 2 1.05 6.166080734877147 6.2744117209152 20.02493463005798 0 0 0
631 863 2 1.05 2.6509361825123707 6.125553331493959 13.853826207672384 0 0 0
634 866 3 -1.05 2.7033620644564333 6.955960870130664 17.80852355198567 0 0 0
725 915 3 -1.05 5.044515472170458 10.178547978611878 22.47421139705833 0 0 0
638 870 3 -1.05 3.7315462896507574 4.71681424797853 18.418020750550454 0 0 0
641 873 3 -1.05 9.28781029764929 3.5891315252027995 22.201727968074316 0 0 0
642 874 3 -1.05 3.8572320802674294 6.634810538280215 20.067240653000212 0 0 0
645 877 3 -1.05 3.0859940136807014 8.738316777981288 22.858260707047958 0 0 0
646 878 3 -1.05 1.6299310112130843 5.562724853402106 19.625636241477984 0 0 0
705 897 1 2.1 -3.685725982807745 15.922275658098183 18.879876501574707 0 0 0
651 881 3 -1.05 2.3331763270661185 8.059354231695949 15.507888214795798 0 0 0
654 884 3 -1.05 1.2899204688054677 9.021825280713939 17.66267273664792 0 0 0
657 887 3 -1.05 4.943902039545974 5.404720995223919 23.05032094781783 0 0 0
658 888 3 -1.05 -0.47821329561031656 8.731912588987537 19.428518290453177 0 0 0
661 891 3 -1.05 6.992209316079617 6.566119312199102 22.284204953719065 0 0 0
662 892 3 -1.05 5.568399836483924 3.7177219603650147 19.965693499485415 0 0 0
664 45 4 -0.95 3.848327471346379 9.15405692416317 17.244480436499533 0 0 0
665 45 5 0.425 4.753657581258907 8.944530772550038 16.699721486635116 0 0 0
772 133 6 -0.8476 -0.3234623311995857 16.0798777196647 14.346853418191865 0 0 0
674 120 6 -0.8476 6.323251615304433 6.422285279700384 17.467826565949764 0 0 0
675 120 7 0.4238 7.0903057980181075 6.1441399641748315 16.875854755087193 0 0 0
676 120 7 0.4238 6.492238728672905 7.404969988074412 17.687274647466793 0 0 0
751 53 5 0.425 -0.2705602103388689 15.99112965539204 16.052886958669223 0 0 0
750 53 4 -0.95 -0.6589895538689702 15.719126113363174 16.981882738718504 0 0 0
683 123 6 -0.8476 4.955026890505848 5.85607510970027 15.032446068817135 0 0 0
684 123 7 0.4238 4.930909105797344 6.029426138931901 16.02025948736125 0 0 0
685 123 7 0.4238 5.854610554671211 5.500196396060037 14.676941299832166 0 0 0
686 124 6 -0.8476 5.937382325612153 8.653543466107902 15.693438480900944 0 0 0
687 97 7 0.4238 -1.3168254726983655 9.297668150783416 13.940290694195676 0 0 0
688 97 7 0.4238 -2.5938268733699226 8.786220247556548 13.131200996400533 0 0 0
689 125 6 -0.8476 7.234174137254673 4.722416548390406 14.049567338298855 0 0 0
331 85 6 -0.8476 2.7471548492568867 4.1342321971895375 12.323867783130389 0 0 0
88 63 7 0.4238 11.906297949859969 2.4689727422152106 12.348094527622234 0 0 0
530 806 1 2.1 10.136328397835632 0.25366699846297663 23.26776387259731 0 0 0
332 85 7 0.4238 2.3773091185711688 3.1592323268614027 12.255854074766846 0 0 0
766 131 6 -0.8476 -3.955651216112582 13.959278623832601 12.599334429557313 0 0 0
422 95 7 0.4238 -6.499595756384944 11.564350854819864 12.295060439816725 0 0 0
605 116 7 0.4238 -2.202511148518049 17.04275442301778 12.941170126070348 0 0 0
506 104 7 0.4238 -10.110974923128698 15.258529771194198 12.627975071770948 0 0 0
461 776 3 -1.05 -5.870159889465656 13.915917159758903 23.40848743149831 0 0 0
431 98 7 0.4238 -0.5265648126361137 5.46019052000062 12.25804550511257 0 0 0
260 81 7 0.4238 3.6380707024097183 14.253346392329705 12.224230770741428 0 0 0
6 22 1 2.1 6.332878033206054 17.40030562418702 25.354234586750287 0 -1 0
23 553 3 -1.05 6.943336686175106 16.28829746794965 24.454552851912155 0 0 0
38 1 4 -0.95 5.413079377132624 16.824811960254863 26.5495507270611 0 -1 0
43 571 3 -1.05 5.399474673802236 18.336426133605364 24.475732838229373 0 -1 0
56 4 4 -0.95 0.9589203549445935 17.888955215408206 25.74229913062587 0 -1 0
57 4 5 0.425 1.242961886732077 18.54950349187554 26.511138197023534 0 -1 0
65 56 6 -0.8476 11.995244913032941 2.2758985514608603 24.613444316279168 0 0 0
66 56 7 0.4238 11.209504334714303 2.24728324757506 25.251821716176103 0 0 0
89 1 5 0.425 4.507948115754735 16.347800314218503 26.313533830586547 0 -1 0
96 30 1 2.1 14.15385218812271 4.61606140774161 25.641762675368547 0 0 0
113 599 3 -1.05 14.695465367881662 3.6133711026023985 24.614264872611816 0 0 0
128 7 4 -0.95 13.481102936028668 3.852607867240926 26.816972062165767 0 0 0
133 617 3 -1.05 13.22850749910172 5.631899710572822 24.939641181154748 0 0 0
146 10 4 -0.95 9.475924465817474 6.100770148568125 24.625513990806787 0 0 0
147 10 5 0.425 10.260516628565322 6.565471592564141 25.11673239123764 0 0 0
155 65 6 -0.8476 7.298770045617358 10.688624901484848 28.135151758434574 0 0 0
156 65 7 0.4238 7.82128962003181 11.517384821830822 27.86368281910398 0 0 0
179 7 5 0.425 12.437567551556906 3.73660372299827 26.860118810616154 0 0 0
201 14 4 -0.95 10.794656699971476 9.934456772102859 24.370289760949735 0 0 0
219 16 4 -0.95 8.982716015090041 12.159583915449911 24.554193202162434 0 0 0
237 74 6 -0.8476 2.0644061689113866 15.331398838299567 30.42070874288963 0 0 0
238 74 7 0.4238 2.65281178924355 16.100808939597925 30.12706561796406 0 0 0
266 40 1 2.1 -8.179879651419276 16.730754285887077 25.27654280064058 0 -1 0
283 685 3 -1.05 -7.3431915039579305 15.841310933310044 24.314130136120994 0 0 0
298 19 4 -0.95 -9.183613488792453 15.731028274208489 26.180810931795712 0 -1 0
303 703 3 -1.05 -8.935002909181593 17.805462616576232 24.46495148150556 0 -1 0
316 22 4 -0.95 7.4697132106633255 18.24832587888852 26.097457772881807 0 -1 0
317 22 5 0.425 19.49448984445685 0.6044945008196879 26.419437316354916 0 0 0
325 83 6 -0.8476 18.879769717103322 1.7907127089008492 27.284509005934353 -1 0 0
326 83 7 0.4238 -1.3114034685089406 2.489179285045006 27.849135872524194 0 0 0
349 19 5 0.425 -9.992351553685825 16.195792373513395 26.637461707567457 0 -1 0
371 26 4 -0.95 1.020821911803953 3.504318164698755 24.5119338958525 0 0 0
389 28 4 -0.95 -0.3402123194850791 5.8736076724979505 24.6677578998478 0 0 0
402 30 4 -0.95 15.464091587590012 5.3756512841548645 26.1535474121449 0 0 0
403 30 5 0.425 15.507832457875786 5.9072296791422865 27.068201617762643 0 0 0
411 92 6 -0.8476 14.251795255318424 9.336289100217614 24.604506162562494 -1 0 0
412 92 7 0.4238 13.484146427157187 9.138534000360934 25.228830739825383 -1 0 0
440 52 1 2.1 -3.4238838686250714 11.284416240426037 25.41201105661565 0 0 0
457 772 3 -1.05 -2.8837719953975776 10.107614495129205 24.58979218923655 0 0 0
472 33 4 -0.95 -4.0183857110092065 10.846951050560499 26.778053615498802 0 0 0
477 790 3 -1.05 -4.433366662049495 12.070998570717878 24.547472013789847 0 0 0
495 101 6 -0.8476 8.728044026518129 12.834164473807451 27.115717983409084 -1 0 0
413 92 7 0.4238 -5.841197237097032 9.93674468770663 25.148483281384838 0 0 0
519 33 5 0.425 -4.335758036186732 11.664942684392738 27.342601463211253 0 0 0
526 37 1 2.1 -0.5266285705182243 17.270720979738876 25.523711130997867 0 -1 0
543 819 3 -1.05 -0.2594326554150086 15.964276885446012 24.741167325202085 0 0 0
558 37 4 -0.95 -1.2721918862165946 16.9411099260113 26.891122820642206 0 -1 0
563 837 3 -1.05 -1.4069430569922405 18.235401566080398 24.594883203942256 0 -1 0
576 40 4 -0.95 -7.275403746715778 17.622288283112077 26.391922894946045 0 -1 0
577 40 5 0.425 -6.939044770256842 18.603701937516593 26.13795780123597 0 -1 0
585 110 6 -0.8476 4.32570985840678 3.584125257086153 24.986054649582442 0 0 0
586 110 7 0.4238 4.440128938885235 4.415844657376414 24.3738562083509 0 0 0
609 37 5 0.425 -2.181736099684962 17.377860891105684 27.128280071832474 0 -1 0
616 43 1 2.1 8.218188866435838 5.299860106513357 25.248899630648744 0 0 0
633 865 3 -1.05 8.405142784471007 3.8063851182494015 24.66639995683151 0 0 0
648 43 4 -0.95 8.355059914361323 5.264942881488101 26.786439078534503 0 0 0
653 883 3 -1.05 6.8837247636448735 5.903140228254044 24.691426517711715 0 0 0
671 119 6 -0.8476 0.6660407094215186 9.649880446691098 24.983730367057163 0 0 0
672 119 7 0.4238 0.17522303760319663 9.816482835949538 25.867302357027096 0 0 0
695 43 5 0.425 7.754669847056892 4.61707512505189 27.37285916812483 0 0 0
717 48 4 -0.95 4.240296666312399 9.899931930181756 24.973172950513177 0 0 0
735 50 4 -0.95 2.3573493824590144 11.940845222471085 24.77526402940521 0 0 0
748 52 4 -0.95 -2.202369219925781 12.352777641642273 25.70212367766335 0 0 0
749 52 5 0.425 -1.9473776880648634 12.341187100649403 26.716857772924595 0 0 0
757 128 6 -0.8476 -3.541181707919876 14.789548296184796 24.874744609496467 0 0 0
758 128 7 0.4238 -4.093457960934777 15.135733067466159 25.659457577282375 0 0 0
781 14 5 0.425 11.281973181063089 9.797147906131885 25.250880569314923 0 0 0
782 16 5 0.425 9.288774038650997 11.147139422403352 24.578579316343227 0 0 0
783 26 5 0.425 1.6736306408089099 3.9270552192703008 25.208858548571268 0 0 0
784 28 5 0.425 0.201573096343913 4.983202254833471 24.55554511917115 0 0 0
785 48 5 0.425 3.7169961533341236 10.806609530887355 25.08990654385033 0 0 0
786 50 5 0.425 2.3272784390285137 12.572370659858077 25.57637144971991 0 0 0
759 128 7 0.4238 -3.0064951118539365 14.013499334748087 25.256752325728364 0 0 0
27 557 3 -1.05 16.052839001395817 1.5823665465834393 23.609554437513424 0 0 0
1986 533 6 -0.8476 10.949029280919103 3.625776956038936 26.86772017623535 0 0 0
808 141 7 0.4238 2.2986665958923815 17.120198728296433 25.323093672866275 0 -1 0
809 141 7 0.4238 2.748108943031702 15.534700632395948 25.118613113402958 0 -1 0
810 141 6 -0.8476 2.9583874104503045 16.462083329117256 24.84449070043543 0 -1 0
814 143 7 0.4238 14.91760049257595 3.3922880460564673 32.157902705555585 -1 0 0
1003 206 7 0.4238 -9.398253568630594 15.60589750067897 32.37618806617829 0 0 0
857 157 7 0.4238 8.680919039089678 13.817089606045942 34.31739015324713 0 0 0
829 148 7 0.4238 -2.1741104989099624 4.594451564761463 25.70836371268887 0 0 0
830 148 7 0.4238 16.938888208475575 4.371529501827459 25.94308713454828 -1 0 0
831 148 6 -0.8476 -2.8166276721019026 3.9424382222571515 26.145279299066374 0 0 0
835 150 7 0.4238 -2.2246046939121102 4.994160694027619 28.43414362634402 1 0 0
836 150 7 0.4238 -2.8438316474588516 5.726092723605185 29.790810378409954 1 0 0
837 150 6 -0.8476 -2.776484971275266 4.872530408266647 29.275505946915967 1 0 0
877 164 7 0.4238 3.419147079514662 0.24069614106608986 32.85448603313738 1 1 0
878 164 7 0.4238 2.443081058483711 1.2791761131043655 32.072523129145864 1 1 0
879 164 6 -0.8476 3.230368057478428 0.6237493946814571 31.97261030866709 1 1 0
880 165 7 0.4238 12.92473282839698 9.99214052096225 30.53518416097399 0 0 0
881 165 7 0.4238 11.940259428599687 10.45547012386814 29.462998701688417 0 0 0
882 165 6 -0.8476 12.597530866923362 9.705815298577285 29.621541393077564 0 0 0
892 169 7 0.4238 -8.565407436212185 14.511846888112725 27.42227554610236 0 0 0
893 169 7 0.4238 -8.498503349090551 13.054420635520806 28.130888787159453 0 0 0
894 169 6 -0.8476 -7.932283240161875 13.863985111470239 27.910801750315965 0 0 0
904 173 7 0.4238 13.28688397747921 1.054229444495698 33.21354023104003 0 1 0
1958 524 7 0.4238 5.139006758645666 10.155081113805787 31.403224538807564 0 0 0
906 173 6 -0.8476 13.525755705296346 1.394279339683422 34.1459448398949 0 1 0
1852 489 7 0.4238 -3.059437837114692 15.136034405591099 29.941934802289126 0 -1 0
1168 261 7 0.4238 11.371296210732787 8.19673653481185 29.83241312372221 0 0 0
921 178 6 -0.8476 -4.1312970944001 9.243953299753965 32.43945211665418 1 0 0
916 177 7 0.4238 9.332451133350705 1.0865802660563026 31.788267124612283 0 0 0
917 177 7 0.4238 -3.595928262648802 18.338372605035357 32.17933236809703 0 -1 0
918 177 6 -0.8476 8.70872005753943 0.3613577594393656 31.433954118833686 0 0 0
943 186 7 0.4238 13.964871598878858 2.083639814092337 27.19398975245701 0 0 0
944 186 7 0.4238 13.335561437779111 1.2344837063525678 28.45203788982331 0 0 0
945 186 6 -0.8476 13.479149511648789 1.190812664041501 27.45615958122989 0 0 0
1985 533 7 0.4238 10.78310462372411 2.943722726304107 27.613588807029707 0 0 0
1984 533 7 0.4238 10.191112385133414 4.267232734008384 26.96929720387926 0 0 0
637 869 3 -1.05 5.325186884814567 7.918484537695911 23.73741432047924 0 0 0
967 194 7 0.4238 -0.35795689201144143 1.7603250888698248 31.62899229082141 1 0 0
968 194 7 0.4238 -1.4510973572420858 1.944670108656843 30.484316556220154 1 0 0
969 194 6 -0.8476 19.32735732505972 1.6071506972619785 31.419947770670365 0 0 0
1614 409 6 -0.8476 -5.6168419990234355 16.483206895133172 32.02872478002867 0 0 0
977 197 7 0.4238 7.289428809058893 10.08538999956926 29.85348466360322 0 0 0
978 197 6 -0.8476 6.911694990040666 9.853203850821334 30.769403414510034 0 0 0
985 200 7 0.4238 -3.505406742127855 9.706967344775846 28.30099185789753 0 0 0
986 200 7 0.4238 -3.213340275180852 8.378344273505695 29.271885009461293 0 0 0
987 200 6 -0.8476 -2.8230664559858853 8.992259888579534 28.56095570753198 0 0 0
1866 493 6 -0.8476 -1.5609421636334757 12.802844178817361 30.778396425128086 0 0 0
1480 365 7 0.4238 11.04139396069245 5.6495481208206915 30.20687011214939 0 0 0
896 170 7 0.4238 11.059664552978818 8.630915745328963 34.53841220242687 -1 0 0
905 173 7 0.4238 14.50270089125929 1.1172731247705536 34.34626510775503 0 1 0
998 204 7 0.4238 6.97923610295962 12.358112127900117 33.57825106271449 0 0 0
999 204 6 -0.8476 5.9407050935785195 12.271327726940711 33.60150488897781 0 0 0
547 823 3 -1.05 9.218828654619134 1.5016896042768353 23.689624184033352 0 0 0
1288 301 7 0.4238 -7.356399406680762 16.04485732988958 31.622554762899306 0 0 0
1005 206 6 -0.8476 -9.91509446522219 15.122695588591958 33.14249488599228 0 0 0
496 101 7 0.4238 8.55521918867969 12.70909578297033 26.105012422969196 -1 0 0
1019 211 7 0.4238 2.1760923746601923 5.718250409650743 32.96258955704177 0 0 0
1020 211 6 -0.8476 2.4505196241874176 4.777639224753871 32.6553796524983 0 0 0
1507 374 7 0.4238 -2.0269066008423984 14.008357150578894 28.137075852314418 0 0 0
1875 496 6 -0.8476 4.39388374767345 5.078642649428721 30.736353202533838 0 0 0
1227 280 6 -0.8476 9.01475005111365 16.801312612929184 34.54619673258071 0 0 0
1076 230 7 0.4238 4.66846208924429 8.182580564613602 33.62489714027935 0 0 0
1821 478 6 -0.8476 12.500793379983827 0.74344886650493 30.107779502670116 0 0 0
117 603 3 -1.05 12.062760329885489 7.711906801383774 23.756602247565343 0 0 0
1051 222 7 0.4238 4.89185572011501 6.739887907768441 28.626069102666246 0 0 0
1052 222 7 0.4238 5.574399879859559 6.818016826644375 27.171807534312794 0 0 0
1053 222 6 -0.8476 5.171991462102801 6.175213472537403 27.863962774280754 0 0 0
1057 224 7 0.4238 6.535846003441348 18.558027149073276 31.93901354110956 0 -1 0
1058 224 7 0.4238 6.225621818295219 17.88574607499097 30.60912681013283 0 -1 0
1059 224 6 -0.8476 6.065565283212697 17.698751847689785 31.609044548507043 0 -1 0
1069 228 7 0.4238 6.423467231728217 2.009566083586042 27.049980928265718 0 0 0
1070 228 7 0.4238 5.41977950736962 2.4881888449049376 25.904152086578474 0 0 0
1071 228 6 -0.8476 5.940678027036816 1.651121203158779 26.243128764619257 0 0 0
1096 237 7 0.4238 -2.6914802638853725 12.447784880916265 33.147264979037146 1 0 0
997 204 7 0.4238 5.717468993091139 11.700773082727016 34.416676741659785 0 0 0
1098 237 6 -0.8476 -1.8967982669063628 12.56173258861657 33.77033880549575 1 0 0
1105 240 7 0.4238 11.1805070037958 7.773520790796606 32.045746982875286 -1 0 0
1106 240 7 0.4238 11.810413304809533 7.113217505224008 33.41185878448057 -1 0 0
1107 240 6 -0.8476 11.115489721288856 7.7615628255497535 33.07219040957897 -1 0 0
1108 241 7 0.4238 16.83133150289118 3.639272876423946 28.724268379723686 0 0 0
1109 241 7 0.4238 16.954100813166882 2.094807150846166 28.283313126681776 0 0 0
1110 241 6 -0.8476 16.301161078128818 2.731367530413124 28.727987504598183 0 0 0
1123 246 7 0.4238 2.3375669431723862 13.859462225487144 31.499042920480623 0 0 0
1124 246 7 0.4238 3.192107356256556 12.532119528015029 31.537713711801224 0 0 0
1125 246 6 -0.8476 2.3795368692514494 12.932134509477033 31.911826490739703 0 0 0
1751 455 7 0.4238 0.35349738315708396 6.736100022445866 33.407141046723005 0 0 0
1620 411 6 -0.8476 -6.608904654549971 12.183632953449779 34.52451775115331 0 0 0
1612 409 7 0.4238 -5.055225281582447 16.460885515101776 31.19273638931224 0 0 0
327 83 7 0.4238 18.576330190681546 2.2847468558769606 26.411978345678662 -1 0 0
1179 264 6 -0.8476 17.54440263128238 1.3734723177086978 33.596723884138164 0 0 0
1169 261 7 0.4238 9.860871176575163 7.7287777765987995 29.58866109648464 0 0 0
239 74 7 0.4238 1.176393840088008 15.69585580226141 30.062930199600384 0 0 0
1197 270 6 -0.8476 12.79643178420092 5.512133899683346 33.94611348303313 0 0 0
1177 264 7 0.4238 17.53298083203584 0.48028527858175524 34.106217685379406 0 0 0
1900 505 7 0.4238 17.15004634513685 4.336196030539738 33.36182283610418 -1 0 0
1417 344 7 0.4238 6.843471716141436 7.643227524802134 33.45550486775266 0 0 0
1989 534 6 -0.8476 -3.917597314474766 12.271341428119577 31.96650663076965 0 0 0
1198 271 7 0.4238 -7.708435842364178 14.097980175484992 31.193268132676202 0 -1 0
1199 271 7 0.4238 -7.54648421516851 13.085729059005027 30.011217939793518 0 -1 0
1200 271 6 -0.8476 -7.417470443014368 13.123327741933718 31.0136021880901 0 -1 0
1959 524 6 -0.8476 4.401773331477019 10.523143305404489 31.994709117036006 0 0 0
157 65 7 0.4238 6.3747098760374445 11.097878919737786 28.40206428621336 0 0 0
1225 280 7 0.4238 -11.717875097977693 17.58159874407979 33.905688191499124 1 0 0
1207 274 7 0.4238 -1.451313447443068 9.116262610490443 30.108146050073188 0 0 0
1208 274 7 0.4238 -0.5662351439391182 8.704313210002738 31.48120716447004 0 0 0
1209 274 6 -0.8476 -0.6437432161530487 9.316457503187388 30.69504329068602 0 0 0
1210 275 7 0.4238 7.161973225426169 15.292738957602777 27.1285299060777 -1 0 0
1917 510 6 -0.8476 0.7560324065162103 7.286608053784382 26.52172327434257 0 0 0
1046 220 7 0.4238 5.681812685586003 15.0285576092428 31.106170319383203 0 0 0
1216 277 7 0.4238 14.934370479605317 7.759409432515768 28.55647855294433 -1 0 0
1217 277 7 0.4238 14.963296206743138 6.219661658676768 29.095433652334496 -1 0 0
1218 277 6 -0.8476 15.344058338568239 6.860356879153816 28.39346449796909 -1 0 0
1222 279 7 0.4238 5.542762365848735 17.202724715046507 33.12316109196142 -1 0 0
1223 279 7 0.4238 4.659039926101222 16.370582002928543 34.299101380492665 -1 0 0
1224 279 6 -0.8476 5.249439985163772 17.183328386427085 34.12360194226704 -1 0 0
1874 496 7 0.4238 4.641645405029455 6.0490864332277985 30.88724387980183 0 0 0
1226 280 7 0.4238 9.353194191170779 16.124853583161165 33.8698406980334 0 0 0
1458 357 6 -0.8476 8.177486220617372 5.110020400840019 34.526690902280876 0 0 0
1231 282 7 0.4238 10.178543930235865 12.176234511658484 29.774748480195758 0 0 0
1232 282 7 0.4238 10.1691020372192 12.020218837712587 28.131988444581577 0 0 0
1233 282 6 -0.8476 10.602567359057018 11.638550794773117 28.990870283982435 0 0 0
1240 285 7 0.4238 8.571020281506415 0.606955284734364 25.923713691449187 0 0 0
1241 285 7 0.4238 7.997284777322282 0.020289397406845988 27.24104411850804 0 0 0
1242 285 6 -0.8476 -3.5553717433165706 18.43187553596591 26.534772486369395 0 -1 0
1261 292 7 0.4238 12.684664446759326 9.710002870499652 27.756168006467473 0 0 0
1262 292 7 0.4238 12.638587601943247 10.998509484733654 26.70190758406438 0 0 0
1263 292 6 -0.8476 12.555722355453309 9.99273669900802 26.782610140723133 0 0 0
1988 534 7 0.4238 -4.845962365173701 12.594736230614872 32.176154410206045 0 0 0
1280 298 7 0.4238 4.3423846730830995 17.895222967428257 32.05361614456973 0 0 0
1281 298 6 -0.8476 3.3763676248829677 18.07185165525526 32.07920938037699 0 0 0
1018 211 7 0.4238 2.980617999597744 4.504189097490604 33.4793145213751 0 0 0
1065 226 6 -0.8476 -1.0148945955362525 6.152623065712973 34.188625117225826 0 0 0
1730 448 7 0.4238 3.0351579898281265 9.431517255301934 31.85702531154214 0 0 0
920 178 7 0.4238 -5.06312201720081 9.223790062871077 32.01411471110616 1 0 0
1873 496 7 0.4238 3.872869180232598 5.037771286748888 31.565212270883638 0 0 0
1290 301 6 -0.8476 -8.163635321416372 15.77284564427518 31.05773572933291 0 0 0
1297 304 7 0.4238 2.0102194461466802 14.16399147326132 28.679022429192276 0 0 0
1298 304 7 0.4238 1.9633700038456114 12.561003873166824 28.576061543691743 0 0 0
1299 304 6 -0.8476 2.557262316200108 13.331560216490761 28.458710642307004 0 0 0
1312 309 7 0.4238 5.3653508112209645 8.62098171134079 30.142453650659007 0 0 0
1779 464 6 -0.8476 2.589423072410001 0.6078110061827098 28.96236649868977 1 1 0
1853 489 7 0.4238 -3.128253291254631 14.08858569866254 31.10556348017678 0 -1 0
1321 312 7 0.4238 5.59758733975758 13.194412857050107 29.1279642717869 0 0 0
1322 312 7 0.4238 4.159824119319637 12.332510094801023 28.926566213008662 0 0 0
1323 312 6 -0.8476 5.1782452043856235 12.260691316369991 28.94539497357029 0 0 0
1336 317 7 0.4238 1.0640923642058127 2.9169231406704927 28.524271249605682 0 0 0
1337 317 7 0.4238 0.13797991555493788 4.177251301643302 28.817270779633798 0 0 0
1338 317 6 -0.8476 0.10370637827558479 3.1856014579268366 28.58876519551597 0 0 0
1348 321 7 0.4238 10.70045430535033 3.3658623307475906 29.897352032945342 0 0 0
1349 321 7 0.4238 10.127577000760512 1.8061355679728102 30.038882245035882 0 0 0
1350 321 6 -0.8476 10.518439554921512 2.4754990865751916 29.40104502589247 0 0 0
1363 326 7 0.4238 6.69453438870504 9.151040851374887 27.344157252193245 0 0 0
1364 326 7 0.4238 6.816119971836259 8.296295558079292 25.898717471864167 0 0 0
1365 326 6 -0.8476 6.399372099895525 8.313184158368822 26.818872867362746 0 0 0
1819 478 7 0.4238 12.489862971188169 0.3689864602400366 31.055411725654793 0 0 0
1869 494 6 -0.8476 -5.074700820959806 13.092081037052202 28.122033371674355 0 0 0
1957 524 7 0.4238 4.889950686288448 11.21891825801097 32.58378873538786 0 0 0
1372 329 7 0.4238 9.553675340152072 10.540924610146025 32.573973234967696 0 0 0
1373 329 7 0.4238 9.962234265997727 9.001923271476352 32.82242230403837 0 0 0
1374 329 6 -0.8476 9.251451920982907 9.593298305685352 32.36156893630015 0 0 0
1352 322 7 0.4238 -0.36180659403977805 4.555349652652476 34.644258787743276 0 0 0
67 56 7 0.4238 12.703902905773464 1.649950381865655 24.971338573822717 0 0 0
1868 494 7 0.4238 -4.344887636969423 13.801939527748981 28.304104653459635 0 0 0
1384 333 7 0.4238 2.9201386421928754 3.9725847750631704 29.728432906202286 0 0 0
1385 333 7 0.4238 3.910664763266292 3.3128582746179447 28.654893852454748 0 0 0
1386 333 6 -0.8476 2.927891166995687 3.395603572726302 28.887314396014936 0 0 0
1396 337 7 0.4238 3.611631301429273 9.280817294469527 26.67404166910865 0 0 0
1397 337 7 0.4238 2.1916760836064384 8.602391694854708 26.58572705435509 0 0 0
1398 337 6 -0.8476 2.75362087280375 9.15997506973486 27.206471681528 0 0 0
1939 518 7 0.4238 5.5071636778419055 0.19638046557187003 34.06344268699432 0 0 0
802 139 7 0.4238 1.7484326666863461 12.119096998616987 34.74832903589047 0 0 0
1854 489 6 -0.8476 -3.3889358289429796 15.019554231184673 30.901370727114426 0 -1 0
1432 349 7 0.4238 8.521167688904173 14.343431402971648 29.466562071490838 0 0 0
1433 349 7 0.4238 8.173533679649887 12.959820460505718 30.21694732594506 0 0 0
1434 349 6 -0.8476 8.931345209635703 13.583945907410948 30.000641037785183 0 0 0
1865 493 7 0.4238 -2.450040148545835 12.510931119061986 31.211898229388023 0 0 0
1075 230 7 0.4238 5.049579347995591 6.687407018925303 33.48383971688978 0 0 0
1285 300 7 0.4238 7.796042516812048 1.1640399658034783 34.31922310975512 0 0 0
1468 361 7 0.4238 -2.866194067014258 6.439370236612331 31.591700111292845 0 0 0
1469 361 7 0.4238 -3.5925124210741988 7.89344363837564 31.523043109163677 0 0 0
1470 361 6 -0.8476 -3.0132511034669376 7.231178450236646 30.9833985590922 0 0 0
1483 366 7 0.4238 -11.934052002683652 17.861041210632944 26.998083985211515 0 -1 0
1484 366 7 0.4238 -10.806868131410214 18.20621786283968 27.836416893581507 0 -1 0
1485 366 6 -0.8476 -11.165370080692066 17.342918032460343 27.462858089764648 0 -1 0
1486 367 7 0.4238 -5.914188569278493 10.786084373538216 30.188584543467016 0 0 0
1487 367 7 0.4238 -5.1237624161304005 11.74863680831988 29.119526096418625 0 0 0
1488 367 6 -0.8476 -4.9825801592429 11.038025114365475 29.849923828249185 0 0 0
1489 368 7 0.4238 5.941705640692107 4.699097885026368 28.17583268700075 0 0 0
1490 368 7 0.4238 6.516115220135194 3.4476769750198106 28.974510218038848 0 0 0
1491 368 6 -0.8476 6.547526487695073 3.8740544322505293 28.052337651681313 0 0 0
1196 270 7 0.4238 12.11359607090069 4.759670136867662 34.089291219716976 0 0 0
1867 494 7 0.4238 -5.809445820232583 13.585945683342594 27.63142918082564 0 0 0
1916 510 7 0.4238 0.5287146322799201 8.172358850767408 26.058017397165564 0 0 0
1498 371 7 0.4238 8.432903046847123 6.733557522523491 27.879234994754 0 0 0
1499 371 7 0.4238 7.530254140440215 7.56949733778772 28.956065170474645 0 0 0
1500 371 6 -0.8476 8.476461191430928 7.422159211712944 28.63638941421619 0 0 0
1731 448 6 -0.8476 2.2783318592766117 8.882646027745697 31.367716786223895 0 0 0
815 143 7 0.4238 13.872680221181954 4.223815030694152 31.435265580137543 -1 0 0
1481 365 7 0.4238 12.419212581450324 4.846766051310013 29.958015328988857 0 0 0
1510 375 7 0.4238 3.0463987488967583 14.026134659507388 26.916781282433636 0 0 0
1511 375 7 0.4238 4.326253272882641 13.405680530170713 26.46253025836488 0 0 0
1512 375 6 -0.8476 3.673301323342476 14.061560353621713 26.108283316415633 0 0 0
1750 455 7 0.4238 1.53998744070173 7.560512953578022 34.16606092385783 0 0 0
1064 226 7 0.4238 -1.8146934721435148 5.7435019292909795 33.737551825278196 0 0 0
375 731 3 -1.05 -1.6069128897865954 7.929313834909444 23.679603280474097 0 0 0
1546 387 7 0.4238 5.719285350780051 17.50487312097104 28.287197509804287 0 0 0
1547 387 7 0.4238 18.772098976948055 0.13760406602196887 28.228821004369507 0 1 0
1548 387 6 -0.8476 6.187591167460112 18.153982385392975 28.909283991430954 0 0 0
1902 505 6 -0.8476 -2.752908796218851 4.740411556713324 32.83757976655627 0 0 0
1559 391 7 0.4238 -8.891881823805445 13.512055515324384 25.241036800130058 1 0 0
1560 391 6 -0.8476 12.046920278710129 12.6223453781831 24.846107246483047 0 0 0
1576 397 7 0.4238 -4.6760048873808175 16.750386951956607 26.637175357987353 0 0 0
1577 397 7 0.4238 -5.8477380637964265 16.36076141915914 27.41061386248501 0 0 0
1578 397 6 -0.8476 -5.079187597063829 15.915685262648863 26.99630225967086 0 0 0
1032 215 6 -0.8476 1.9105244262239147 16.202409156393827 33.21426894744207 0 0 0
1419 344 6 -0.8476 6.883283802957881 6.743957302875597 32.93220185851122 0 0 0
1004 206 7 0.4238 -9.21063440814242 14.933795124647649 33.799929639235835 0 0 0
1591 402 7 0.4238 0.12117955173189254 6.630207760873268 27.78573443195936 0 0 0
1592 402 7 0.4238 -0.0025097436409736384 6.764497857139436 29.405062869907983 0 0 0
1593 402 6 -0.8476 0.009939645649764942 6.085658547954713 28.647509330009072 0 0 0
1609 408 7 0.4238 6.943015036041288 1.529300852855807 29.15046480537632 0 0 0
1610 408 7 0.4238 8.162308541602771 0.5497643218202983 29.27176380927145 0 0 0
1611 408 6 -0.8476 7.344100902129587 0.7162936517325079 28.667956586005644 0 0 0
1412 342 7 0.4238 0.0830136582033245 17.677609433850726 29.491670698845496 0 0 0
1613 409 7 0.4238 -5.383916650539387 15.788412563014546 32.76649152279593 0 0 0
1414 343 7 0.4238 3.7844922293773653 14.061654482265803 32.75425457887939 0 0 0
1195 270 7 0.4238 13.410701508396393 5.00004311152897 33.31218483199362 0 0 0
497 101 7 0.4238 8.711975120338133 13.848452468655294 27.271467855903424 -1 0 0
1415 343 7 0.4238 5.3408279916211026 13.73050370390273 32.96037560875142 0 0 0
919 178 7 0.4238 -4.252877494838145 9.87701191930852 33.21826838008459 1 0 0
1811 475 7 0.4238 14.287574613916885 6.2093598637231855 34.69391693652501 -1 0 0
1539 384 6 -0.8476 -5.115475450437363 14.716546714644739 34.36302885273477 0 0 0
1630 415 7 0.4238 -6.8940141086083 10.935403569030504 32.922758857786214 1 0 0
1631 415 7 0.4238 -7.394934340721603 11.556143379948658 31.60600481470422 1 0 0
1632 415 6 -0.8476 -7.133785111337929 10.644984998488608 31.966451441760206 1 0 0
1864 493 7 0.4238 -0.8467180554929881 12.241569780020567 31.224038159184666 0 0 0
1047 220 6 -0.8476 5.843358814129044 14.875113479472645 30.08556974242817 0 0 0
1915 510 7 0.4238 0.21488577325101402 6.623925612350759 25.925855279271357 0 0 0
1509 374 6 -0.8476 -2.58132696573327 14.862015127054303 28.14253668027167 0 0 0
1279 298 7 0.4238 15.490170970151178 0.37483065821945927 31.685962374594418 0 1 0
1411 342 7 0.4238 -0.5383268666280592 16.7776932676405 28.390808333968153 0 0 0
1413 342 6 -0.8476 0.11655893106760444 16.726664109170507 29.187957935296446 0 0 0
1170 261 6 -0.8476 10.736105628436349 7.472589944624892 30.081880041931864 0 0 0
1987 534 7 0.4238 -4.056334318319857 11.630206022132615 31.17929482202607 0 0 0
1708 441 7 0.4238 -1.9444785398916316 16.011254832544218 33.66816512384347 0 0 0
1709 441 7 0.4238 -2.9958502785066603 16.277600071704086 32.453090012066475 0 0 0
1710 441 6 -0.8476 -2.3656584744169806 16.73085498793944 33.08502384650451 0 0 0
1717 444 7 0.4238 0.962542027615686 11.96072751157442 32.2474994995821 0 0 0
1718 444 7 0.4238 0.21385985906960453 10.604594751360954 31.870636258057594 0 0 0
1719 444 6 -0.8476 0.1226771763835659 11.418846500339544 32.48747643509098 0 0 0
1723 446 7 0.4238 6.4427393479477315 1.7005701420907333 31.138177139952255 0 0 0
1724 446 7 0.4238 5.8546552142245 3.2684646444932577 30.95315994226514 0 0 0
1725 446 6 -0.8476 6.238309549775317 2.4523147335199798 30.45754080699311 0 0 0
1744 453 7 0.4238 16.31735624740369 1.9053350189103515 30.570169329486596 0 0 0
1745 453 7 0.4238 16.583710972117597 1.7941592640840045 32.173600802529066 0 0 0
1746 453 6 -0.8476 15.867575233629733 2.0158853995133033 31.49656414957577 0 0 0
1923 512 6 -0.8476 5.585588981218086 3.2636639911722765 34.178915598457365 0 1 0
1676 430 7 0.4238 7.240009626190622 9.412987580207885 34.86042211665274 0 0 0
1752 455 6 -0.8476 1.2170860611270682 7.215283809865617 33.26669099794869 0 0 0
1756 457 7 0.4238 -1.283349420568356 9.75908070440706 27.884265595384463 0 0 0
1757 457 7 0.4238 0.18128811221705007 10.119567356520536 28.48797758401801 0 0 0
1758 457 6 -0.8476 -0.44757836319607436 10.276353256750497 27.677369934733715 0 0 0
1759 458 7 0.4238 2.165762083972939 10.021088987415197 28.64257049553297 0 0 0
1760 458 7 0.4238 1.59452186902181 10.134269098975896 30.026767975499315 0 0 0
1761 458 6 -0.8476 1.6260554565907173 10.708456018944247 29.17312084956643 0 0 0
1762 459 7 0.4238 -6.065081621273478 17.801820973613307 29.179344664526592 0 0 0
1763 459 7 0.4238 -7.179790488982619 17.511879820984376 28.0153336603558 0 0 0
1764 459 6 -0.8476 -6.940502490170452 17.30693422366456 28.97009478644716 0 0 0
1765 460 7 0.4238 7.661220692082715 9.986538649135747 25.11148380560699 0 0 0
1766 460 7 0.4238 8.935046236851512 9.041966530081762 24.550484160272504 0 0 0
1767 460 6 -0.8476 7.924118207961717 9.176427518715093 24.59947671387283 0 0 0
1845 486 6 -0.8476 9.606871537625887 2.684774200338506 32.076212384555596 0 0 0
1778 464 7 0.4238 2.6627643270590573 1.6413192921676942 28.938163789202687 1 1 0
1537 384 7 0.4238 -5.568350028719728 13.816742917780148 34.364251048635296 0 0 0
1780 465 7 0.4238 -1.0446893350612532 13.068258636394358 29.244615683498797 0 0 0
1781 465 7 0.4238 -0.8670982119927245 11.811967532987527 28.149085009031626 0 0 0
1782 465 6 -0.8476 -0.9597293127394273 12.84307023726256 28.233584488790367 0 0 0
1783 466 7 0.4238 13.6572955885546 4.01107269791044 28.486451247113063 0 0 0
1784 466 7 0.4238 14.945022424658257 3.7765046522946264 29.503780999354017 0 0 0
1785 466 6 -0.8476 14.049917051996976 4.260853950163636 29.41052683740406 0 0 0
858 157 6 -0.8476 8.342838232779544 13.376716144046126 33.4449977522102 0 0 0
1820 478 7 0.4238 12.008595680501438 1.6436112252260366 30.17880932862246 0 0 0
1677 430 6 -0.8476 6.348372541849804 9.143866225722094 34.39736048594738 0 0 0
1828 481 7 0.4238 2.8554948858436346 4.919886366164463 27.326257135602518 0 0 0
1829 481 7 0.4238 2.05109989609852 6.035374935887485 26.51965145427173 0 0 0
1830 481 6 -0.8476 2.4985275912531657 5.129727368234878 26.4065760396817 0 0 0
1834 483 7 0.4238 0.7774906897410979 17.65902166030242 33.1708340242251 0 0 0
1835 483 7 0.4238 -0.7372203976251717 17.456612782089472 32.538932927792274 0 0 0
1836 483 6 -0.8476 0.06866565841454603 18.0630075228307 32.556851625547985 0 0 0
1843 486 7 0.4238 9.840837814005521 2.6476873440382946 33.07290995583494 0 0 0
1844 486 7 0.4238 9.43463984162329 3.655428318778724 31.921927218420436 0 0 0
1777 464 7 0.4238 2.7763771803240704 0.21242323828166795 29.87199056545535 1 1 0
1212 275 6 -0.8476 7.894076752151572 15.241436002007356 27.806116860614438 -1 0 0
1211 275 7 0.4238 8.548868446647978 16.03593029165291 27.672161777930096 -1 0 0
1888 501 7 0.4238 1.572197059403657 3.4680107969722846 32.23625061870716 0 0 0
1314 309 6 -0.8476 4.716210202189053 7.870491182301855 30.379602387178544 0 0 0
1482 365 6 -0.8476 11.543040845333456 4.771419796150906 30.457954771099267 0 0 0
673 119 7 0.4238 1.344034591550282 10.403763158560956 24.852697976471596 0 0 0
1940 518 7 0.4238 -5.816861539821721 18.31239260205302 32.829069547992965 0 -1 0
1313 309 7 0.4238 3.788389040540656 8.280640041760812 30.59031771767695 0 0 0
976 197 7 0.4238 7.741058027707973 9.769593120286657 31.352063333099863 0 0 0
1097 237 7 0.4238 -1.1526769245819 12.076755982705462 33.23292431196831 1 0 0
1901 505 7 0.4238 -2.105615519114626 4.011491605125598 32.49196083021138 0 0 0
1457 357 7 0.4238 7.95715547878321 5.814403728261474 33.818665692727095 0 0 0
1941 518 6 -0.8476 6.348173834097246 0.39148136157013846 33.515817207261016 0 0 0
1077 230 6 -0.8476 4.275468871099516 7.257065603065628 33.75461246614672 0 0 0
1178 264 7 0.4238 18.39816994867837 1.6246858963668345 33.1018747729098 0 0 0
1289 301 7 0.4238 -8.051306606074501 16.48859117378147 30.313743655920753 0 0 0
1508 374 7 0.4238 -1.9244378532342907 15.550051357004865 27.838733513890563 0 0 0
721 911 3 -1.05 1.091604591992178 14.025309912985007 23.785220286457818 0 0 0
1031 215 7 0.4238 2.511475191797744 16.87633622655744 32.694331370200985 0 0 0
1729 448 7 0.4238 2.0708096059499455 8.118208855775878 32.051518648998815 0 0 0
1418 344 7 0.4238 7.2442319883160655 7.045716978627407 32.062791144783176 0 0 0
856 157 7 0.4238 8.772110411876996 13.85696252025167 32.631198107118756 0 0 0
587 110 7 0.4238 3.835841379791682 4.014229607054825 25.75447202327882 0 0 0
1889 501 7 0.4238 0.616822305020925 2.7604124166131903 33.25703733985763 0 0 0
1045 220 7 0.4238 6.343606430287858 15.71207416922945 29.830478203045754 0 0 0
1558 391 7 0.4238 11.239921728746538 12.031424332899341 24.73826626838906 0 0 0
1890 501 6 -0.8476 1.1606956353741975 2.55097838399378 32.40736168401147 0 0 0
1353 322 6 -0.8476 0.04966107145674252 3.6279345405920727 34.58364189425476 0 0 0
816 143 6 -0.8476 14.35045960049661 4.230632555407711 32.31874237656287 -1 0 0
1921 512 7 0.4238 6.13199366109137 2.4177971656788495 34.186485613457805 0 1 0
1416 343 6 -0.8476 4.712640932001272 14.465253340265685 32.62562189132068 0 0 0
1030 215 7 0.4238 1.7477882895418515 15.420280229524383 32.63774052671977 0 0 0
287 689 3 -1.05 2.0984732490207083 1.2754634170012416 23.663870102543022 0 0 0
100 586 1 2.1 12.878240943845064 6.310046561019141 23.557402228438388 0 0 0
1287 300 6 -0.8476 8.484288154453647 1.715722896131204 34.8233640191904 0 0 0
1366 327 7 0.4238 9.66857608683906 4.248732906228538 34.7435935691997 0 0 0
1456 357 7 0.4238 7.319316462954936 4.621862460836984 34.76531504474346 0 0 0
952 189 7 0.4238 -2.185053304619975 13.791834661562737 34.848962270638154 1 0 0
796 137 7 0.4238 3.61164033189065 14.081002519587047 43.343601260497756 0 0 0
1138 251 7 0.4238 9.647669539542802 1.9492415450688938 39.20911915552281 0 0 0
798 137 6 -0.8476 2.7188548197647826 13.795991221550933 42.87727551744567 0 0 0
811 142 7 0.4238 11.404921091557915 12.10609041969968 37.05171753391392 -1 0 0
812 142 7 0.4238 10.734063290159598 12.989163615177953 35.95033000847447 -1 0 0
813 142 6 -0.8476 11.623732120378152 12.65300003537569 36.230849558117875 -1 0 0
826 147 7 0.4238 8.608297982183224 2.830389803208258 40.54384729236143 0 0 0
827 147 7 0.4238 7.005098287890324 2.5539517382269024 40.578510008371026 0 0 0
828 147 6 -0.8476 7.857771489773097 2.5633377201746947 41.17810324607267 0 0 0
832 149 7 0.4238 2.5461573677615297 16.51903439100421 41.29105577500151 0 0 0
833 149 7 0.4238 2.1328746773557694 17.975464598900714 41.1576537072543 0 0 0
834 149 6 -0.8476 2.9202808552958865 17.44802463645434 41.48719095584919 0 0 0
838 151 7 0.4238 12.291718201059695 7.349274875608197 39.76418108289717 0 0 0
839 151 7 0.4238 12.401835224431863 6.463639014262197 41.08878319932831 0 0 0
840 151 6 -0.8476 11.767771791823549 7.046449285432081 40.56325563061467 0 0 0
850 155 7 0.4238 2.903732549355843 9.7629742900013 43.489773875644396 0 0 0
851 155 7 0.4238 3.804078497579446 8.332313324632512 43.566158075419274 0 0 0
852 155 6 -0.8476 3.0519887794124543 8.882651012406948 43.99304760292357 0 0 0
853 156 7 0.4238 -8.793670154573444 18.534362318743955 38.57962006445899 0 -1 0
854 156 7 0.4238 4.140923391930861 1.1767905163005192 38.0077036020866 0 0 0
855 156 6 -0.8476 3.3498339585615238 0.5656699293777877 37.807592674133595 0 0 0
1284 299 6 -0.8476 -1.9941054491136767 3.7659272723939994 45.034129722308606 0 1 0
1378 331 7 0.4238 14.84564708116833 2.3298117112538637 41.05813750337032 0 0 0
989 201 7 0.4238 -0.3125234243784387 8.42913545757509 35.76342693322546 0 0 0
1010 208 7 0.4238 -0.20933527018668804 13.039167278935015 37.40620508930104 0 0 0
1812 475 6 -0.8476 15.156188756099489 6.606098683627504 35.02682229885763 -1 0 0
1495 370 7 0.4238 13.119178559181886 1.712972964385502 39.024236233531255 0 1 0
1443 352 6 -0.8476 -3.122978303854256 17.118123892566036 46.07031452139352 0 0 0
1977 530 6 -0.8476 4.62289586624061 10.613936596431296 35.83730502718524 0 0 0
1324 313 7 0.4238 6.7262837743154655 16.744709022765694 37.710361393085904 0 0 0
1370 328 7 0.4238 -6.1784015680717035 9.944886628336937 43.41070667409398 0 0 0
1139 251 7 0.4238 10.964360910281693 1.1242402657462576 38.99132707453496 0 0 0
1667 427 7 0.4238 -8.587788455314389 14.56726462240166 35.763534995760835 0 0 0
1855 490 7 0.4238 12.72812870583294 2.5697136031467287 35.36638270207083 0 0 0
1517 377 7 0.4238 -6.154875700152949 15.942888518320727 40.23104767249766 0 0 0
1292 302 7 0.4238 -4.939733643937566 11.560860769955427 37.07755950447606 1 0 0
898 171 7 0.4238 -1.2079375041059988 9.146392326626762 40.49908628417002 0 0 0
899 171 7 0.4238 0.02949803479761407 9.415941235188802 41.45575180945971 0 0 0
900 171 6 -0.8476 -0.2469146355643573 8.90210771261579 40.638515704952695 0 0 0
1395 336 6 -0.8476 -2.3103185167992493 3.525567453118409 37.32614349864228 1 1 0
1038 217 6 -0.8476 -2.5666528371376787 8.424840842084349 43.30044457412103 1 0 0
1388 334 7 0.4238 9.124902558619745 16.451259139672956 36.008548097244564 -1 -1 0
910 175 7 0.4238 -5.053510116671872 11.670133840517192 44.04576048827418 0 0 0
911 175 7 0.4238 -4.733578386622357 13.15535495195038 44.62032524764598 0 0 0
912 175 6 -0.8476 -4.307213439007933 12.275180611762266 44.36064262563249 0 0 0
1423 346 7 0.4238 -2.532265114874981 16.178396745931117 36.17881066939923 0 -1 0
1149 254 6 -0.8476 0.26043068730729296 14.373233089314205 36.49919279588875 0 -1 0
1387 334 7 0.4238 8.412328299782699 16.365499151948498 37.63833572181803 -1 -1 0
928 181 7 0.4238 5.468733378627878 14.718545805860934 40.465940289605 0 0 0
929 181 7 0.4238 6.172209802166001 15.24666757026706 39.291325314813044 0 0 0
930 181 6 -0.8476 5.726623702567626 14.36729664857106 39.52479539045528 0 0 0
931 182 7 0.4238 -0.10921154122960088 18.265161135446895 39.70612105005402 0 0 0
1330 315 7 0.4238 3.810439810912361 18.190439873820818 39.34717913089871 0 0 0
933 182 6 -0.8476 0.29464936879863596 17.63300457597078 40.364064024656045 0 0 0
934 183 7 0.4238 -5.189779907914505 15.330178301012719 38.70573725436613 0 0 0
935 183 7 0.4238 -3.698774292062715 15.89439585054048 38.28996617750798 0 0 0
936 183 6 -0.8476 -4.170214225656817 15.19630919215227 38.8623160564783 0 0 0
940 185 7 0.4238 13.437081858394764 6.596669439064635 43.65433216290444 0 0 0
941 185 7 0.4238 12.739161327715706 7.8006763077389705 44.50189435056344 0 0 0
942 185 6 -0.8476 12.635111713202535 6.8021374105926515 44.26415208751229 0 0 0
1140 251 6 -0.8476 9.94307754455339 0.9930421964112612 39.03516679845005 0 0 0
1513 376 7 0.4238 3.5524949704261464 9.05815461577855 38.17641349190745 0 0 0
907 174 7 0.4238 14.40982706350446 2.7767102680982005 36.69808031743899 -1 0 0
1870 495 7 0.4238 7.116894990203665 0.9344168637222682 37.894220503727624 0 0 0
1775 463 7 0.4238 3.9276447788553295 0.8504188425573095 44.040159750867325 1 1 0
957 190 6 -0.8476 16.554583118441222 0.9506264061106703 42.219295278598146 0 0 0
970 195 7 0.4238 0.7530084140949543 7.557315418758556 39.83981818480723 1 1 0
1523 379 7 0.4238 10.60861399102811 0.6662735591848566 42.58531989586926 0 1 0
972 195 6 -0.8476 1.351267578433887 6.868321421556042 39.38555788453201 1 1 0
1860 491 6 -0.8476 19.658585100513648 0.3374228782277229 39.45634534637108 0 1 0
1408 341 7 0.4238 5.340438866902543 5.000897498425674 36.636640390057764 0 0 0
1858 491 7 0.4238 -0.3240913667468656 0.820817406642161 38.87049766110569 1 1 0
1590 401 6 -0.8476 16.559628606743814 4.139618142284552 35.10499660530135 0 0 0
980 198 7 0.4238 -8.267488264520152 15.629966055149113 44.7234609640225 1 0 0
981 198 6 -0.8476 -9.174353026339011 16.132728129304827 44.794742755771466 1 0 0
1735 450 7 0.4238 8.908541196412132 5.869117395003616 46.17375850903823 0 0 0
983 199 7 0.4238 11.247500755383111 9.218588492744985 45.50381862927533 0 0 0
984 199 6 -0.8476 12.212674380473276 9.521540627213717 45.360587332910335 0 0 0
1776 463 6 -0.8476 3.7106952265414823 1.3712266920369767 43.201855652208444 1 1 0
846 153 6 -0.8476 -1.1630432611900103 5.7112689012858855 43.38875663731765 1 0 0
1424 346 7 0.4238 -1.9340586095751309 17.318002084896243 37.01975867191112 0 -1 0
1842 485 6 -0.8476 14.923096977880368 5.045067528566174 39.802170756844156 0 0 0
1394 336 7 0.4238 18.580916311035363 2.6938715213139512 36.8210187406468 0 1 0
1184 266 7 0.4238 10.05109412035567 6.18581654109447 36.53653913012582 0 0 0
1931 515 7 0.4238 2.5424649637285426 5.443099980661005 43.55915849548376 0 0 0
971 195 7 0.4238 0.9431988977766159 5.92270051958682 39.30798594357554 1 1 0
1641 418 6 -0.8476 5.894959579922414 17.891430716247005 36.59196644089663 0 0 0
1795 470 7 0.4238 -3.8967854366206987 8.72860774913282 44.46221582978559 0 0 0
1187 267 7 0.4238 3.502079886707932 16.244870010312493 35.7976599531234 0 -1 0
1355 323 7 0.4238 7.3784006830965065 17.323209613223558 41.16797464830301 0 -1 0
1969 528 7 0.4238 3.410913899243185 6.368959858344952 41.79025914512703 0 0 0
1598 404 7 0.4238 5.286138193475571 8.930200491870501 45.27409744977398 0 0 0
1148 254 7 0.4238 -0.5524003415790427 14.614148299779897 35.92135619951707 0 -1 0
1015 210 7 0.4238 -3.6295048039762268 12.114912250646682 39.54247565642739 0 0 0
1016 210 7 0.4238 -3.5368276960442406 13.668834313527418 39.10306244156311 0 0 0
1017 210 6 -0.8476 -2.969620892958103 12.838874253254145 39.319918074784084 0 0 0
1377 330 6 -0.8476 1.8102024627693132 16.47622816581755 37.27726495456423 0 -1 0
1895 503 7 0.4238 0.6228513140120788 9.77848730010907 39.598039110256906 0 0 0
806 140 7 0.4238 0.7056032508856822 13.243433197361789 45.02975842349371 0 0 0
1024 213 7 0.4238 1.6983537228254935 0.4568947541510786 37.39361346302029 0 0 0
1025 213 7 0.4238 -11.821934554017606 18.064422462344417 37.23414208146622 0 -1 0
1026 213 6 -0.8476 0.6777155936276468 0.38221066923419256 37.29982196280513 0 0 0
1742 452 7 0.4238 9.280056968456488 10.18235448436387 35.54401380817 0 0 0
932 182 7 0.4238 -0.262958497119839 16.797145820551123 40.27803721966419 0 0 0
995 203 7 0.4238 1.976356756398216 2.3460528483661984 39.78816533175663 0 0 0
1054 223 7 0.4238 11.5995329199425 5.376924667995548 43.39074171652287 0 0 0
1055 223 7 0.4238 10.82082535419835 5.116395517437554 41.976930591371875 0 0 0
1056 223 6 -0.8476 11.178680539768962 4.6445906305827585 42.80808328973181 0 0 0
1913 509 7 0.4238 9.617819648305451 12.373311204325693 45.25048042384935 0 0 0
1471 362 7 0.4238 8.170924189601015 6.577074376488097 42.846097832605935 0 0 0
1376 330 7 0.4238 2.1007110364587933 15.55735506205134 37.635442695483036 0 -1 0
1276 297 7 0.4238 4.281608093425373 0.43953900137024604 41.68110784944479 0 1 0
1920 511 6 -0.8476 10.749199912542817 0.2833279093086557 45.21038185554031 0 1 0
1202 272 7 0.4238 0.5681281796445037 17.645025489766674 36.762044664338035 0 -1 0
1084 233 7 0.4238 9.540768586796197 9.45873419693019 43.75747579275059 0 0 0
1085 233 7 0.4238 8.958562625772025 10.207402040375495 42.371474518259 0 0 0
1086 233 6 -0.8476 9.694768393064656 9.63726580085338 42.77640726716166 0 0 0
1090 235 7 0.4238 7.820951721025016 6.161967473489549 40.46720960554408 0 0 0
1091 235 7 0.4238 8.14174623307809 6.68477108068592 38.86978968982063 0 0 0
1092 235 6 -0.8476 7.623591206662762 6.057765146326383 39.45779141359777 0 0 0
1099 238 7 0.4238 6.979139622303861 3.777990527639111 42.28147756519239 0 0 0
1100 238 7 0.4238 6.468003060225314 4.522960387874081 43.70564654643669 0 0 0
1101 238 6 -0.8476 6.22404654024749 4.291390208276843 42.73355566604475 0 0 0
1102 239 7 0.4238 9.015551813126587 13.11176140123359 39.397298808138544 0 0 0
1103 239 7 0.4238 8.067627932700708 14.28928211647223 38.90822822383223 0 0 0
1104 239 6 -0.8476 9.072233381109857 14.007243581638948 38.95706656954223 0 0 0
1114 243 7 0.4238 5.460331577123726 12.61512838473295 40.09090025445899 0 0 0
1115 243 7 0.4238 5.322558024539834 11.912195328419285 41.494473031696984 0 0 0
1116 243 6 -0.8476 4.961435326616794 11.870253813150931 40.53433545552198 0 0 0
1518 377 6 -0.8476 -5.837368364207591 16.335804326909017 41.12493546029973 0 0 0
965 193 7 0.4238 -1.393516199935315 16.486197132558313 42.85211507520509 0 0 0
1841 485 7 0.4238 15.796082870661264 5.5557660209937865 39.88817764882316 0 0 0
1132 249 7 0.4238 4.841855960453375 7.839912755375346 39.228542059480674 0 0 0
1133 249 7 0.4238 5.966329061824681 6.865130433780244 39.63412596604782 0 0 0
1134 249 6 -0.8476 5.490205032002827 7.680689476762449 39.973471808194475 0 0 0
1135 250 7 0.4238 11.36927935163115 9.937000497358959 42.036157672587485 0 0 0
1136 250 7 0.4238 11.647170792146806 8.781328198833604 41.15274845110906 0 0 0
1137 250 6 -0.8476 11.940156308647978 9.750282550988983 41.21547173806955 0 0 0
1144 253 7 0.4238 -7.176993052208156 13.695774515512738 44.45974115659874 0 0 0
1145 253 7 0.4238 -8.587687716953 12.90187238321519 44.17847651276705 0 0 0
1146 253 6 -0.8476 -7.749153228616987 12.909600478481861 44.77029043472605 0 0 0
1150 255 7 0.4238 5.311876287223401 1.1531401949153184 39.81565598605773 0 0 0
1151 255 7 0.4238 5.191169390900712 2.7638065464179284 39.64052641662419 0 0 0
1152 255 6 -0.8476 5.685442510457715 1.9452030303274213 39.25420518613102 0 0 0
1774 463 7 0.4238 3.1249801509292188 2.1626992955544315 43.44184391184941 1 1 0
956 190 7 0.4238 16.364618124270535 1.0866501526528258 43.207753443690265 0 0 0
1973 529 7 0.4238 7.92826821069378 13.583056138764542 36.28874452591477 0 0 0
803 139 7 0.4238 2.7796253805739806 13.331166441193975 35.25476029328374 0 0 0
1278 297 6 -0.8476 4.7799331532997735 0.1508474655836561 40.864511005419374 0 1 0
1325 313 7 0.4238 7.134397376453439 17.494774161955377 39.001556507005134 0 0 0
1192 269 7 0.4238 15.78279551812283 7.019915336057845 36.97926982936994 0 0 0
1193 269 7 0.4238 -3.467221286396239 7.610378264005787 36.9340139882407 1 0 0
1194 269 6 -0.8476 -4.234557935178756 7.499956149030089 37.58909066849657 1 0 0
1472 362 7 0.4238 9.369613303276157 6.912290917118801 41.730130510994194 0 0 0
807 140 6 -0.8476 -0.011767973966965143 12.52656383044696 45.04346119682918 0 0 0
908 174 7 0.4238 15.111336032785038 1.5179241793618643 37.50702791362452 -1 0 0
1213 276 7 0.4238 8.034900681356953 13.496284443742752 42.31542681160119 0 0 0
1214 276 7 0.4238 7.218465547359277 12.114440299119096 42.4281081066325 0 0 0
1215 276 6 -0.8476 8.145968947629699 12.493480926427425 42.20582158805327 0 0 0
1978 531 7 0.4238 2.550904036715629 14.624991672091914 39.177263682130906 0 0 0
1589 401 7 0.4238 17.289105116483434 4.235047661194718 35.81130999368829 0 0 0
868 161 7 0.4238 5.3827641689973005 12.479046257849877 43.92840474103424 0 0 0
1243 286 7 0.4238 4.278897990991585 16.451950251308038 41.46325007560908 0 0 0
1244 286 7 0.4238 5.795974321690685 16.261393546284697 41.909835548038664 0 0 0
1245 286 6 -0.8476 5.013308604696745 15.756997293499799 41.48320871145165 0 0 0
1249 288 7 0.4238 14.88190353719248 0.7638922214488698 44.885754871674045 0 1 0
1250 288 7 0.4238 15.236720182662157 2.2753302802907682 45.405760825422384 0 1 0
1251 288 6 -0.8476 15.545385395571481 1.537561481991716 44.788297497515124 0 1 0
1666 427 7 0.4238 -8.90018187683946 15.809838317739878 36.80561701762276 0 0 0
1282 299 7 0.4238 -1.6465810733682231 3.6255222175048836 46.00190310469555 0 1 0
1521 378 6 -0.8476 0.32617103488151433 3.228215688981719 42.245146373965675 1 0 0
1258 291 7 0.4238 5.5602802792216925 14.739838451760418 44.16145913069488 -1 -1 0
1891 502 7 0.4238 18.753057525396873 0.8774686521241367 44.25969141401454 -1 1 0
1260 291 6 -0.8476 4.9104396111458914 14.030428699558817 44.545473057979905 -1 -1 0
1734 449 6 -0.8476 9.398180196354732 11.517539027790349 40.14252058421251 0 0 0
1332 315 6 -0.8476 3.5697993037279563 18.296279025819214 38.36441916847818 0 0 0
1618 411 7 0.4238 -5.919350801090616 11.914417058719609 35.24609893528503 0 0 0
1356 323 6 -0.8476 7.125736496089534 17.319985607509867 42.1506530227982 0 -1 0
1011 208 6 -0.8476 -0.6628468851252443 12.229531293955755 37.88866783871081 0 0 0
1625 413 7 0.4238 2.453206341199008 10.812807330976668 38.584833966597046 0 0 0
1524 379 6 -0.8476 -2.2036529619213896 18.43376669320233 42.546691379598194 0 0 0
1856 490 7 0.4238 11.931264104201638 3.660986192844314 36.253245459407616 0 0 0
1293 302 6 -0.8476 -4.615733821458484 11.34032076864323 36.14694400080756 1 0 0
1303 306 7 0.4238 -2.674880291283452 15.423004607143916 39.513559529289786 0 0 0
1304 306 7 0.4238 -1.2896599520375855 14.626693205028923 39.70474220001568 0 0 0
1305 306 6 -0.8476 -1.702022546814417 15.540818331640798 39.731559016797654 0 0 0
1897 504 7 0.4238 5.836708637022032 14.377779229885638 35.858883206209484 -1 0 0
1326 313 6 -0.8476 7.171392093392703 16.528796805207495 38.61642484244807 0 0 0
1885 500 7 0.4238 12.466586720022576 1.845246242561024 41.817361209061154 0 0 0
1318 311 7 0.4238 14.922768444169872 5.89650906726871 42.480551432977656 0 0 0
1319 311 7 0.4238 14.096522987827724 5.914222921745146 41.05879379204331 0 0 0
1320 311 6 -0.8476 14.119495890736786 6.2169566850412314 42.028688761610425 0 0 0
1932 515 6 -0.8476 2.8243871833665075 5.512019022904775 44.51292701989182 0 0 0
1881 498 6 -0.8476 13.114142136604183 6.703544024899198 38.04855473877826 0 0 0
1872 495 6 -0.8476 7.672625926696945 0.43031522053127175 37.20410259466808 0 0 0
1980 531 6 -0.8476 3.155316166546135 14.395652498852078 38.39050086535176 0 0 0
1328 314 7 0.4238 -5.4486800729613964 17.63832279772333 36.70028517098279 0 0 0
1329 314 6 -0.8476 -5.389292432930148 16.70624531215866 36.32065694817068 0 0 0
870 161 6 -0.8476 5.714506387490674 11.890602719694146 43.20911183166519 0 0 0
1970 528 7 0.4238 2.026990474158741 6.161009637818647 40.985559601665585 0 0 0
1006 207 7 0.4238 -1.3734949995591432 12.571586174936359 43.00234600380204 0 0 0
1367 327 7 0.4238 9.769423806239306 2.728963802747473 35.1814285254619 0 0 0
1444 353 7 0.4238 -0.3837137743595709 1.3470911835773556 36.44499058230179 0 0 0
1347 320 6 -0.8476 1.3953895625222985 18.514142508178082 45.5734853227615 0 0 0
1879 498 7 0.4238 13.121716416320043 7.501680960323864 37.41146285119722 0 0 0
1351 322 7 0.4238 0.9983450590927517 3.757417664169422 34.953528901428754 0 0 0
895 170 7 0.4238 11.683749129002214 8.919316532822172 35.96998469257581 -1 0 0
1357 324 7 0.4238 -10.901800494300712 16.463044954520246 42.11975332536435 0 -1 0
1358 324 7 0.4238 -10.289358280802654 16.01939409988663 43.38148290512957 0 -1 0
1359 324 6 -0.8476 9.647052295252132 15.684345967737388 42.73603720300918 -1 -1 0
1567 394 7 0.4238 7.75621766759515 1.972628721178686 42.97294678552693 0 0 0
1639 418 7 0.4238 5.576715568887901 17.56992166510254 35.68295061722715 0 0 0
1975 530 7 0.4238 4.343782308121594 10.699221153513632 36.840418122041946 0 0 0
1425 346 6 -0.8476 -2.8147527062816304 16.78015409839005 36.97466193741449 0 -1 0
1515 376 6 -0.8476 3.474761740004228 8.043601478720023 38.09701521529058 0 0 0
1833 482 6 -0.8476 11.071380341451555 3.038035182317588 45.62382568487585 0 0 0
1927 514 7 0.4238 6.719649379758924 16.606484928271506 43.5503248787218 0 0 0
1345 320 7 0.4238 0.4247325943602588 18.292577365255873 45.27977977287119 0 0 0
1520 378 7 0.4238 1.0057346568046956 3.063387232338877 41.52474327661137 1 0 0
1733 449 7 0.4238 9.0959132513343 12.00443653180339 41.015602956348054 0 0 0
1840 485 7 0.4238 14.365188433206727 5.514301623664378 39.04860920880004 0 0 0
909 174 6 -0.8476 15.215253581394697 2.16835777018031 36.74341632019462 -1 0 0
1399 338 7 0.4238 1.0097890415438622 3.9326250619046337 38.269660132877824 0 0 0
1400 338 7 0.4238 2.3898791969134305 3.593170046007648 37.44029440416792 0 0 0
1401 338 6 -0.8476 1.918564218928107 3.4528806257648315 38.32399143619438 0 0 0
1402 339 7 0.4238 1.8980605361294753 0.02907276449133691 42.52041298796988 0 0 0
1403 339 7 0.4238 1.7916442407401851 0.09874744007334532 40.88533799844744 0 0 0
1404 339 6 -0.8476 -10.603846053772887 18.17552760914627 41.69522284376867 0 -1 0
1405 340 7 0.4238 -1.2273742991048715 4.589509090797944 38.04169215004952 1 1 0
1406 340 7 0.4238 -1.1124404317571825 4.818151533735655 39.531365467941 1 1 0
1407 340 6 -0.8476 -0.5119237326214009 4.752714449354777 38.74658904775451 1 1 0
1699 438 7 0.4238 9.178739722585016 4.82005017735586 43.795522238301324 0 0 0
1906 507 7 0.4238 8.40639514200105 8.838745727651323 39.11344226136149 0 0 0
1380 331 6 -0.8476 14.053494989190211 2.4416922384492232 40.42390559965241 0 0 0
1979 531 7 0.4238 4.018044810400621 14.038459888458634 38.762318226990594 0 0 0
1929 514 6 -0.8476 6.322364395389911 16.081256358998974 44.350915355939826 0 0 0
1741 452 7 0.4238 8.61436140329005 11.613145280038564 35.712494143521916 0 0 0
1961 525 7 0.4238 -2.359434685611949 5.842213240127119 40.67057125317012 1 0 0
867 160 6 -0.8476 2.6237946005039015 3.6518024477552333 35.2910985780187 0 0 0
1516 377 7 0.4238 -5.170727000365279 17.068390175852866 40.80380821081369 0 0 0
1327 314 7 0.4238 -4.388882897531036 16.649778221290326 36.48500523013697 0 0 0
966 193 6 -0.8476 -0.4574723151398772 16.242653352106036 43.08215856477754 0 0 0
1185 266 6 -0.8476 10.3713599999437 6.208411696075006 37.50605617040337 0 0 0
1894 503 7 0.4238 0.3101651810406877 10.959202366266489 38.39980515758409 0 0 0
1716 443 6 -0.8476 -6.55106933599008 15.281125496694909 43.649292012422066 0 0 0
955 190 7 0.4238 16.09395824140664 0.07664352395519983 42.0779761958786 0 0 0
1462 359 7 0.4238 -7.344433848639402 11.549901133555915 37.83724510637348 0 -1 0
1463 359 7 0.4238 -6.878176417630553 13.012351701897105 38.25335312818222 0 -1 0
1464 359 6 -0.8476 -6.501107989533734 12.120169316942052 37.94800441104787 0 -1 0
1009 208 7 0.4238 -1.43677828011277 12.564811420981679 38.46994998895658 0 0 0
866 160 7 0.4238 3.3044014468915943 4.38126870961226 35.42283785964511 0 0 0
1201 272 7 0.4238 0.05128013143207655 18.54259550240799 35.61658642579498 0 -1 0
1474 363 7 0.4238 -5.819816284315972 11.381452921380713 39.512654662378154 0 0 0
1475 363 7 0.4238 -5.8522937649765066 11.10274632341476 41.15295322955255 0 0 0
1476 363 6 -0.8476 -5.23716319436288 11.238652050459285 40.34263446328913 0 0 0
1477 364 7 0.4238 3.6963258534710484 11.300115903182409 41.48436782268795 0 0 0
1478 364 7 0.4238 2.992946433229715 12.121516715514918 42.53110697826768 0 0 0
1479 364 6 -0.8476 2.891339071819883 11.19020231822907 42.126643839929685 0 0 0
1871 495 7 0.4238 8.604878141996204 0.1065490159350939 37.513831563323706 0 0 0
1797 470 6 -0.8476 -4.830995181444896 8.668470497696294 44.99461517691837 0 0 0
1787 467 7 0.4238 -4.115248951869547 15.6922221061408 45.82633627476373 0 0 0
1253 289 7 0.4238 6.011992189483585 3.484295943726047 45.79578603039399 0 1 0
1908 507 6 -0.8476 9.105530140486001 8.574973180032176 38.40403014413193 0 0 0
1497 370 6 -0.8476 12.519419029713848 1.166150730753752 38.451946947069764 0 1 0
1126 247 7 0.4238 0.3142113596393896 8.619752360233166 43.8777917874429 0 0 0
1514 376 7 0.4238 2.561884238491753 7.729541000792279 38.46888637806619 0 0 0
844 153 7 0.4238 -1.4092253637157957 5.129195492745713 44.22713560140681 1 0 0
1496 370 7 0.4238 12.809629324863065 1.4563532888408193 37.52332846733545 0 1 0
1277 297 7 0.4238 -7.00138957253863 17.86727832733889 41.06845001808307 0 0 0
1588 401 7 0.4238 16.134277190432314 3.2735864593450352 35.41432110651263 0 0 0
1369 328 7 0.4238 13.310784299717605 10.715816965884226 42.64958809406565 -1 0 0
845 153 7 0.4238 -0.18327769124995577 6.025199948559479 43.55004388941417 1 0 0
1504 373 7 0.4238 0.9457634990124608 0.1873346473809475 44.45048887881548 0 1 0
1534 383 7 0.4238 9.816760045413728 12.77025259054162 42.954328597555936 0 0 0
1535 383 7 0.4238 10.443817506378059 14.230549395365784 43.33677124460321 0 0 0
1536 383 6 -0.8476 10.597496770248451 13.219268018697463 43.423401588542745 0 0 0
1561 392 7 0.4238 -0.715117791478878 2.025622713289154 42.51102897218237 1 1 0
1562 392 7 0.4238 18.489766161552108 1.5486286442802035 42.19804032807874 0 1 0
1563 392 6 -0.8476 19.283668382656966 1.29422772991495 42.76954001235168 0 1 0
897 170 6 -0.8476 10.867165624357838 9.105569572931026 35.40122011224796 -1 0 0
1568 394 7 0.4238 8.469431451862128 0.7046736641360565 43.55483087499118 0 0 0
1569 394 6 -0.8476 7.8288232709065 1.4475299519364078 43.855887354444455 0 0 0
1573 396 7 0.4238 6.5373064295917 10.398562794634548 39.58750442589288 0 0 0
1574 396 7 0.4238 6.603975156223006 9.124444043168582 40.353111594407665 0 0 0
1575 396 6 -0.8476 7.248664907539156 9.808744341216284 39.970642823366845 0 0 0
1371 328 6 -0.8476 -6.373738327272496 10.805785370277281 42.88785042051911 0 0 0
1899 504 6 -0.8476 6.356781584682742 13.786957893989818 36.496919024625626 -1 0 0
1880 498 7 0.4238 12.211274927645249 6.293425381376527 37.933908537206015 0 0 0
1389 334 6 -0.8476 9.235162728406152 16.273533900735593 37.02744815878204 -1 -1 0
1887 500 6 -0.8476 11.582517670264918 1.8569570611480235 42.350989484661284 0 0 0
1037 217 7 0.4238 -1.9263238407167116 7.715065525934273 43.55588665441823 1 0 0
1603 406 7 0.4238 -3.068056389106419 16.88925919519933 40.48568166065439 0 -1 0
1604 406 7 0.4238 -3.11621017424875 18.41772239394247 39.93049563071943 0 -1 0
1605 406 6 -0.8476 -3.661700562491586 17.68433314936271 40.373388909247964 0 -1 0
1606 407 7 0.4238 12.244659818808316 10.685951581464282 39.66606522872888 0 0 0
1607 407 7 0.4238 10.805397725892888 11.25446317727527 39.277298106767816 0 0 0
1608 407 6 -0.8476 11.76615952624493 11.21145246264951 38.91585994438465 0 0 0
1615 410 7 0.4238 5.531813890386897 6.635118729908765 43.174040916226176 0 0 0
1616 410 7 0.4238 4.992198712674487 7.6015835455362515 41.89306561179077 0 0 0
1617 410 6 -0.8476 4.750362294609505 7.184689404242151 42.82686861087348 0 0 0
1960 525 7 0.4238 -1.7810431610584048 5.225418836198822 42.110791153263506 1 0 0
797 137 7 0.4238 2.00570254165379 14.201120133862203 43.467621107074905 0 0 0
1597 404 7 0.4238 6.569174076123259 9.784686693057258 45.55334731525492 0 0 0
1628 414 7 0.4238 -1.8357514324537516 11.286623037381942 35.04290769575823 0 0 0
1649 421 7 0.4238 -10.07122659897675 15.013751491616684 39.110556722701226 0 -1 0
1650 421 6 -0.8476 -9.431081592528988 15.66384977173682 38.662643836461264 0 -1 0
1122 245 6 -0.8476 1.0791732793769317 1.9893133633189677 44.36319502767918 1 1 0
869 161 7 0.4238 5.739501405139904 11.079445984499172 43.825549595219634 0 0 0
865 160 7 0.4238 3.150057467029844 2.789646521219936 35.17729393742594 0 0 0
1657 424 7 0.4238 -2.4713852165016847 3.4589406655426975 40.593815653200735 1 1 0
1658 424 7 0.4238 17.48638791488621 2.059222504430855 41.06788613784189 0 1 0
1659 424 6 -0.8476 18.11652351974393 2.4680038175129644 40.37790225276191 0 1 0
1660 425 7 0.4238 -3.943481954980967 6.410878714059837 44.03352473783866 1 0 0
1661 425 7 0.4238 17.074029821851703 4.87144160739691 44.34499998576212 0 0 0
1662 425 6 -0.8476 16.322849386785613 5.482323798785789 44.05501399576133 0 0 0
1663 426 7 0.4238 4.156759908382035 6.700715090348062 35.402586536241415 0 0 0
1664 426 7 0.4238 4.081443663343781 6.850068699111341 36.98616320882691 0 0 0
1665 426 6 -0.8476 4.15179334508105 6.127252000326347 36.25073446232297 0 0 0
1331 315 7 0.4238 4.389371282282934 17.886331435759786 37.93841502337824 0 0 0
1410 341 6 -0.8476 5.77754344022686 4.1027202558049565 36.80406648441043 0 0 0
1907 507 7 0.4238 9.044825850190117 9.33189255285577 37.73941978832924 0 0 0
1678 431 7 0.4238 -2.5374955576777745 10.760236690927005 41.69109009087095 0 0 0
1679 431 7 0.4238 -3.766407749784804 10.49796389914318 40.72839077952536 0 0 0
1680 431 6 -0.8476 -2.889042934650687 10.059433292195102 41.015533130041426 0 0 0
1687 434 7 0.4238 0.4921331830772931 11.043151079366986 43.79486959097189 0 0 0
1688 434 7 0.4238 1.529491411582057 10.556883212242997 42.62259756887889 0 0 0
1689 434 6 -0.8476 0.6268447486661323 10.320116313229278 43.078207632818376 0 0 0
1446 353 6 -0.8476 19.44905820986067 1.4881181510992063 35.86955596264153 -1 0 0
1519 378 7 0.4238 -0.21815583821261877 4.060216770826472 42.00975273153435 1 0 0
863 159 7 0.4238 -8.296527284884723 17.636126634792838 45.04976230566304 0 0 0
1648 421 7 0.4238 -10.063589787223822 15.932383498162865 37.9017717784805 0 -1 0
1619 411 7 0.4238 -7.393741155680853 12.423599228796139 35.13476248361069 0 0 0
1506 373 6 -0.8476 -11.523365185833402 17.846586101815337 44.60725529985223 0 0 0
937 184 7 0.4238 0.5969187323939465 15.541434502752523 44.08444320482181 0 0 0
1147 254 7 0.4238 0.7400189233173549 15.24430543777471 36.73804169230487 0 -1 0
1409 341 7 0.4238 5.726878802204394 3.747270753835575 37.76238197849044 0 0 0
1705 440 7 0.4238 2.252067704574805 14.590027722840295 41.45479416228035 -1 0 0
1706 440 7 0.4238 1.1167031161552134 14.482348234401112 40.353790195740395 -1 0 0
1707 440 6 -0.8476 1.9707137216749564 14.927421411562538 40.557590551757585 -1 0 0
1726 447 7 0.4238 4.933433828307096 3.899663318014499 41.75105864264552 0 0 0
1727 447 7 0.4238 3.6865084619367123 4.539286015628153 40.93889988114526 0 0 0
1728 447 6 -0.8476 4.51645429301905 3.9247466797687274 40.786621148306075 0 0 0
1186 267 7 0.4238 3.6408202895056108 14.685669120622997 36.351717576158464 0 -1 0
1528 381 7 0.4238 14.7459213997634 4.824164254484163 44.62545665888908 0 0 0
1128 247 6 -0.8476 0.6527930192931394 7.805705315266903 44.359973392878004 0 0 0
1505 373 7 0.4238 8.738571467922053 17.466630518834894 43.7854177394819 -1 0 0
1522 379 7 0.4238 -2.815165103283608 18.306185636519185 41.74615657933564 0 0 0
1859 491 7 0.4238 19.031935911929008 1.0614581139763024 39.80123550775848 0 1 0
953 189 7 0.4238 -3.4335310223577933 14.661149560347916 34.996861285406816 1 0 0
1626 413 6 -0.8476 3.420239737285779 10.876616993095947 38.2209706459707 0 0 0
1976 530 7 0.4238 3.928062359367706 11.220140004912533 35.39460736008217 0 0 0
1691 435 7 0.4238 9.129930389912706 8.041321515941718 45.82908855420389 -1 0 0
1896 503 6 -0.8476 0.9639489604996012 10.225402480129855 38.73208180107408 0 0 0
1743 452 6 -0.8476 8.372675925378136 10.635763246192676 35.62972249623407 0 0 0
1747 454 7 0.4238 -3.152452949695331 8.266076857870525 40.30433572053047 0 0 0
1748 454 7 0.4238 -3.659682347888249 7.392825408098895 39.03028579867837 0 0 0
1749 454 6 -0.8476 -3.157045691876771 7.329814601005134 39.92655947237494 0 0 0
1753 456 7 0.4238 0.5401387896063701 11.9992677922487 41.04073918554134 0 0 0
1754 456 7 0.4238 -0.9553625853334661 12.463399085444326 41.2167083164756 0 0 0
1755 456 6 -0.8476 -0.07764730661823757 12.762828845601295 40.81299593526683 0 0 0
1393 336 7 0.4238 17.783611994834114 3.165677817195225 38.082839792907016 0 1 0
1715 443 7 0.4238 -6.275257705067782 15.789883181957244 42.79651378029615 0 0 0
1700 438 7 0.4238 9.617507712729072 3.7331841095393523 45.02054894128472 0 0 0
1640 418 7 0.4238 18.57527957545509 0.08886881164046453 36.20791769177763 0 1 0
1007 207 7 0.4238 -2.859917512138144 12.021131275376241 43.28748254222684 0 0 0
1629 414 6 -0.8476 -1.947553601446914 10.821302759363627 35.95062073915588 0 0 0
1886 500 7 0.4238 11.39733343893555 2.820466145453516 42.573013783812684 0 0 0
1796 470 7 0.4238 -4.666059522729032 9.36105856568945 45.73117320467775 0 0 0
1930 515 7 0.4238 3.6806719745841034 6.0318788348830905 44.46881715394175 0 0 0
1798 471 7 0.4238 10.018838919955055 4.1199296424006135 38.55412826241351 0 0 0
1799 471 7 0.4238 8.687446929500299 4.407696890477768 39.38940376696699 0 0 0
1800 471 6 -0.8476 9.361783900617263 3.6797368855920394 39.156748078574026 0 0 0
1807 474 7 0.4238 13.82177643546267 9.556158343208926 36.34169819511642 0 0 0
1808 474 7 0.4238 14.103831647608441 8.19762868765507 35.56413087072744 0 0 0
1809 474 6 -0.8476 13.419952918433614 8.675948427194296 36.14014379627966 0 0 0
1822 479 7 0.4238 -7.840432658852143 15.948483616004584 38.45871451894666 1 -1 0
1627 414 7 0.4238 -1.4368994778393775 11.297865184217105 36.70871090313986 0 0 0
954 189 6 -0.8476 -2.423587095157144 14.728063770465399 35.2315555823625 1 0 0
1813 476 7 0.4238 2.174342170564478 9.130333301050754 35.60378140663061 0 0 0
1814 476 7 0.4238 1.0205176307253132 9.564757915915388 36.533135546368406 0 0 0
1815 476 6 -0.8476 1.1537368379895594 9.24117749135582 35.59477398892559 0 0 0
1857 490 6 -0.8476 12.600211349052858 2.9172720330143465 36.30952524353772 0 0 0
1823 479 7 0.4238 -6.480914469503578 15.984689947157682 37.575941544919864 1 -1 0
1824 479 6 -0.8476 -6.833926303502548 15.762812107746427 38.524363436157365 1 -1 0
1714 443 7 0.4238 -5.878148129124992 15.561299788503812 44.385571340205985 0 0 0
1204 273 7 0.4238 2.9815378597051363 9.615712245932475 45.94840329013641 0 0 0
1008 207 6 -0.8476 -2.1005419995147463 11.939108587863613 42.6302935476398 0 0 0
964 193 7 0.4238 -0.0829085754264771 16.691071965180914 42.228452167866415 0 0 0
1962 525 6 -0.8476 -2.0897172026392115 4.957513153689064 41.15307449612422 1 0 0
902 172 7 0.4238 1.123245060106008 3.6892135812205016 45.91404070344645 0 0 0
1354 323 7 0.4238 7.260606146947996 18.30859994483272 42.30280831346946 0 -1 0
1732 449 7 0.4238 8.659847446383042 10.825376131929229 40.03388383532791 0 0 0
1624 413 7 0.4238 3.808578297503585 11.511006497223049 38.90789484018987 0 0 0
1529 381 7 0.4238 13.183212652585711 5.327986785443868 44.94724546704961 0 0 0
1530 381 6 -0.8476 13.81277962997695 4.536544033011104 44.95384164503951 0 0 0
1473 362 6 -0.8476 8.670206507432518 6.253443174690944 42.01590351315248 0 0 0
1971 528 6 -0.8476 2.557082051704411 5.760054899457549 41.74864916269438 0 0 0
994 203 7 0.4238 3.181862307230173 2.2243781369994418 40.79959798768431 0 0 0
996 203 6 -0.8476 2.183252614084671 2.045648302267002 40.72572713942347 0 0 0
1972 529 7 0.4238 9.276783370604537 14.359338694918744 36.53752538221588 0 0 0
1291 302 7 0.4238 -3.646760287270414 11.129210175332577 36.29869644280332 1 0 0
1701 438 6 -0.8476 9.030557190722654 4.519114875778754 44.75224103633963 0 0 0
1379 331 7 0.4238 14.20362435297206 3.373800313788983 40.02865020499521 0 0 0
1036 217 7 0.4238 -2.5055279917003856 8.724477204910807 42.334429049325784 1 0 0
1918 511 7 0.4238 -1.8256724200982635 18.606692857675256 44.30880370279006 0 0 0
1375 330 7 0.4238 2.4417927662993977 17.162642155122068 37.76504805819361 0 -1 0
1183 266 7 0.4238 10.081553587978792 7.019842789528758 38.04486696402842 0 0 0
1127 247 7 0.4238 1.685565593315082 7.741740769734815 44.478295096246974 0 0 0
990 201 6 -0.8476 -1.3063647698428094 8.167062471074654 35.841425949341144 0 0 0
1974 529 6 -0.8476 8.952963199232503 13.468206002143665 36.175091894917955 0 0 0
988 201 7 0.4238 -1.6893463790443453 9.102465560092673 35.94890281167257 0 0 0
1788 467 6 -0.8476 -4.780883525842318 14.935811945656411 45.75238874061591 0 0 0
1838 484 7 0.4238 7.681378362299058 6.978731036759361 45.00589325858532 0 0 0
1928 514 7 0.4238 6.820823197968965 16.34385106247129 45.19746652509597 0 0 0
862 159 7 0.4238 3.487795327995391 0.12943634574412202 46.120351149288425 0 1 0
1445 353 7 0.4238 -0.9268855539575845 2.230450302171415 35.22434986897699 0 0 0
939 184 6 -0.8476 1.206195825535682 15.05790466262006 44.76314686726296 0 0 0
1188 267 6 -0.8476 4.0117817373674365 15.38513278754672 35.69263735206236 0 -1 0
1837 484 7 0.4238 7.098038206277011 8.018532205766807 44.04338568767823 0 0 0
1839 484 6 -0.8476 7.340440764544928 7.046648564580361 44.03200155818282 0 0 0
1599 404 6 -0.8476 5.956897670578119 9.518822963704118 44.75382468813956 0 0 0
1121 245 7 0.4238 0.9572973978922561 2.4810109803368054 43.44773875332709 1 1 0
1259 291 7 0.4238 4.95873174206538 14.288336853600173 45.489537274300574 -1 -1 0
890 168 7 0.4238 6.830172950704133 1.6657331999247658 45.19214806558417 0 1 0
1922 512 7 0.4238 5.570098602431325 3.5020649614387787 35.186395940145005 0 1 0
1898 504 7 0.4238 6.04620165182676 13.967008621881348 37.44252706069694 -1 0 0
1692 435 6 -0.8476 9.455439358889958 8.971304186247071 45.517554915837195 -1 0 0
1668 427 6 -0.8476 -8.70405167341583 15.557002848081668 35.84192910770487 0 0 0
1203 272 6 -0.8476 -0.2911482937860354 18.00439139805088 36.37069527271851 0 -1 0
1429 348 7 0.4238 9.08785407336241 17.015985345209778 46.14794820362423 -1 0 0
1892 502 7 0.4238 17.475864425958942 1.0412212047720166 45.37507697704904 -1 1 0
1538 384 7 0.4238 -5.440971855717643 15.346139361420448 35.10847069191511 0 0 0
1252 289 7 0.4238 7.21974312222 4.567091652339055 45.5868785518821 0 1 0
1286 300 7 0.4238 8.314841516787585 1.1956416453395249 35.69992597507023 0 0 0
1914 509 6 -0.8476 9.321890664502888 12.251128338645628 46.20800420337514 0 0 0
1893 502 6 -0.8476 18.44506180769172 0.7359959846949357 45.24597325360801 -1 1 0
1254 289 6 -0.8476 6.198695898798903 4.466800857271387 45.55405724950846 0 1 0
979 198 7 0.4238 -9.559533918053086 15.658044610486108 45.59029007501214 1 0 0
1919 511 7 0.4238 10.683405995302145 1.30128528808466 45.24158694466672 0 1 0
804 139 6 -0.8476 2.68530301543654 12.33931894977458 35.066415120955774 0 0 0
1441 352 7 0.4238 -2.3188004413439027 17.646182866296215 45.76745779525946 0 0 0
1368 327 6 -0.8476 10.371574489114455 3.5492070748908637 34.99622157515684 0 0 0
1633 416 7 0.4238 -8.417898866359204 17.521843296896392 34.99553165208715 0 0 0
1690 435 7 0.4238 8.78230961325186 9.608820106492335 45.97307657464389 -1 0 0
1283 299 7 0.4238 18.016507464551715 2.9950903863999647 45.06480586950494 -1 1 0
805 140 7 0.4238 -0.49996431188814267 12.671726017725243 45.936581848818946 0 0 0
864 159 6 -0.8476 -8.122478465635398 18.597899069982553 45.37005908370033 0 0 0
891 168 6 -0.8476 6.013986916957591 1.7781071460278826 45.81411877834141 0 1 0
938 184 7 0.4238 1.3111185000716319 15.770540030187783 45.484948865722906 0 0 0
1034 216 7 0.4238 -3.678779202789205 11.25523445400832 45.74538068276648 0 0 0
1634 416 7 0.4238 3.7311915552633628 0.2667876370889462 35.781515878629214 0 1 0
1295 303 7 0.4238 -3.868045264194788 7.564040599830699 46.012039626978485 0 0 0
1832 482 7 0.4238 11.78065839901003 3.6628118396803915 45.30764252915958 0 0 0
1120 245 7 0.4238 0.12831691484043214 1.995801321885659 44.68754673561664 1 1 0
889 168 7 0.4238 5.338919743366667 1.152373830533145 45.38095372456692 0 1 0
1022 212 7 0.4238 5.138746870737277 5.857428260888811 46.16562602932529 0 0 0
901 172 7 0.4238 1.247222828843124 5.256101828208369 46.13288536041545 0 0 0
1063 226 7 0.4238 -1.2581716815549195 6.858499660310958 34.910135105449584 0 0 0
1675 430 7 0.4238 5.696477583257235 9.564453107255758 35.043375234895244 0 0 0
1635 416 6 -0.8476 -8.099083059894372 18.466602445049727 34.969298436779354 0 0 0
982 199 7 0.4238 12.407247826276821 10.047573851646115 46.19962298180201 0 0 0
1810 475 7 0.4238 15.872979810075616 5.904596842358744 34.920452934925706 -1 0 0
793 136 7 0.4238 5.391104861454081 11.665802767996492 53.777165386715296 0 0 0
794 136 7 0.4238 5.557680651280857 10.105725514623293 53.413994357014715 0 0 0
795 136 6 -0.8476 5.207584964654177 10.76229923960011 54.10460151576208 0 0 0
799 138 7 0.4238 7.831580045138295 1.9898650704831973 51.31165044544736 0 0 0
800 138 7 0.4238 6.814893351678484 1.625315370707676 50.0438227875386 0 0 0
801 138 6 -0.8476 7.286074624355566 1.2789898686227497 50.85180022567496 0 0 0
1159 258 7 0.4238 4.200029631477667 7.33082815572303 52.362184933593014 0 0 0
1049 221 7 0.4238 11.964224871168483 1.5833914377275229 51.409887016756294 0 1 0
1466 360 7 0.4238 8.133250635922455 13.352926688251904 46.760019972640386 0 0 0
817 144 7 0.4238 -3.890054133740983 11.617051199651415 49.64998473840813 0 0 0
818 144 7 0.4238 -2.5610122112024016 12.402715354002757 50.20929942377005 0 0 0
819 144 6 -0.8476 -3.309973648762505 12.442316954619692 49.51619927057395 0 0 0
820 145 7 0.4238 7.581729128773742 4.943081261621018 56.22032436407321 0 0 0
1361 325 7 0.4238 7.645957844832847 11.11588925946154 46.960598966372025 0 0 0
1050 221 6 -0.8476 11.421986992140358 2.3549083349887745 50.95197338330682 0 1 0
823 146 7 0.4238 -0.2448980058344236 9.689686452331175 56.49797664247476 0 0 0
973 196 7 0.4238 4.757428693826621 7.734858299050629 50.546217270441126 0 0 0
1736 450 7 0.4238 8.697823587149623 6.971749374690643 47.30839157440461 0 0 0
841 152 7 0.4238 -5.235317466368141 18.57602452703049 54.3375795052125 0 -1 0
842 152 7 0.4238 6.4275670286437006 1.3528742223541195 54.07748407913614 0 0 0
843 152 6 -0.8476 6.1384036969078855 0.3677860561372813 53.965460207162835 0 0 0
1247 287 7 0.4238 8.207158410382997 12.472837011411215 56.59712243889459 0 0 0
1014 209 6 -0.8476 6.698327956828094 16.102071374632054 53.89239823666655 0 0 0
1936 517 7 0.4238 9.369136096973524 7.447441424542848 53.953460225534315 0 0 0
847 154 7 0.4238 -1.0604854789226186 5.746050396496527 50.83716506589164 1 1 0
848 154 7 0.4238 -1.9159365273513926 4.573794961399715 51.60013144307237 1 1 0
849 154 6 -0.8476 -1.516928372445709 5.500848117451887 51.69359675778518 1 1 0
859 158 7 0.4238 -5.890946762981575 9.970840487073826 49.86178483571969 0 0 0
860 158 7 0.4238 -5.540587948982669 10.727912819167612 51.24243387561165 0 0 0
861 158 6 -0.8476 -5.098621581438187 10.343527374763598 50.41570783559016 0 0 0
1786 467 7 0.4238 -5.37535500756847 14.920077833015968 46.5494345305552 0 0 0
872 162 7 0.4238 -6.2228151418968665 11.682734287991254 47.040238523903106 0 0 0
873 162 6 -0.8476 -7.214880534810323 11.447595191742932 47.108245159519576 0 0 0
874 163 7 0.4238 -1.4120517194278817 12.91724275778366 52.784985070212635 0 0 0
1236 283 6 -0.8476 -11.940640823068449 17.934902317906143 49.25836005963973 1 0 0
1048 221 7 0.4238 10.47471952782721 2.426079868658233 51.338492250570994 0 1 0
883 166 7 0.4238 1.9441599880431757 12.600141428026994 51.28753139989467 0 0 0
884 166 7 0.4238 2.0707782174534226 13.013293275080162 52.863572796539906 0 0 0
885 166 6 -0.8476 2.403163816882836 13.240881964878268 51.926049207119505 0 0 0
1074 229 6 -0.8476 13.837770346133228 3.850742230473822 55.422024122922856 0 0 0
1309 308 7 0.4238 4.660869023569758 13.233235345744603 49.91066721335523 0 0 0
1453 356 7 0.4238 14.024801639006096 3.5526816605202463 46.57424661189822 0 0 0
1029 214 6 -0.8476 10.820900548087916 7.298733461325641 56.90557955077467 0 0 0
927 180 6 -0.8476 12.273100922627712 2.8634398466285886 57.40575218663346 0 0 0
1021 212 7 0.4238 5.879437278675327 7.091886219218324 46.86773288015988 0 0 0
1551 388 6 -0.8476 14.001156315830395 7.243269701499623 47.43731398824389 0 0 0
1166 260 7 0.4238 6.141813137855308 12.982194090658192 51.8612453611552 0 0 0
1001 205 7 0.4238 4.736609814231686 10.092939329168916 48.268808959464884 0 0 0
922 179 7 0.4238 4.327752000835984 2.791679654262685 52.081198514299246 0 0 0
1968 527 6 -0.8476 -3.9096476185134184 5.836220466828529 54.9873047465135 1 0 0
924 179 6 -0.8476 4.846796919565253 3.6427963218710495 52.06279204300282 0 0 0
1294 303 7 0.4238 -3.2052994615047243 7.205942382460757 47.38771622896964 0 0 0
1454 356 7 0.4238 14.035305286753111 2.9026597453123886 48.03338547889432 0 0 0
410 91 7 0.4238 -4.8727630812400315 9.72321650591842 56.77914646181037 0 0 -1
1033 216 7 0.4238 -2.923222895651794 10.688518762134581 46.961530155209616 0 0 0
1550 388 7 0.4238 14.165055502493658 7.210057533494049 46.43364968578599 0 0 0
1694 436 7 0.4238 15.209338036421393 0.37773534082750465 48.49364608587517 0 1 0
1924 513 7 0.4238 5.217844701780887 15.726874764900689 49.92886019970281 0 0 0
1848 487 6 -0.8476 12.779799602580844 0.39615066278121686 52.12718940210114 0 1 0
1944 519 6 -0.8476 18.825303091403043 0.026657279161448735 51.624741046864685 0 1 0
1310 308 7 0.4238 4.030011454714566 12.855307210232484 51.400346593992865 0 0 0
950 188 7 0.4238 -2.553853826369925 12.265110208514972 56.458320439935676 0 0 0
951 188 6 -0.8476 -2.864042857922753 11.931373843363009 55.55509197263933 0 0 0
958 191 7 0.4238 -0.2259701027619781 11.787928264380772 50.95687396232612 1 0 0
959 191 7 0.4238 -1.5253179680776223 11.09534124724051 51.57042015719467 1 0 0
960 191 6 -0.8476 -1.1973016452888663 11.970985729210543 51.2616801987833 1 0 0
1391 335 7 0.4238 12.52293581554647 1.203876814708366 48.19339148787695 0 0 0
962 192 7 0.4238 2.2418135764456237 15.192737758529274 56.21237956051504 0 0 0
408 91 6 -0.8476 -4.713749311550615 10.627086211421176 57.17056675067757 0 0 -1
1685 433 7 0.4238 1.6647734035081274 1.9664023804370532 48.63059689312404 0 1 0
649 44 4 -0.95 4.113237834816377 9.653104701723239 57.48815591656371 0 0 -1
1693 436 7 0.4238 2.2246709733847227 18.45208946559503 49.79049864820339 0 0 0
923 179 7 0.4238 4.995978136589607 3.9629980182369793 51.08657463870248 0 0 0
1652 422 7 0.4238 10.266007810062478 15.262584023640413 47.269225880430724 -1 0 0
1392 335 6 -0.8476 12.044691909824556 2.0839010123874364 48.31266834404634 0 0 0
1553 389 7 0.4238 1.00029795472448 10.138300492317025 50.50114910571308 0 0 0
1937 517 7 0.4238 8.16745737320211 6.639108946524936 54.72925915417401 0 0 0
1234 283 7 0.4238 8.806056496185633 17.315708480250994 50.070053870052 0 0 0
1039 218 7 0.4238 13.579808251036589 9.156956940462313 53.0936940156215 0 0 0
1040 218 7 0.4238 12.658735857707185 8.674903212256275 54.32292839322 0 0 0
1041 218 6 -0.8476 13.363698018019312 8.324091407497699 53.671855372767354 0 0 0
1042 219 7 0.4238 1.7921288504843993 6.883444737503046 53.36205682825438 0 0 0
1043 219 7 0.4238 1.5735925625529605 5.306665693831291 52.658675962980595 0 0 0
1044 219 6 -0.8476 1.4976592357330112 5.915309265918559 53.51102485256818 0 0 0
1360 325 7 0.4238 7.0704195219732915 9.949313975490375 47.841015201761316 0 0 0
409 91 7 0.4238 -4.098723482976157 11.182412964050311 56.5200271685747 0 0 -1
1992 535 6 -0.8476 -1.447037459050691 17.159380414457196 52.585075541345034 0 0 0
1060 225 7 0.4238 2.295245783120691 4.826849716762513 50.57884779258837 0 0 0
1061 225 7 0.4238 2.641051055587846 6.405805223120211 50.79185850254744 0 0 0
1062 225 6 -0.8476 2.622452451204395 5.676563037620056 50.08512256855233 0 0 0
1066 227 7 0.4238 13.88377815932729 1.5729501254926264 52.864490036807254 0 0 0
1067 227 7 0.4238 14.899759290688408 2.8843734959728358 52.54248683252386 0 0 0
1068 227 6 -0.8476 14.672036851872186 2.128434944541215 53.22692722635374 0 0 0
1094 236 7 0.4238 -7.06703899092621 18.352683046456928 54.92737976065668 0 0 0
1501 372 7 0.4238 -3.051153114981197 15.274548192067735 49.79020205377911 0 0 0
696 44 5 0.425 3.464943896536548 10.227784066206128 56.88152543360985 0 0 -1
1078 231 7 0.4238 -6.844979028739918 16.842621072116167 51.324119293773826 0 -1 0
1079 231 7 0.4238 -6.935688247049907 17.605787982314446 52.745926908038214 0 -1 0
1080 231 6 -0.8476 -7.531106461466954 17.150148166464646 52.017764900378786 0 -1 0
1081 232 7 0.4238 3.6388042446006073 17.448852668624294 50.927881267922594 0 0 0
1082 232 7 0.4238 3.4311065881597576 17.750300014679556 52.430770264950844 0 0 0
1083 232 6 -0.8476 2.9501914062307755 17.797946397795524 51.55161880692243 0 0 0
1087 234 7 0.4238 -5.096665824929249 7.598009763124873 48.25209297150405 0 0 0
1088 234 7 0.4238 -4.442081660714722 8.756747407929243 49.289132172642326 0 0 0
1089 234 6 -0.8476 -4.29169820683209 7.868535319917667 48.77273859903196 0 0 0
1093 236 7 0.4238 3.713693726891289 0.22435407640269245 55.459326276979574 0 1 0
494 100 7 0.4238 -8.697050321154991 13.81261935972669 57.192228681394695 0 0 -1
1095 236 6 -0.8476 -7.87992533051473 18.05037795142556 55.49829298633743 0 0 0
1111 242 7 0.4238 0.3621068243706055 3.5528654520659706 51.50005946839611 0 0 0
1112 242 7 0.4238 1.6894561681486246 2.8946165417880763 52.003674256810164 0 0 0
1113 242 6 -0.8476 1.3212803026128923 3.8204220675557328 51.69295082884004 0 0 0
1117 244 7 0.4238 -9.108496649638834 16.830706203494533 55.73662581821404 0 0 0
1118 244 7 0.4238 -9.922251835287886 15.496332535689262 56.14670661785389 0 0 0
1119 244 6 -0.8476 -9.98421385950875 16.324736874747995 55.5607185889973 0 0 0
1235 283 7 0.4238 0.3063700838039476 0.25762308729489275 49.57570184903067 1 1 0
1903 506 7 0.4238 -3.1996248420892655 6.380324345699776 52.19480132234164 1 0 0
1002 205 6 -0.8476 5.418514983129773 10.056236908690028 49.00743940319884 0 0 0
1129 248 7 0.4238 -1.503958090997426 9.338724205470173 54.71971831486411 0 0 0
1130 248 7 0.4238 -2.396007857985206 10.362269480536366 55.54878992824938 0 0 0
1131 248 6 -0.8476 -1.9343637385532972 9.44443526905961 55.63434696477169 0 0 0
1933 516 7 0.4238 -0.23992177740470255 13.4626616559721 47.461425322390284 0 0 0
1911 508 6 -0.8476 2.9240984317264767 11.132342510437336 55.6321680276764 0 0 0
1143 252 6 -0.8476 -0.6905788253683407 8.183456469006574 47.43825052760036 0 0 0
1153 256 7 0.4238 6.253093060402734 8.859397561710026 51.48066689065966 0 0 0
1154 256 7 0.4238 6.579625601797249 8.255615142349674 52.895966423499985 0 0 0
1155 256 6 -0.8476 6.428211735441711 9.176569253305797 52.44462310280486 0 0 0
1156 257 7 0.4238 10.580709608719612 12.641719530745702 48.678807821503376 0 0 0
1157 257 7 0.4238 11.83123169308188 12.070856137698952 47.80274072220778 0 0 0
1158 257 6 -0.8476 10.9589852272132 11.791319196963252 48.25644316543031 0 0 0
1035 216 6 -0.8476 -3.857512906874286 10.757929453277468 46.6215546446493 0 0 0
1334 316 7 0.4238 5.927626510726601 6.011064772733958 49.65495770406016 0 0 0
1910 508 7 0.4238 3.8306123985621463 11.314280994597521 55.21212297210968 0 0 0
1162 259 7 0.4238 1.812706366714351 17.317629312074843 54.33820847072518 0 0 0
1541 385 7 0.4238 1.281556312533848 17.1739664661449 48.10526063278413 0 0 0
1164 259 6 -0.8476 2.8270145922114214 17.411892976443035 54.51014801889124 0 0 0
583 109 7 0.4238 4.987637490732383 1.4093033418665593 56.302088458083595 0 0 -1
1390 335 7 0.4238 11.672231015210006 1.9765318546398296 49.23910204317554 0 0 0
1967 527 7 0.4238 -3.4503267660426493 5.523724678280141 55.85141464491055 1 0 0
1171 262 7 0.4238 0.010038887589438512 12.961361323828731 54.40329998131021 0 0 0
1172 262 7 0.4238 1.22059723894436 13.460119043023633 55.419067556664025 0 0 0
1173 262 6 -0.8476 1.0179966473549644 12.997289790309905 54.51686460544712 0 0 0
1174 263 7 0.4238 -7.777786516674901 14.375408500196963 47.36859674125531 0 0 0
1175 263 7 0.4238 -6.523297940269421 14.798363417211306 48.461357331733225 0 0 0
1176 263 6 -0.8476 -6.803317865445386 14.663302113505551 47.491229118172186 0 0 0
1180 265 7 0.4238 -5.533211567056532 10.602822293356633 53.46294196056729 0 0 0
1181 265 7 0.4238 -6.7590640888275555 11.758207078983183 53.366943639864544 0 0 0
1182 265 6 -0.8476 -6.276991666172275 10.981116802616768 52.912320632428916 0 0 0
1189 268 7 0.4238 9.159648922314888 14.941825115123432 50.4190524617814 -1 -1 0
1190 268 7 0.4238 9.307673011109124 15.827690326502555 51.68284447524563 -1 -1 0
1191 268 6 -0.8476 8.596584265296743 15.481429665045999 51.023674951128754 -1 -1 0
1449 354 6 -0.8476 -5.133119884307731 8.152057515415974 55.92401672508306 1 0 0
1926 513 6 -0.8476 5.2575742189970445 16.681514111141407 50.242787678771236 0 0 0
1684 433 7 0.4238 0.9802817979126648 3.157583307053997 47.851868860310276 0 1 0
993 202 6 -0.8476 0.12796224002773107 15.80161948334941 54.27619260136375 0 0 0
322 82 6 -0.8476 19.855527338287324 0.7771410327747664 57.52641179500765 -1 0 -1
1948 521 7 0.4238 9.828880593158445 10.53734079975691 48.92677747639964 0 0 0
1228 281 7 0.4238 -1.6678165535994574 3.975087477710251 48.064518591948904 0 1 0
1229 281 7 0.4238 -0.9879918839461272 2.600113239282809 48.246171196065916 0 1 0
1230 281 6 -0.8476 -1.848745665154034 2.9855256759756847 47.92558134880127 0 1 0
1237 284 7 0.4238 -7.746272235703041 16.855964865982635 49.35759800008022 0 0 0
1238 284 7 0.4238 -9.012438796299083 17.09212102301736 50.24258886465137 0 0 0
1239 284 6 -0.8476 -8.757937400349615 16.88407717370658 49.28841115189849 0 0 0
1526 380 7 0.4238 -2.986705352725731 8.678565251370406 51.9989586598699 1 0 0
1467 360 6 -0.8476 7.551505422983193 14.112541491021485 47.15044810287929 0 0 0
1943 519 7 0.4238 18.19504484791564 0.18300413500541313 52.418068882438746 0 1 0
559 38 4 -0.95 8.700153697796898 4.050150874633138 57.142049976121434 0 0 -1
1246 287 7 0.4238 9.596273870468501 11.58494104199346 56.54959751840369 0 0 0
991 202 7 0.4238 0.3814625096732128 15.350881767360368 55.15766312355866 0 0 0
1264 293 7 0.4238 9.606121563846377 11.895559270433623 52.48080349202818 0 0 0
1265 293 7 0.4238 8.813129823164973 12.820757970523205 53.4436768487683 0 0 0
1266 293 6 -0.8476 9.705199342125036 12.750578521937003 53.00252793377294 0 0 0
1267 294 7 0.4238 9.358100017607843 0.4541657086932783 55.24106369289953 0 0 0
1268 294 7 0.4238 -2.946327440898346 17.437397977878135 54.962677791094784 0 -1 0
1269 294 6 -0.8476 -3.168283146832484 18.352492345126297 54.6450490365331 0 -1 0
1273 296 7 0.4238 10.876152847923432 8.435482239602104 53.05698382348255 0 0 0
1274 296 7 0.4238 10.791678291353536 7.78692057998655 51.600987342020446 0 0 0
1275 296 6 -0.8476 10.276853688520388 7.851292408026994 52.46618863885917 0 0 0
1346 320 7 0.4238 1.3340999462916452 18.33436160373007 46.57284081719981 0 0 0
1028 214 7 0.4238 10.508056501804333 6.99746144331287 56.020575182353745 0 0 0
145 9 5 0.425 6.809112088265873 10.65784551391327 57.279374142892536 0 0 -1
1426 347 7 0.4238 -1.7938079192848893 7.966481781087129 56.6400489695213 0 0 0
180 8 5 0.425 10.86799594763743 8.99108535836177 57.30203715899417 0 0 -1
1296 303 6 -0.8476 -3.015310182307082 7.210863338744124 46.38543222317478 0 0 0
1300 305 7 0.4238 12.18862256380522 4.2038287319658965 50.81902535775441 0 0 0
1301 305 7 0.4238 12.834769145761864 5.06920274172304 52.093499140214966 0 0 0
1302 305 6 -0.8476 12.72133555041401 5.061104737070053 51.064743685880686 0 0 0
961 192 7 0.4238 1.2685203795332185 15.152231592226032 57.46748002233947 0 0 0
1651 422 7 0.4238 -9.054664928764504 15.349613056012883 48.18337041493288 0 0 0
1942 519 7 0.4238 6.2269573803841345 17.861728732761012 51.0795506372354 0 0 0
1315 310 7 0.4238 2.571033945941365 6.388942260265962 48.41242449674939 0 1 0
1316 310 7 0.4238 3.083437504675657 6.621596767355091 46.890989626076454 0 1 0
1317 310 6 -0.8476 2.291181924419228 6.785164344403901 47.515517632974756 0 1 0
1362 325 6 -0.8476 7.334960060023033 10.143925225884923 46.89002851893989 0 0 0
1965 526 6 -0.8476 3.87383590410481 15.388358243268263 56.10109251706689 0 0 0
1343 319 7 0.4238 2.0646867514791785 14.656010976917775 51.16951186421211 0 0 0
1339 318 7 0.4238 -0.9823475746639289 6.524055745510467 48.014569555152725 0 0 0
1340 318 7 0.4238 -0.4210654167966066 5.261969806388609 47.55646666106047 0 0 0
1341 318 6 -0.8476 -1.1274145987164212 5.549913735018667 48.247777755457854 0 0 0
876 163 6 -0.8476 -1.7278013559643701 13.386512823460222 53.64647135112463 0 0 0
1601 405 7 0.4238 -2.6515083453528505 16.89008426161415 57.23438011514679 0 0 0
1344 319 6 -0.8476 1.6254009099262894 15.140310117922581 50.386371154265554 0 0 0
949 188 7 0.4238 -2.378730710753729 12.552581556941076 54.90463467572198 0 0 0
1167 260 6 -0.8476 7.071591165585613 13.174517460169195 52.237066130902065 0 0 0
584 109 7 0.4238 5.996582929936139 2.503871320092706 56.80720578797767 0 0 -1
1737 450 6 -0.8476 8.310310060222035 6.656652174021029 46.41868577601704 0 0 0
887 167 7 0.4238 -8.439305763034772 12.853051515149625 54.973922629684665 0 0 0
1502 372 7 0.4238 -4.03395616099084 14.085047499936012 49.50686306534136 0 0 0
1381 332 7 0.4238 8.349464803053921 6.264334783465791 50.371461231100255 0 0 0
1382 332 7 0.4238 9.155907283216344 6.717362538950819 51.61300611192906 0 0 0
1383 332 6 -0.8476 8.500062273982076 6.025506614301645 51.34883900398477 0 0 0
1990 535 7 0.4238 -2.0737672555571685 17.71615012811704 53.134922353584955 0 0 0
610 38 5 0.425 8.866153521055129 3.116437004993961 56.686641313354386 0 0 -1
1982 532 7 0.4238 14.876778908397137 5.9865735758003735 53.020056436482 0 0 0
1420 345 7 0.4238 13.7440061730207 8.860165091350645 48.32693233427678 -1 0 0
1421 345 7 0.4238 13.196256139716638 10.329467439875039 48.631598137919646 -1 0 0
1422 345 6 -0.8476 13.56281566309652 9.509500597262798 49.08008190560592 -1 0 0
1163 259 7 0.4238 3.1181411458646617 16.461989726214366 54.60025124757744 0 0 0
129 8 4 -0.95 11.047344537971211 10.016591977415993 57.31722669934745 0 0 -1
1950 521 6 -0.8476 9.008703091801967 10.052024542709045 49.28739870208924 0 0 0
1256 290 7 0.4238 4.30403905543987 16.601364108450174 47.21513028927931 0 0 0
1430 348 7 0.4238 9.073196417104452 17.19088517874242 47.77725180850458 -1 0 0
1431 348 6 -0.8476 8.974221438453236 16.493498951256253 47.04065759667921 -1 0 0
1435 350 7 0.4238 4.8706958074338145 14.85777144915351 48.112878307726504 0 0 0
1673 429 7 0.4238 6.072536897903693 3.3742828719056863 53.12665845954803 0 0 0
1437 350 6 -0.8476 5.499762041849955 14.327835955003474 48.71203308122504 0 0 0
1438 351 7 0.4238 4.26986802481929 18.339669959887843 54.164484386585045 0 0 0
1439 351 7 0.4238 17.68320220479243 0.6771562610515898 54.61355780070589 0 1 0
1440 351 6 -0.8476 17.409009509385072 0.030116693889286218 53.886345339549806 0 1 0
492 100 6 -0.8476 -8.015809389232029 13.473536787873575 56.506202127470665 0 0 -1
1442 352 7 0.4238 -3.50011755947381 17.61304685364904 46.87930858125909 0 0 0
1587 400 6 -0.8476 5.955414382911722 17.63068713580141 47.502126100236055 0 0 0
1271 295 7 0.4238 5.817070592039891 2.077965239829645 47.48457946476223 0 1 0
1847 487 7 0.4238 -0.04004338134198354 18.265240628122033 52.4380537629263 0 0 0
520 34 5 0.425 -7.265212425915518 16.945622304133497 56.55174232496423 0 0 -1
1450 355 7 0.4238 -9.066339241480557 14.266192526876797 51.28410076451377 1 0 0
1451 355 7 0.4238 10.25236555982794 13.464947821999827 51.587448082471624 0 0 0
1452 355 6 -0.8476 10.802290836413754 13.875512562805334 50.810298768360525 0 0 0
1023 212 6 -0.8476 4.974877984098224 6.800996071784582 46.50719845185782 0 0 0
1335 316 6 -0.8476 5.587000327616712 5.04340767557061 49.703353317044794 0 0 0
1952 522 7 0.4238 14.88009854387236 0.27238284157026105 55.85206118369832 0 1 0
1459 358 7 0.4238 4.020418011355912 1.2837051586422423 53.26973973443495 0 1 0
1949 521 7 0.4238 8.813077212550937 10.44481380321045 50.23493500129032 0 0 0
1461 358 6 -0.8476 3.4909673870374758 1.3500201563370278 52.38580486615521 0 1 0
1935 516 6 -0.8476 0.6225988174009534 13.399732753279688 48.02588016618115 0 0 0
1966 527 7 0.4238 16.673665249402077 5.010648953719853 54.415436584369004 0 0 0
1878 497 6 -0.8476 3.29227258826533 1.3135080984204413 48.56288624763466 0 1 0
1492 369 7 0.4238 9.294491695503975 8.321515382904204 49.07261281254084 0 0 0
1831 482 7 0.4238 11.402895804002625 2.6391993016962956 46.49018793707658 0 0 0
1494 369 6 -0.8476 9.642873088113738 7.387369953282106 48.82836960046461 0 0 0
756 127 7 0.4238 -3.7797243518200405 15.2092404336295 55.90349352482804 0 0 -1
1945 520 7 0.4238 14.1092851205161 4.1093870249999105 50.91189303841635 0 1 0
1503 372 6 -0.8476 -3.9784223013193527 15.099455429310789 49.4839341251122 0 0 0
90 2 5 0.425 15.476652792510563 4.072204949592919 56.808439541000894 0 0 -1
821 145 7 0.4238 6.435033819210561 6.045413520354655 56.05397743614246 0 0 0
1585 400 7 0.4238 6.743626735311112 17.594380920668524 48.142415718898945 0 0 0
1525 380 7 0.4238 -3.248602781274033 9.585282128480802 50.77014905731264 1 0 0
1964 526 7 0.4238 4.542421625286922 14.765665811720721 55.61598752959155 0 0 0
1527 380 6 -0.8476 -2.5994695631008455 9.490971708346647 51.534361684953296 1 0 0
1951 522 7 0.4238 15.882530304198319 1.2682544270574678 56.684299705406296 0 1 0
1013 209 7 0.4238 7.498171313327781 15.840960753410968 53.34847398863204 0 0 0
1905 506 6 -0.8476 -3.620059673009508 7.177086535508419 52.61935306230252 1 0 0
1531 382 7 0.4238 5.259068814982007 5.788729302759903 53.6840921148688 0 0 0
1532 382 7 0.4238 5.881523314359944 5.859177915220775 52.27906889912351 0 0 0
1533 382 6 -0.8476 5.665479352847635 6.443117678782462 53.06059279135437 0 0 0
1909 508 7 0.4238 2.3523229873241815 11.883544760891244 55.29725298958322 0 0 0
1963 526 7 0.4238 4.34792596963467 15.70107411299785 56.94303244563055 0 0 0
871 162 7 0.4238 -7.4863789603727815 11.961730646761902 46.24348860351316 0 0 0
1543 386 7 0.4238 -9.761915978785137 16.162126296528097 53.802249424763964 0 0 0
1544 386 7 0.4238 -9.157049299665308 16.807985421379023 52.54569359648606 0 0 0
1545 386 6 -0.8476 -9.948152229896406 16.186286968531917 52.82392702067354 0 0 0
913 176 7 0.4238 8.238217388771513 10.181165106860746 56.21412745146473 0 0 0
1912 509 7 0.4238 10.124299671633223 11.913659449059528 46.758886189833696 0 0 0
1306 307 7 0.4238 6.5991402275782045 8.025620431657329 56.9276336628284 0 0 0
1311 308 6 -0.8476 4.638109841566543 12.489736366567163 50.64598122142835 0 0 0
875 163 7 0.4238 -2.641661056925095 13.730625247295416 53.494553890038695 0 0 0
886 167 7 0.4238 11.41221726137899 12.571241188654204 53.66251832798393 -1 0 0
1555 390 7 0.4238 -3.016362431995741 5.39009138393795 49.00273040867629 1 0 0
1556 390 7 0.4238 -4.028872577920173 6.020923409924129 50.02822311503962 1 0 0
1557 390 6 -0.8476 16.88048526046193 5.124635665157991 49.59483376764782 0 0 0
1564 393 7 0.4238 6.406045359772415 13.686939972897092 55.96299829200148 0 0 0
1565 393 7 0.4238 6.125406731111568 13.932207791191862 54.33836031736773 0 0 0
1566 393 6 -0.8476 5.745495077436449 13.616541637197404 55.20112011722801 0 0 0
1570 395 7 0.4238 0.44098270487057556 0.3691648882080399 53.85771112299729 0 0 0
1571 395 7 0.4238 -0.29095665108489427 0.353199443257219 52.485581022485306 0 0 0
1572 395 6 -0.8476 0.6041959873051321 0.619900047173344 52.85545599461013 0 0 0
1955 523 7 0.4238 12.846721437514018 5.1284122605150255 49.16058138411068 0 0 0
1552 389 7 0.4238 1.1284777945796205 11.492071579323756 49.47587148618624 0 0 0
754 127 6 -0.8476 -2.887482348580504 15.644090278803839 56.09493626422927 0 0 -1
825 146 6 -0.8476 0.19595261464187305 10.021125352740935 57.3366758247109 0 0 0
1579 398 7 0.4238 17.45101079715196 2.385887014333048 56.13988246330048 0 1 0
1307 307 7 0.4238 4.9246973775857334 8.094749259885477 56.715560429416655 0 0 0
1594 403 7 0.4238 17.27557128597613 2.2023143151305997 48.35090744447721 -1 1 0
1595 403 7 0.4238 15.814866772278364 2.149854859687708 47.77371568347814 -1 1 0
1596 403 6 -0.8476 16.459188191829362 1.6133239040376544 48.37909422866909 -1 1 0
1493 369 7 0.4238 10.520335792637775 7.359323337947168 49.34439437085229 0 0 0
1696 437 7 0.4238 -4.4596148930507 14.818381548335251 51.98850129166935 0 0 0
1436 350 7 0.4238 6.27203649272064 14.17286893292655 48.040315915254034 0 0 0
1621 412 7 0.4238 2.3319459523914263 9.513742759919424 54.32255392231671 0 0 0
1622 412 7 0.4238 0.9372158195572506 9.12892824203819 53.510006148093915 0 0 0
1623 412 6 -0.8476 1.8736423876664825 8.810538154284089 53.733712451914535 0 0 0
1636 417 7 0.4238 18.50493293198575 1.7212660446949721 51.186890142225586 0 1 0
1637 417 7 0.4238 17.785379585888 2.8385524537236235 50.29981093373598 0 1 0
1638 417 6 -0.8476 18.147905056700388 2.6777897000066546 51.255164784437945 0 1 0
1642 419 7 0.4238 -0.08883365176415409 8.566391380963472 49.138231398330284 0 0 0
1643 419 7 0.4238 1.069951067157714 7.803252028847313 49.85685354987074 0 0 0
1644 419 6 -0.8476 0.35738771522013946 8.442880030638316 50.04791339113445 0 0 0
1141 252 7 0.4238 -1.466699217962244 8.147532281462585 46.79303080265676 0 0 0
1161 258 6 -0.8476 3.414577184877809 7.792237044999934 51.895692036829885 0 0 0
1686 433 6 -0.8476 0.7746023553466206 2.4644168199383762 48.56994788033515 0 1 0
1072 229 7 0.4238 13.936687803577028 4.691043636166499 54.83901471255549 0 0 0
1946 520 7 0.4238 15.704065113756029 4.104580971267575 50.36404909664042 0 1 0
1455 356 6 -0.8476 14.575340359470015 2.9192604370718644 47.17209643535665 0 0 0
1954 523 7 0.4238 12.051851345276017 4.081978504033846 48.16820863530427 0 0 0
1257 290 6 -0.8476 3.9109442226411066 15.642460087255788 47.16512806337206 0 0 0
992 202 7 0.4238 -0.12941255838794655 15.054666729331965 53.66241310169318 0 0 0
1142 252 7 0.4238 0.05471024395242072 8.306474698618745 46.76759122864042 0 0 0
1342 319 7 0.4238 1.1740542448754059 14.407642996358538 49.82989526257558 0 0 0
1165 260 7 0.4238 7.347709121944975 13.879606781974134 51.57563969030376 0 0 0
1681 432 7 0.4238 8.511400385092742 2.584969589762986 52.92090602333049 0 0 0
1682 432 7 0.4238 9.013573772685016 4.027762688251264 52.27554175990058 0 0 0
1683 432 6 -0.8476 9.087507648643436 3.023708618121426 52.21024291137654 0 0 0
1586 400 7 0.4238 6.211140080077597 18.18165221825352 46.68820123566328 0 0 0
1925 513 7 0.4238 5.531430925893325 17.07892349278292 49.361498991244815 0 0 0
1981 532 7 0.4238 13.66465060298256 6.804413958063345 53.728252844231584 0 0 0
1904 506 7 0.4238 -3.4134609899280837 7.142599807447426 53.621730454688375 1 0 0
1697 437 7 0.4238 -4.865645864588457 14.888546923584368 53.54277015581049 0 0 0
1698 437 6 -0.8476 -4.269621909546183 14.42369421524283 52.89716194400783 0 0 0
1702 439 7 0.4238 -5.243634660741741 16.232466441409564 49.48580993196653 0 0 0
1703 439 7 0.4238 -5.487500447335793 17.861333243749247 49.45111780903127 0 0 0
1704 439 6 -0.8476 -5.9603247387198754 16.970681743198476 49.63837232663679 0 0 0
1711 442 7 0.4238 -1.1734138051865688 5.769639409448211 56.90183286859765 0 0 0
1333 316 7 0.4238 4.551165691808064 5.134261868369589 49.63121800794766 0 0 0
888 167 6 -0.8476 12.301839060800587 12.349054611873827 54.116374644327415 -1 0 0
1583 399 7 0.4238 3.0094332572479945 2.729500128658296 55.14922728002089 0 1 0
1947 520 6 -0.8476 14.974581422261268 3.552042815078243 50.846980670837326 0 1 0
1542 385 6 -0.8476 0.9762721959517303 16.289556005143545 47.74913743134374 0 0 0
1720 445 7 0.4238 11.697634899794197 10.692611511924998 54.1754757812413 -1 0 0
1721 445 7 0.4238 11.398412798460475 9.99003199370012 55.51773374257802 -1 0 0
1722 445 6 -0.8476 11.465636589635174 9.786061205199687 54.528848789228576 -1 0 0
1738 451 7 0.4238 -1.5215300209744962 16.00770981293389 51.28977507090638 0 0 0
1739 451 7 0.4238 -0.3796987343731562 15.156250819384196 50.71913669232639 0 0 0
1740 451 6 -0.8476 -1.3627800474582186 15.311846874942088 50.55753528818331 0 0 0
1768 461 7 0.4238 3.1401032522943537 4.670590522430814 56.19494409917561 0 0 0
1769 461 7 0.4238 2.193338815291889 4.706100859258291 54.84154568679143 0 0 0
1770 461 6 -0.8476 3.039422375539823 4.300618906507359 55.2499298908607 0 0 0
1771 462 7 0.4238 8.103988369270015 1.157067564000421 47.364465449178056 0 1 0
1772 462 7 0.4238 8.562656611267458 0.9906650998434444 48.86213596032546 0 1 0
1773 462 6 -0.8476 8.338077451424185 0.43216411760673573 48.03350432859101 0 1 0
1789 468 7 0.4238 -6.293078481122069 14.185649550474846 55.09442602715592 0 0 0
1790 468 7 0.4238 -6.115098028930407 15.298026312099305 56.140931770175555 0 0 0
1791 468 6 -0.8476 -5.653538786388068 14.962761493856645 55.29631354964034 0 0 0
1792 469 7 0.4238 7.902205552761501 17.41857716989701 55.07547641185749 -1 -1 0
1793 469 7 0.4238 -11.13438044273067 17.405777005707684 55.23849303730419 0 -1 0
1794 469 6 -0.8476 -11.97066194738748 17.995262160272706 55.27440943526152 0 -1 0
1801 472 7 0.4238 7.652781888526206 10.034205323070815 52.06131801309116 0 0 0
1802 472 7 0.4238 7.670092728946176 11.619466290821778 51.646465585963625 0 0 0
1803 472 6 -0.8476 8.252093371634047 10.780045610452829 51.651398075205734 0 0 0
1804 473 7 0.4238 12.434987523542542 8.38773481819939 49.86611850905318 0 0 0
1805 473 7 0.4238 12.543166112532779 6.989231278887395 50.580889595269426 0 0 0
1806 473 6 -0.8476 11.853827352208683 7.674128672837248 50.27985775135596 0 0 0
1816 477 7 0.4238 -1.2298255727696752 9.480119768480927 52.39962782079025 0 0 0
1817 477 7 0.4238 -0.9689665327233995 8.232066992888912 53.503533152875264 0 0 0
1818 477 6 -0.8476 -0.6777525609686046 9.193081040556727 53.240836375694066 0 0 0
1825 480 7 0.4238 -2.5845392533071965 13.773881363769243 46.73246154477233 0 0 0
1826 480 7 0.4238 -2.3734454365149773 12.965876852084847 48.13665829558039 0 0 0
1827 480 6 -0.8476 -1.9882726038870675 13.127868940404738 47.22225348312951 0 0 0
1991 535 7 0.4238 -0.8379993940815706 16.673717578341726 53.259011946427535 0 0 0
1983 532 6 -0.8476 14.01532126171136 5.838764863099029 53.52480098910933 0 0 0
1027 214 7 0.4238 11.051572952979242 6.4540319658079985 57.43794533133937 0 0 0
1883 499 7 0.4238 9.630809218440309 0.8035538035266242 57.05575941862955 0 0 0
1000 205 7 0.4238 5.105032565148867 10.811212599274242 49.619371148785774 0 0 0
1012 209 7 0.4238 6.277669515865827 16.82580142447859 53.32874844461892 0 0 0
1849 488 7 0.4238 0.04163579847217112 6.260184227419993 53.92565221362722 1 0 0
1850 488 7 0.4238 -1.3245834918880386 6.120768132607546 53.157964661203806 1 0 0
1851 488 6 -0.8476 -0.9254135028315913 6.589141227548045 53.97538039426736 1 0 0
1861 492 7 0.4238 17.42402915639714 3.0571614564731955 52.775271902895476 0 0 0
1862 492 7 0.4238 16.23387176710469 2.866212798883095 53.89571068206867 0 0 0
1863 492 6 -0.8476 16.976316123582304 3.4726220023289827 53.61769659357558 0 0 0
1876 497 7 0.4238 4.148783835635605 1.8335015689022252 48.86971323272825 0 1 0
1877 497 7 0.4238 3.550652758424221 0.384748667046557 48.879841875485596 0 1 0
1465 360 7 0.4238 8.02868647908543 15.016633642347307 47.03105482739938 0 0 0
914 176 7 0.4238 8.344968667114317 8.653943007751769 55.607176943032286 0 0 0
1428 347 6 -0.8476 -1.8765566791853272 7.332835823255429 57.44639289808277 0 0 0
1248 287 6 -0.8476 8.735407432756341 11.767388260792634 56.0677151408274 0 0 0
963 192 6 -0.8476 1.2723288207022965 14.97811609096013 56.4630027287371 0 0 0
1073 229 7 0.4238 14.26213886453895 3.118350546662215 54.83958716594521 0 0 0
1956 523 6 -0.8476 12.665301402699427 4.911962407829328 48.1950998139785 0 0 0
1882 499 7 0.4238 10.710987936827268 1.7463906270376448 56.777017951498905 0 0 0
926 180 7 0.4238 12.851455398486415 3.247498394919971 56.63007396584111 0 0 0
1460 358 7 0.4238 2.663517051164652 0.8145066650205359 52.60154026837615 0 1 0
1540 385 7 0.4238 0.7509970579011003 15.842659668776314 48.64458366305318 0 0 0
822 145 6 -0.8476 6.882482701822788 5.2663486635150045 55.51912827149328 0 0 0
1713 442 6 -0.8476 -0.7785734090352086 5.051181917757264 56.318923744512205 0 0 0
1672 429 7 0.4238 6.827378589224982 3.7755314186960747 54.49899529938098 0 0 0
1938 517 6 -0.8476 8.894719908623161 7.367555624490587 54.83213403632623 0 0 0
1580 398 7 0.4238 18.409777549720722 1.308357289222438 56.87883050237664 0 1 0
915 176 6 -0.8476 7.855810330386038 9.250358600943079 56.265921748887706 0 0 0
1554 389 6 -0.8476 1.1713459491122467 11.13412338084855 50.420862840029734 0 0 0
1846 487 7 0.4238 1.3933675735868476 18.58591832624616 51.76306075178758 0 0 0
1221 278 6 -0.8476 7.370231717738912 13.613658991377354 57.45059185696145 -1 0 0
350 20 5 0.425 -0.1320590907149913 3.905532202962864 57.18734059974586 0 0 -1
1206 273 6 -0.8476 3.2147308711617693 9.448682939515866 46.921188031073015 0 0 0
1712 442 7 0.4238 -0.789217573728576 5.525770478232153 55.425688155620364 0 0 0
1160 258 7 0.4238 2.843670186432282 8.35103883454134 52.5418989269313 0 0 0
1674 429 6 -0.8476 6.728532904401618 3.006273125842134 53.822592880971825 0 0 0
1884 499 6 -0.8476 9.725571420680577 1.7809235163931196 56.771103268528165 0 0 0
1205 273 7 0.4238 2.800277571883957 8.596225208620751 47.27199798181897 0 0 0
1695 436 6 -0.8476 2.1954661159704734 18.437239831995992 48.776156743672395 0 0 0
1582 399 7 0.4238 1.8406844437702685 1.6904074345137614 55.30548501707708 0 1 0
1549 388 7 0.4238 13.52796648383028 6.395345777614635 47.77940562693252 0 0 0
1581 398 6 -0.8476 17.661134893645 1.3929807116239217 56.196059882909395 0 1 0
1448 354 7 0.4238 14.665341027461343 8.05360258977269 55.41424498698395 0 0 0
975 196 6 -0.8476 5.694600504293418 7.664691879050151 50.17089733158664 0 0 0
1308 307 6 -0.8476 5.739707566850062 7.485221992064455 56.90876894136567 0 0 0
974 196 7 0.4238 5.741483235080818 8.602654985946847 49.70766858591839 0 0 0
755 127 7 0.4238 -2.2962145108631913 14.889487147888424 56.42602354821494 0 0 -1
1272 295 6 -0.8476 5.784241649191607 2.2762422534003055 48.475244582497 0 1 0
1953 522 6 -0.8476 14.963690339652258 0.8425194518946852 56.65393080830758 0 1 0
1270 295 7 0.4238 5.896829208202173 3.277543627107392 48.597865000307856 0 1 0
1653 422 6 -0.8476 -9.498166766609478 14.799007904682282 47.440311349526915 0 0 0
1934 516 7 0.4238 1.344431290624278 13.83191579593228 47.44948713141758 0 0 0
1647 420 6 -0.8476 -1.5886891640755687 13.503639194266908 57.437908068026836 0 0 0
903 172 6 -0.8476 0.7232140521079797 4.447575105785708 46.449061338350184 0 0 0
493 100 7 0.4238 -7.524341608754783 12.854548391148132 57.13792150921458 0 0 -1
1255 290 7 0.4238 2.9576328544916173 15.638843084581442 47.50613585363079 0 0 0
473 34 4 -0.95 -6.805308613259714 16.31325121021721 57.27926831138553 0 0 -1
323 82 7 0.4238 -0.30858353315500253 0.36710149442012735 56.770989977971134 0 0 -1
39 2 4 -0.95 16.30428613205051 4.374707038916112 57.364536382833144 0 0 -1
1584 399 6 -0.8476 2.797315309630323 1.715528095950287 55.08237600423936 0 1 0
1447 354 7 0.4238 -4.6299004429941535 7.285752622204391 55.680978932720606 1 0 0
582 109 6 -0.8476 5.799317180919626 1.5520388988385285 56.88736652016303 0 0 -1

Velocities

1 0.003549926768463943 0.00361906098377017 -0.003223339096314889
4 -0.002900045081224051 -0.002466356693073927 -0.0009103111265928731
5 -0.0024820014007585324 0.0033638020361377377 -0.0016742768083949536
8 0.0030998186294053944 -0.003664978684437936 0.004476835848305136
9 -0.0035051577367983685 -0.00014261713674430733 -0.0010229165943446944
12 0.004591824169948782 -0.006007254565186698 0.0041617581017400485
13 -0.0005409631299188456 0.0008066872195864891 0.0005112671321938731
16 0.0017001761772415156 -0.0018219832273351985 0.005429628917141901
17 -0.0011331616565082206 -0.002556646719360768 -1.915128952449528e-05
20 0.0010697886427269297 -0.0003832441096299535 0.00032495834585688645
22 -0.003745448240894384 0.0020384695808991207 -0.0020497530204738965
25 0.0032762014914135655 0.002153851519146013 -0.0019213625782899123
26 0.005594230559903081 0.003124316095324465 -0.003197211501776979
29 0.0011960263504113184 -0.006379417571876662 0.001579331990049796
30 -0.0016421924897216298 -0.0048513207031277775 -0.0012502687448435453
33 -0.002263586581078493 7.51975467725673e-05 -0.0034935356994494383
34 -0.003933856613295305 -0.0008990228900950677 0.005854338974585686
37 -0.004228142087360604 0.0027204188237657705 -0.0040532001992838185
1655 -0.005985918818246461 -0.013877593990613765 -0.025076283060289393
42 0.004295974685871935 -0.00360710174889241 0.010055834997208475
45 0.002586966879830382 0.004000473086696776 -5.4422302225489584e-05
46 -0.0021867490192314606 0.0037720094905508853 -0.004005219961831416
49 -0.0030616718366306764 -0.0005882504287032967 0.007794709984089694
50 -0.001089591724488491 0.0011905381784709256 -8.263646421815495e-05
53 0.0034156034652560396 0.008652968204643277 0.0051586583456704384
151 0.007254769338955939 -0.010873991170174168 -0.007156535857720132
925 -0.010338344034692389 -0.0006032673550230156 -0.003137670624616765
60 0.002534522367394269 0.002855073787645492 0.0006630954401532418
61 -0.0030293379203792077 -0.003679704098121295 -0.0029184948505270106
62 0.003801358773638896 0.0016390267797432654 -0.0041470502256887925
63 0.020289168167835193 -0.0031542517748081172 -0.0037663188169544774
64 0.011944177523650379 -0.0112679099384192 0.009036865967898829
407 -0.004108588570070928 -0.012813413637923533 -0.006626075303343157
948 0.0005031722036821169 0.001916483956859336 -0.006845614563073905
747 0.0026598055247875505 0.0026107510200575074 -0.012332007951316577
575 0.008811511596092274 -0.010410460704719295 0.01764731178958581
792 -0.01321001111994812 0.0102818388445155 -0.0019503235436472328
91 -0.002120518605040314 0.003760013340548413 -0.005608816496489671
94 0.0014688982835025573 0.0016323277870505981 0.002522417403322409
95 0.002754040682182054 -0.0013453054417751841 -0.0013442153270528908
98 4.8542789682632704e-05 -0.006956207874940839 -0.0017138999937831678
99 0.006513105719341552 0.0020310619800569954 -0.001510004099084604
102 0.003927037625779134 0.0012107242616784546 -0.0014201695253451007
103 -0.0026175082579966143 -0.0008057471399133276 -0.0036533858581604293
106 0.0014247010911082878 0.0020122067116021135 -0.00205092741184551
107 0.00034947641755837594 0.0017182105410440244 0.001890859016165392
110 0.000828653177919643 0.0029554109438049863 0.002199223133456814
112 8.135974219487181e-05 0.0037926965826533304 0.0011884052928488832
115 0.006288917558014161 0.0019096361440902286 0.00044023312908686283
116 0.0020322952796778186 0.0007508188013006623 -0.007822671564340758
119 0.006798152730273551 -0.004504006802144083 -0.0010015644951100193
120 -0.00017129656392280405 0.000658357675916388 0.0033998847046302146
123 0.00348817245626861 0.0009321961385011965 -0.0013076708015791198
124 -0.000616635995761346 0.001353471938667238 -0.0002454423932893515
127 -0.004012041017816296 -0.007161923987099649 0.001830258981190614
153 0.016205484322662906 -0.009504032213231064 -0.006323173378760123
132 0.001387252663984406 0.005037619489259751 -0.004316093239071977
135 -0.0038167948519106437 0.003119396980410351 -0.0017105940064101573
136 0.007530982757115644 -0.0015681255068272005 0.00334148684573681
139 -0.0013618872647627503 0.0009587165682476926 0.004171673583165256
140 -0.004516361555117135 0.005487307342984219 0.005400784188137759
143 -0.0017840025000982452 -0.0007512226924114885 0.0006769709360856059
560 0.0021430848183451963 0.001882554824290666 0.002079224020390889
682 -0.006249904344710914 0.00421533270718343 -0.0034079947115076142
150 -4.3488369238009005e-05 -0.004044504420121214 -0.010983215957165034
650 0.002068537768289584 0.009268703649211247 0.003685084567562263
421 -0.011518524764732219 -0.023202604050566324 -0.009111994908516864
54 -0.003597002797286383 -0.0017872883821168299 0.0008024183203758353
154 -0.008845101117750677 0.015554603849687773 -0.008030452082158393
161 0.0013774565220424576 0.0025175244007841417 0.0018839573603068108
1670 -0.004227747626142128 0.01069450639275104 0.016910796666658973
163 0.009911040825569165 0.003196995961833243 0.016958839350694206
166 0.010929807822743469 0.007739633328769114 0.028352162024175565
401 0.02030191515877514 0.020791139507220835 0.001305180306617809
181 -0.005350945429979308 -0.0026335319919976517 0.004725407440337577
184 -0.0039253569800997016 -0.0005920732382320643 0.002309022285155061
186 -0.002509950352585758 0.001027757248166925 -0.00042731949270303766
187 0.0034828505211510273 -0.003366594752070261 -0.004267285351286438
190 -0.0024633975719748073 0.0001746858977191922 0.0015538687832411851
191 0.00048460443316385583 -0.001240299558298871 -0.0004311596590392103
194 -0.00014840236499442686 0.00048311979421646506 0.0028936769028722496
195 0.002847735488475039 -0.002212774413827637 -0.0018261330375049407
198 -0.004231318252244052 0.004509139755055625 0.0015428215645868066
200 -0.00048484215113099935 0.006148953698987055 -0.00040900485575790717
203 0.006125693263204517 -0.0004902606152691693 0.004950979147465312
204 -0.004401518066545007 0.01148732982355276 0.0006379204392250876
207 0.002921954157650185 0.003422038470126544 -0.0015196785960657582
208 -0.0014921120377323095 -0.004770121565057906 -0.008414308925871819
211 0.0006382032309017596 -0.0007236866423693171 -0.002885306363246804
212 0.005432863266123037 0.0010041800701692037 0.001174042069458292
215 -0.0027013262679497856 0.0002811665335354084 -0.004257833017932025
218 0.003505496126993516 -0.0016493767344223456 0.001540873820323047
221 0.0027788782455379856 -0.0028132344335616037 -0.0014345929431185912
222 -0.0022883489747502926 -0.00017667366203122608 0.009398508003216876
225 0.000561244906252222 0.00894206716791215 -0.0024825294637340423
226 0.00290134005155363 -0.005527240060501071 0.000773375896785104
229 -0.00035324311568576256 -0.005544103824737059 -0.0009311158485796326
232 0.006332922622875371 -0.009507415546350552 -0.004106681049441446
233 -0.021526497210703932 0.013796267389091017 -0.010337670155185906
234 0.0012404354847634336 -0.002537829402513145 -0.0009381891869274425
235 0.011644187533718408 0.015186635491066313 -0.0058123717934361815
236 -0.010019189029486626 -0.013242244069504779 0.009032837055120934
243 0.0026290634199888077 -0.002480258812369417 0.00020100922684230429
244 -0.01835820272336372 -0.018162302789878473 -0.005142163778099403
245 0.00947127287785758 -0.0035935730238127873 0.004115129060066199
73 0.008312741059500238 0.009379845253261269 0.01398870322381994
261 -0.0011761983617959166 -0.004014786499155221 0.0007510487732259745
264 -5.3815342156701144e-05 -0.0037123180501955717 -0.0010575109926041115
265 -0.0010289133958796856 -0.004255550342526329 0.002249350085201882
268 -0.004032081847933605 -0.0011098738668780055 -0.0026644205122547384
269 -0.0027380923712398844 -0.003198239042843687 0.0019438211296653072
272 -0.0016667164013207199 -0.00263951718637573 -0.002169485004473212
273 -0.001440099035388642 0.0014839115937702596 0.002607274668593756
276 -0.00299567964456539 -0.002120795793338802 -0.0008179424277454928
277 0.0004297257690319917 -0.0003467818688959998 0.006413843964337934
280 0.0022400008228352047 0.004849259564559032 -0.003467431019395557
282 -0.005343863565506397 0.00694623173837093 0.005179445808693358
285 0.0025216156980014284 -0.00403766696595709 0.0020116302050971753
286 0.005347287499657377 0.0037045213476055165 0.00034003763024348523
289 -0.0008003375029470987 0.009509000400004573 0.00657383979159949
290 0.0026054079048773273 -0.0028557219589286018 -0.0035449841457207442
293 0.004747284267383811 -0.0035737600529712745 -0.005576646488628656
294 0.000408266608696449 0.00910824327927278 0.0020551756014040427
297 -0.003212930568463842 -0.0013834758086971363 0.004096721240004878
1427 -0.007036821597400545 0.0035897137204117108 -0.009381807192871164
302 0.002208694168555986 0.00238468118006647 0.002994520323008387
305 0.001562663124231627 0.0009057041245764982 0.005097805704812156
306 -8.359000557787818e-05 0.008051545367590824 -0.0018015558234220274
309 -0.003074796976709256 0.001447851344395955 0.0028804971774228074
310 -0.0004619784274752021 -0.005698773051847558 0.009946797455655647
313 0.0005046975797360644 0.00398904540571781 0.00751787306101502
314 -0.0011591488028466909 -0.005177213084937843 -0.00407233736441658
768 0.020225561295805123 -0.0022270756883168404 -0.007817786074498649
604 0.012919870915152775 -0.02185560996992522 -0.033170836546730635
946 -0.0007440320064656985 0.02072461093967667 0.01676543212923348
581 0.018818295422001283 0.01541489061169113 0.009830602385617046
732 -0.0002314723369131818 0.00035105228591333167 -0.0042367129552527095
429 0.0018343321710871823 -0.0007000769152047242 -0.004076561188892032
677 -0.0013751709984647351 -0.006988816570950325 0.002771573835764253
764 0.005173683634380409 -0.010663920904383485 0.016502425137550257
594 -0.004887508035661375 0.0010628582338328895 0.004036357868547612
300 -0.004542206925082297 0.0002759468270220817 0.0017361411484957542
791 0.004696671470981453 -0.009213276326812047 0.013176370122394962
351 -0.00283032529967517 0.002582273584888023 -0.0011722042631604466
354 0.002126990523529639 0.00026281127353845084 -0.0004363041272868389
356 -0.0013973049631279266 -0.0016283781624242954 0.003365389678997784
357 -0.003917767790282704 0.00384170660883189 0.008317946676095337
360 -0.003241508149804408 -0.0003949881011680662 -0.0005706720082985503
361 0.0015404294748233855 -0.0012097812504628413 -0.0012695709433363429
364 -0.003045944063439978 0.0035459402223599573 -0.0020579790887733027
365 -0.006699359876612622 -0.0031091222846994972 -0.004642515751611
368 -0.0006315486551484715 -0.0011859192876395963 0.004111109994364739
370 0.0015824678789941803 -0.0016985528843016984 -0.001280419837520921
373 0.0012336182824339036 0.004174945526913335 -0.006652617798026133
374 0.0038185141209200637 0.0035573626678403704 -0.0014986298925554213
377 -0.006940064145131643 0.0019565209366962546 0.0029452753423129217
378 0.0019531048500455144 0.002141613087359213 -0.0011125998672397747
381 0.009596849762734566 0.0094205622775641 -0.005925990632487103
382 -0.00580933726468961 -0.007226140897150982 0.0011560213453603724
385 -0.0043542643842707715 0.0038628801455783007 -0.00021009772223596406
388 -0.00560797163617059 0.0068341984078508855 -0.002139087276450334
391 -0.004507812405642032 0.003586362007250222 0.005375335972157731
392 -0.00018760222584218662 -0.0017342708030930053 -0.0038226379458963554
395 -0.0027327109945926246 0.0014224019252416281 -0.0018251868462595274
396 0.0012762278156091922 0.0017738973659738003 -0.0005826870797316635
399 0.0017596414136756824 -0.002137291271140029 -0.0007186649841084716
474 -0.002196456343306431 -0.004907668089467793 -0.00013105067081976152
55 -0.0009226620220874042 0.010083304270693781 -0.005215188171350288
406 -0.0031965585592626734 -0.004434146801038168 0.008363785571770145
591 0.005738857949374469 -0.004733022763830979 -0.003586845036750371
162 0.022013414423089777 0.0034759188500455467 0.0039027630839415647
246 0.0015304536483995027 0.0015542695940603411 0.0007405963690724524
164 0.0014592986611222697 0.001260063622490308 0.003287322880501628
417 0.0003403396344357382 -0.00034111894360662275 -0.002212464934727384
418 -0.02101478308200078 0.017147453830296085 0.001409777406452756
419 0.01321738853132247 -0.0039695370819697205 -0.0009778533492174328
767 0.007730487867045686 0.004442669549934079 0.03831079143025447
435 0.002810988322310756 0.00012200372201934544 -0.00013986944084867716
438 0.0022719643518122664 0.0026642822608912873 0.0013514251305577914
439 0.005550501342708791 0.003471940346035798 5.850046173470089e-05
442 0.0037290403442229517 -0.0005865804854377314 -0.002386891397954147
443 0.000736486215963845 0.0004383841038552524 0.0024760970594159782
446 0.0012030271330079037 0.00033454301390649935 -0.0018409965395210365
447 -0.0017319495790130354 -0.0019886164717287367 0.0012485785003516357
450 0.0003733536741722219 -0.0002952197989341222 -0.002719396408583655
451 -0.0006190394234936856 -0.004309681073196223 -0.0009406681939812617
454 0.007266150252793126 -0.001722936409025219 -0.003501574818469029
456 -0.004733970969472325 -0.008649655518890464 -0.0040314458660541475
459 -0.0028401980141271673 -0.001922674398690316 0.001819327552429324
460 -0.0006740634956118674 0.0012334480188335012 -0.0008491597721750655
463 0.0013069647819087544 -0.004554487150469421 0.004110650414677998
464 -0.0015475484789292508 -0.001116377509656923 0.003409002491284929
467 0.005332148564094004 0.005833677654274624 0.0030167574623523093
468 -0.0010396673776762902 0.00012260483559214903 0.0022934591211602826
471 0.0004945867676565094 0.00616656220569698 0.0034862112230459154
752 0.001191057760573823 -0.00018822856074743023 -0.0036781779044660267
476 0.003236366781825814 -0.006890354749940993 -0.006497955919878297
479 -0.008387620876646625 -0.0016648273361312524 0.008037209656053902
480 -0.0015719477125590217 -0.00014990661497278095 -0.003138285489717065
483 -0.004007777099974487 0.00977602516191023 -0.008041909024495643
484 -0.0004896914038673011 0.0016270254597949628 -0.003217373765122378
487 0.0005087823066624312 0.0003607883681379665 -0.0034610679532425517
490 0.004302316252890737 -0.0027629442759695695 0.00840632763625783
491 0.015268056812866374 0.0010097850408871424 0.0035688672922283677
746 -0.005398213701056104 0.0073585559090912425 0.002059019003492822
824 -0.010901165007117967 0.011958570338870145 -0.016042696909574137
680 -0.01019995522716026 -0.0004542620656765426 -0.007055553605539822
1600 -0.003718288983518237 -0.004840328499539279 -0.02725175054632535
315 0.01908802878822782 -0.009844353141589646 -0.009289454239796605
503 0.023995087897771494 -0.00823047258637143 -0.014693874676793268
1219 0.004353440342588378 0.011580548183930317 0.010203840793301664
505 -0.0008031230218449962 0.008103450569644908 0.015060057857382384
521 0.0035880362505432625 0.00568548619090768 0.003623956981671677
524 -7.187154468416656e-07 0.002536866211691254 0.0007740010613878187
525 0.00022611269732771442 0.0025650714559614643 -0.0016505634479500094
528 -0.002610720094428019 -0.0025783907897622875 0.0027674825795597833
529 -0.00772760796638215 0.0004062690911346563 -0.001380965903303644
532 0.00812311583737802 0.0004255903308147358 -0.0019476214237902534
533 1.9954556937451648e-05 -0.0005553642497635009 0.0006631499896438779
536 -0.004254583740540818 -0.002091615081606657 -0.0023795741751663417
537 0.0016587263638954792 -0.002714440220331562 -1.5061112965325137e-05
540 -0.0016384831691744685 0.004380412869942121 -0.002185221678788514
542 -0.007358449590088546 0.002898644911300203 -0.0027389674346639534
545 -0.0019343484967705479 0.0016708533623632324 0.003335659529258998
546 0.0005484365880340662 0.006833315112433222 0.006716995014893334
549 -0.0033767362432373855 0.007218433261038302 0.006335295466042687
550 0.0019257698538927167 -0.010311373287140633 -0.011702669260291176
553 0.002109833363752889 -0.003956392209798356 0.0009617568718248649
554 0.008166452157073007 0.006210048918745641 0.0013574228645896764
557 0.002673283868311781 0.0006454979846800229 0.0010273160726623058
1671 0.0014619216512687223 -0.0031945578497213755 -0.0035487915168261135
562 0.0017807437217725924 0.0017989748724803317 0.0022941253409757443
565 0.0031214880603230083 0.004180510195615692 -0.003785956283075007
566 -0.006694832422050323 -5.276075591376399e-05 0.0050363664393504185
569 -0.004876266315320803 0.004333704497725823 -0.0011972443612494163
570 0.006071832646905802 0.004330558930267708 0.0036052091432999035
573 -0.0021291696827901037 -0.002104442711869388 0.0012696191666037161
1654 0.01995613196829545 -0.0047337488065550635 -0.0005654011462684659
75 -0.00807397163675553 0.000852730503686813 0.003981577736146622
580 0.007292608140665884 -0.0002468486723326318 -0.004611227488540593
152 0.0029837252912257297 -0.001631205177689264 -0.005829748245172602
1669 -0.010677725547007154 -0.01699512167835505 0.016794931597071683
71 -6.462879964879883e-05 0.0019632171237724326 -0.003459488667776299
753 0.009609160566703467 -0.00452500983236611 0.009824270184737255
248 0.035516177084436294 0.004250328693580406 0.01260454533173244
592 -0.01682221702877365 -0.0093638037315494 0.011205646702050017
593 -0.012768756673057626 0.001714603724270331 -0.029057177426350687
1646 -0.009508579785834899 0.004645851737955094 0.008708122895269206
790 -0.0022995026699010874 -0.004515263230976369 0.0067544657786340785
611 0.0005471401519499996 -0.0017351563109256085 0.004693670991092447
614 -0.001851242494023929 0.00048592036610393974 -0.0007411986329207081
615 -0.0018637358247023388 -0.00024723251657616526 0.0028421145549835025
618 0.003204884763064219 0.004834395961311024 -0.005335596152324528
619 -0.00264995428421735 -0.0015274845844624892 -0.0010246441572294284
622 -0.0011980479548930588 0.002336900982436704 -0.00046800196253827885
623 0.00029975459388345555 -0.0035825135971780356 -0.0015883840167289912
626 -0.0035883892339099183 -0.0017437156487074645 0.0035108250148229783
627 0.006709477172099365 0.0024871959692558294 0.0025954062638988023
630 -0.0003406911885596498 0.001915698215467468 0.0011169898066780248
632 0.002062095403757946 -0.0045589221451127065 -0.006889500485470979
635 -0.0027734631710323336 0.003371608927724693 -0.0007664991302305053
636 0.0012163188656266154 -0.0021275653809137212 0.0014091283462567357
639 -0.0015695258165918454 0.0027302788361948187 0.0035852887786807833
640 0.0005949670482314481 0.00028965122889356885 -0.0002057355958056038
643 -0.0011442234940626005 -0.008073322121050256 -0.0020274874182030704
644 0.009179487829814367 0.005818570788333004 0.0018259482678330751
647 0.002658163301444276 0.0012918639346747864 0.0005119713775387606
504 0.007587662116445483 -0.0021239687087515973 -0.0029256705921050347
652 -0.008051749726013855 0.0015770939195357185 -0.0024596212622807955
655 -0.0013791968067010491 -0.002957358088573899 0.0006731022907660928
656 -0.0016215174185390067 -0.004146495104794606 0.002150194778264715
659 -0.003064198734969679 0.0020549429391203636 -0.005712348105914195
660 0.0024933042695849763 0.005696427221904077 -0.0012019445844665146
663 0.002176917642220079 -0.0005532452787514362 -0.006909803498872311
666 -0.0039738693433236565 0.003185804910531143 0.004053567723033167
667 -0.010843730150672611 0.021774488073141834 -0.00033154676279752675
668 0.0003345567106581133 -0.005985460542531274 0.001585469508602567
669 0.0005903048768086114 0.020578670628197866 0.013445576181456349
670 0.0283626988457357 0.0036772808220943156 -0.03913356636219364
678 0.01201012544370226 -0.014515365299922294 0.004444423389650816
76 0.017373410357551904 0.003134599737069513 -0.008689758488314351
679 -0.0021064227171666795 -0.009957649314164038 -0.0027791347612742155
130 0.0006409515730077195 0.0031626397954488982 -0.001047929070695367
386 -0.0017694479537788208 0.0012595218717088405 0.002580571704193494
697 -0.004032972563242605 -0.0001270609724700884 0.0025584533549936747
700 -0.00029842555674557174 0.0016795021601554644 0.006277969418495671
702 -0.0021085366109528346 0.0017607657489571481 0.0041787843559772135
703 0.0026969917351634155 -0.0006904108555518786 -0.0015436863720876646
706 0.0004710922773442371 0.0013808374920067919 -0.00011865559249602164
707 0.00249254751934784 -0.0007827938679305192 0.004587610065071845
710 -0.0007036399436007825 -0.000358727431907942 -0.0013457821622381361
711 -0.0019437390761124931 0.0007931866837334716 -0.0029140979086132125
714 -0.00014941403346597254 0.0032956527136195433 0.0038684185643001016
716 -0.0034549200503430923 0.0038791927052267776 0.007051907815522808
719 -0.002247740453069333 -0.0029100215203201386 -0.0026954368822249323
720 -0.010689677080320455 -0.002273678318719225 0.0045200680713323865
723 -0.000561461398852851 -0.004427958429910251 -0.0029836512563815283
724 0.0003367837422499742 -0.0010240674556729857 -0.005229499583972051
727 0.0035276979459768682 -0.004738141878411239 -0.007965569765199448
728 0.003989725086679704 -0.0001301222355618135 -0.003814351775538656
731 0.00020728442706861592 -0.0017193860085095763 0.0018694073469499597
734 0.0031523569856431823 0.0019918722931485332 0.0016391703800270727
737 -0.004202127995396752 0.007779922632505285 -0.0009671355551536563
738 -0.00704563283940281 -0.0038077102450782847 -0.0008839709499877849
741 0.002355829180758776 -0.007856396151101177 0.008580073591521614
742 0.0006009133488088825 0.002276317883319796 -0.004830617558506617
745 0.00022069434718126785 -0.0030353126618912186 0.00143320366868658
763 0.000815121188597645 -0.010117530451370472 -0.00010986270202646997
947 -0.0003362635509239137 -0.008410210453023474 0.0024764982195434274
247 0.01056142170701175 -0.03336230499837636 -0.011375705827752573
681 -0.023401571964188572 -0.003033769592823831 -0.018862028600869406
595 0.008735751280030976 -0.00031268549128771975 0.01184553019037236
72 0.01598027431303902 -0.0062533411680513245 -0.0016249781648662819
400 0.003197649782433212 -0.000594006225222036 -0.0020859475962205954
596 -0.013137885784438114 0.014503698768804371 0.02898639666364829
501 -0.004536926542900765 -0.006307023433202499 -0.0032595455618995863
765 0.004394313537842851 -0.017076843067576494 0.022537698964234087
40 -0.004696615621343368 -0.0016550023530390455 0.0014176665754081594
787 0.016744810293390547 0.01311388546578742 -0.012975872829181112
788 0.0012842207403346991 0.03041270642854473 0.017800157073798204
789 0.023137997633090386 0.01584215908010515 0.0016872943474469414
216 0.003948432959903485 0.003005038978481089 -0.0009332847977848602
1656 -0.004295633869439113 -0.0014016408649280545 -0.001124645832660191
430 -0.006405160293352657 0.01054771127689805 -0.008824053086735293
1220 -0.005260442169389132 0.007384049298581824 0.0012926844100619682
74 -0.0018912465220549766 -0.002838637883924011 -0.0002853717595730477
144 0.004982832700172726 0.0017768492030524065 0.00415661351466473
420 -0.0019597331262999167 0.0016228642042979506 -0.005291642272671878
574 0.0012525469498740622 0.0008875275025744737 0.004991176644087124
324 -0.003066229677590544 0.011497811346397267 -0.02191023752259045
299 0.002798845169826291 0.003263698395366803 0.0026624317809762687
320 0.003293370789150734 0.0055407214980890095 0.0016221476339051916
256 0.005940700414385434 -0.005569591985540159 0.0186203352226693
603 0.003591554125519202 -0.0015770421011890945 -0.006045987068525101
1602 -0.000996875507381932 -0.002346208244224639 0.009277335504558915
333 0.0014373826996434977 -0.007543375901325361 -0.007761987923605006
1645 -0.0002097627480856602 -0.005884570146053201 0.022343535885726656
2 0.003916127642460909 -0.0047935419749155295 -0.004139786239091838
3 0.0034407398677620106 -0.003099611152624116 -0.0008890415126299084
7 -0.00047821694632119193 0.007187645140769823 0.004855938925501068
10 0.0003206314097414573 0.007170448894296119 0.0010665911701879065
11 -0.00237042053268797 -0.0012841008552998841 0.0012523873753399488
14 0.0027349193784667585 0.0015587801628821683 -0.0005445186385793129
15 0.0006433775870754688 0.003049101210415522 -0.004430233104600918
18 -0.0006863012416887833 0.0011286659998955041 0.0025406698756169637
19 -0.0024048066243228254 0.0006818455505885607 0.0011970325273230418
21 0.0014519266749945857 5.044018047544248e-05 -0.0026240263636952217
24 4.1145554079910933e-05 -0.003423859049981238 0.006375400583709984
736 -0.0013807520197852078 -0.0010937558229977915 -0.0034584114587944926
28 0.005373434587542316 0.0001882074914589676 -0.0039663379238180285
31 0.0007014116908516709 0.004611316297903403 0.006030840206477995
32 -0.001564736455940805 -0.007547314334882109 -0.0008299062666331027
35 0.0010432494539327026 -0.004114900806722278 -0.0061748940293537705
36 0.006917105420435516 -0.000985172870919505 0.0014952372779471605
205 0.003469704514290027 0.004390159819977571 0.00024182537890793035
41 0.0025251399772532987 -0.0017632427661510163 -0.0035109250111040454
44 -0.00013671387284971726 -0.0001262938419835967 0.0022566007986672774
47 -0.0037074023918354303 0.00010715735089911051 -0.001456085524499699
48 0.0004994005430874567 0.004628018514459927 0.0015263560190724261
51 0.004546616035072623 0.002194067443603183 0.0006056403086905898
52 -0.0003870024442828917 -0.004568163329350148 0.004034390888787172
58 -0.0007024544803345566 -1.7762619154863705e-05 0.004519697407250621
59 -0.014134934327270532 -0.00956144472253822 -0.0020992281530797553
780 -0.003643668083769014 -0.0073704368435114 -0.006816978404037308
68 0.0015290767558755382 0.008480234765036426 0.007256596650401711
69 0.006897410728454048 0.016898181969908745 -0.02504028129883186
70 -0.009088294188393293 -0.006359114013287318 0.01219269650804015
744 -0.003250097060334564 0.0002477740287817672 0.007064710808362546
743 -0.0035198858524188833 0.0007918290537891117 0.0029500731500605674
77 0.002002325113161191 0.001523220683320883 -0.0018237357810708132
78 -0.014586715408173901 0.001444199912796851 0.025398795748607476
79 0.016477944514900162 -0.02959765014431386 0.007682642533331912
80 0.001043481743417823 -0.0008040142160781534 0.0008958649275947446
81 -0.005330031975355674 -0.01454955942385828 -0.016006691251222876
82 0.0170297485893277 0.043738799473057734 0.0017824334244191436
83 0.007954499039197094 0.006939386702113137 -0.0017321092671188432
84 0.0526117843671912 -0.00812207676627368 -0.02552850967538308
85 0.010797373943356288 -0.0015012450620218998 0.009305723393641297
171 -0.0047415698109364605 -0.012037313216935285 -0.008361614800136585
87 0.0004961879250904031 0.005489117313217745 0.005848487205843304
336 0.006951272630700011 0.004964217088170748 -0.017257708182185073
92 0.0009062637467157988 -3.0439500178770185e-05 0.003487373834606896
93 0.002011181820772789 0.005225527493341631 -0.00042699327280572427
97 0.0006793562813863756 0.004461341746937987 0.0003677020997337185
335 -0.0006526352134900143 -0.03135267561321693 0.019783266409176232
101 0.003956146815587317 0.003291127793417787 0.002677872659816778
104 0.0016901991463218124 0.006056938263328595 -0.001718773946143795
105 0.00328387905062568 -0.001166910821732313 -0.0018165572868210228
108 0.0011973495075065885 -0.001034131627534826 -0.0009924173196877964
109 0.0006639387436048641 -4.592642838469607e-06 0.0031311499034359026
111 -0.0006653628071322759 -0.0016507806436351607 -0.0035506567459328287
114 -0.0012591164186930928 0.0021872649537928563 0.0001667257978969376
358 0.007489612177252003 0.00011782250327546378 -0.0010348693158734555
118 0.002856195129709375 0.0045620082297073965 0.0004983222739778466
121 0.000531845179319247 0.0030814895032115403 0.0034195344669033525
122 -0.005074579994315817 0.002742049303051116 0.00028370752094247163
125 -0.0025321654204130918 -0.004288880091179393 0.002195529942121316
126 -0.008065589798925603 0.0006756518947946304 0.002477023340120144
733 0.004138146566225853 -0.0043848950889830785 -0.0022549490710338837
131 -0.0038560412402959296 0.0011102093270576473 0.0003750722446617428
134 0.004923412256748785 -0.0002964826941625166 0.0005840282996653406
137 0.0068064955947350105 0.003289001356254378 -0.002978269131636154
138 -0.005684276191450175 -0.01027234824326993 -0.00434991299783147
141 0.0019860611463669493 0.0007324395132744497 0.005291879375848774
142 -0.00024610997623585447 0.007976832401500057 -0.003059001519938568
148 -0.0008367966175579712 -0.0006257682877216857 -0.0004022320743153142
149 0.018853696802756757 -0.0016785705809606083 0.01373591150276155
779 -0.006149727117774635 -0.01906974735550937 -0.019406625481133418
158 0.008275681829608245 0.002451717758213071 -0.0020280361127238246
159 0.018484632056661118 0.0067684536852297 0.001916403447745343
160 0.03554532536360102 -0.023343968727190342 -0.003713610088060144
762 0.007017088880203903 0.008165430086232857 0.031989706014347564
771 -0.0029625081194813697 0.0012564308857637007 0.012856113071012138
167 -0.008943809133344959 0.008804817338038081 0.0025295339633600094
168 0.0028732587852961624 -0.0271610474100916 0.011265368546024694
169 -0.0018339921926411136 0.023316425812799337 -0.0011358831850397453
170 0.004523313329439574 -0.00034707196040818577 -0.0027559433264717223
612 -0.0033523887951309376 0.003078606478040608 0.0014972147619198106
172 -0.014295489372053828 -0.026700971605055922 0.013875069856549726
173 -0.0012483164918053017 -0.003804341875421114 0.006323900920752958
174 6.0491623644884076e-06 -0.033626006401600746 0.03556702648865051
175 0.016670855955722076 -0.0003519036902107288 0.011430201618879426
176 0.006771493908540829 -0.005290607841795646 0.0004575333672632152
177 -0.004326223040746955 -0.0005541787856119207 0.01433376907764091
178 -0.0047699788195276665 -0.0021993436767916413 -0.0016260817428410445
182 -0.0016495869976595736 0.00020621514469134367 0.0016525905071656905
183 0.004148316117939841 0.0002719192844458073 -0.0012754629197436029
185 0.0006519557704213515 -0.0014554858310381565 0.005315667138971662
188 0.00012803389074950782 0.00178958647570189 -0.0002357452244024729
189 -0.005262157595043266 0.004816787714270149 0.0007170284003472199
192 0.0003554098602319585 0.00010064617726842617 0.0005769015556345795
193 0.004281205307097542 -0.0003944110247650009 -0.0015136765105027898
196 0.0013090862305287227 0.0013625108000070584 -0.0014719926358057653
197 0.0022104540538650285 -0.0033921048891193727 -0.002273035071946872
199 0.0006960142869750095 0.001606429650309114 -0.0009879181209881515
202 -0.0035157995891742532 0.0019744931750972235 0.008109514495714645
699 -0.003879955700421581 -0.004448496072634609 0.0031898748792947656
206 0.002537719699474557 -0.0013175256641254946 -0.0010139261144888894
209 0.0014436245906656296 0.0019675626394957896 -0.0016597138732267836
210 0.005295542790041205 0.008705628056751262 0.0014272078947545354
213 -0.004584765273734684 0.0015009084356919305 4.229196394202334e-05
214 -0.0037020397841858246 -0.00262775627383236 -0.0002725970947108092
778 0.006629398041589086 -0.0011459980727479883 -0.00028583672716124575
217 -0.008248450132746797 -0.002787594340188618 -0.007964001372618162
220 -7.53215384159604e-05 0.007098267615885858 0.004720053751346678
223 -0.0023473200009539092 0.0003550325122903247 0.004893834047214394
224 -0.0024198959240868943 -7.206020844345677e-05 0.0049317619479130785
227 0.0001945564993832569 0.0018696271404072455 0.004226963606639895
228 -0.002108564086700653 -0.005242727412422509 -0.0041797350612223175
230 -0.014906268537881526 -0.004070832694070768 0.0011757698718316118
231 -0.056651293029847484 -0.009102734967316459 -0.005111622971389315
777 0.0014798754423550062 -0.018249558933548 -0.0009124023458125442
240 -0.004534974589245345 0.0004344844942447863 0.006302600526766759
241 0.0005341696582106045 -0.010537818574725919 -0.019965680013813
242 -0.015633098677718563 -0.0031618842349165244 0.017140354761710812
730 -0.0018418740063702779 -0.0019947825933885523 -0.0024205593163931123
761 -0.0036942466696415943 -0.00836749294293628 0.013655523968793772
249 0.0018654197426911368 -0.002153844189889598 0.000986855988258
250 0.0019696083692212923 -0.002702904261321039 -0.007152295693968069
251 0.009047721599098292 -0.0009283724192806324 -0.007287267510512382
252 0.0003154553494929377 -0.0023515767437939164 0.005058767070186787
253 0.006155069894913113 -0.01599178425587978 0.004873639274016315
86 -0.009881710089859962 0.00030101354879028653 0.00667897813109533
257 0.007859355268842915 0.024824820829214864 -0.008447066866532554
270 0.007610383319099672 -0.00246845765120719 0.003125110585077484
502 0.009188528276335014 0.005815614651022314 0.002975041854034269
258 0.008223528662099166 -0.005390283021533401 0.0031147572300195795
259 -0.017537614849238305 -0.0336673215735935 0.009540958073104929
773 -0.015593102774191623 -0.01327692125447016 -0.009015485026668088
690 -0.001997168543699207 -0.01873039717147939 -0.0009150252888579475
263 0.000422202094621316 -0.005628907119012145 0.0020778815123271717
267 -0.001018271753333747 0.0027896108594547254 0.0030066849224649767
255 0.0008955028181895299 0.003575970984984841 0.00274691166561059
271 -0.0009492031482288219 0.005462497843717288 -0.0037762069273920835
274 0.0009950506274157994 0.00035861573037436993 0.002881580798015538
275 0.0009928846109300163 0.0017791981847166648 0.0019064766530034738
278 -0.00043041006267941753 -0.0021213176093985452 -0.00022036148910510917
279 -0.002067972718303064 0.0015251211058172165 0.0007173775223796125
281 0.0014740678447043441 -0.002617194842411713 0.0011714643295134967
284 -0.0028182214729124315 0.006790295740440432 0.0007477094977524172
739 -0.0029183861009568616 -0.00391994851303733 -0.008220085477701158
288 -0.006868810324131783 -6.109310987388967e-05 -0.009222935821539168
291 -0.00022952024599327795 -0.004621372044906548 0.008776004000928551
292 0.0029774361483728934 -0.008241694833306638 -0.00305975368540807
295 -0.0039963472612851245 0.0019040320818447393 0.002787602610057527
296 0.0027257013501510614 0.0067858633046365404 0.0016669869737696308
698 -0.0002702924087262866 -0.005069475361991874 -0.0030443064497727296
301 0.003073968099206931 -0.0050497617737269174 0.0037710936378414577
304 0.0016936903886735511 0.0029210358862305297 0.002295046482223113
307 -0.0014720881179976272 0.005402482501509549 -0.0035042968287849066
308 -0.0025069001603532665 -0.008913114953243755 0.0033498436551796487
311 -0.007522467685757656 -0.002300217405274829 -0.00376873763658747
312 -0.00023400186889557302 -0.006628418259123477 0.002138115353698066
318 -0.0040118026474592625 -0.0033223140732410055 -0.004994413138487505
319 -0.012148202952628664 -0.020237831802576805 -0.0025768827835578796
776 -0.0329293184663227 0.006050124458017318 0.002427598270245441
328 0.0030918689542806517 0.002069893903994569 0.00920505755236102
329 0.019278680453206357 0.009087229024376897 0.03061612509757622
330 0.005280808789462591 -0.002251632968916883 0.0030286170156618923
760 0.005898178824654105 0.004333372829314086 0.007090828701895719
436 -0.0016742253862498907 -0.0014765715299448665 -0.0075614244042046894
337 -0.002393209596741579 -0.0024178842408907795 -0.001774203315978455
338 0.0054530947111965725 -0.007964251177814543 -0.010126895375527448
339 0.0024765153725798536 0.012113619222837255 0.003014012547346374
340 -0.0004101531053190137 0.011178465941391774 0.004205002909312028
341 -0.005681219699824367 -0.022720100246516148 0.014751255202113527
342 0.004277032916115971 0.012498664428646998 -0.008010776031943638
343 0.005474257757772944 -0.004376051530281876 0.006462037093533844
344 -0.010259784260544077 -0.0074967270049877185 -0.001432601554730723
345 0.0019337132998366055 -0.02586803635107242 0.0011990496218324941
346 -0.00494239367320073 -0.002813095688998128 -0.0016068132424756484
347 0.018384786424535685 -0.01697213256535 0.021660253429933374
348 -0.010167991774262366 -0.017841626984915884 0.0001812575630580418
352 -0.0028658173070790116 0.005707420128939851 -0.00018584172875128847
353 0.002812466422076137 -0.001578143423924874 0.005969904584077864
355 0.0021666928455474988 0.004487617569239248 -0.0025731993778981455
262 0.0023998633276671425 0.001694253148185116 -0.0035473615968970892
359 -0.002016674470118977 0.003571993354923967 -0.004056817259772789
362 -0.002268928231841926 -0.0012058891220989916 -0.0018422350355055054
363 -0.00039866551624188234 -0.0019167579896245794 0.0017282104978360458
366 -0.00039462024053101404 -0.0017590981815863924 -0.0018789243881683823
367 0.002104616021838966 -0.0025284725471187456 0.002357165494772249
369 0.0024113627676834617 -0.0024692114164602767 0.0012866881670600427
372 0.002494439292274752 0.007770530452316932 0.006254299020154298
712 -0.0045290891305421336 0.0021090761154983297 -0.005560609488611984
376 -0.005178585281780237 -0.00021108028963489893 -0.0017775217370802957
379 -0.0003928681132310943 0.007646364693288116 -0.0017201003879337945
380 0.0035564224565263363 -0.003277890933568691 -0.0012865383559519997
383 -0.0033309676972302087 0.006513910527755991 -0.0017734872701607356
384 -0.004636170050130544 0.001721732965934112 -0.0005442067081028377
709 -0.0031805271113962926 -0.0021788684472464842 -0.0031095791664982973
387 -0.0030174522981311716 -0.00013703829072964186 0.0022055530696758817
390 0.0011297664225791838 0.007551255916524281 0.0032667957259374892
393 0.0027042407390829395 -0.0027994539871715406 -0.0005455648406186575
394 0.0018447678193965363 -0.0017403080213273636 0.003757362588402441
397 0.0031317146426422886 0.0025494986932103267 0.004955361631336798
398 0.009339189459257423 0.004772693020843858 -0.00034941761701807675
404 0.0020756485901405677 0.003200114129910117 -0.00016023945107975963
405 0.004408660996530543 0.012749245489389644 0.003083313636026199
775 0.0003370602084496487 0.0018746048225680172 -0.003966597255539443
414 -0.0017540593282976936 -0.0014095772701930328 -0.00043848575474573814
415 -0.005107878931932265 -0.0030235424075856026 -0.023426936591645582
416 -0.008819195435195193 -0.005975039728693203 -0.009276949396780244
718 -0.000640829314618841 -0.006449975547926651 -0.008193709023590193
729 -0.002778409667167988 0.00366974231147248 -0.00014464528377859868
423 -0.005356778065632666 -0.00045659612380281357 0.00330051269343109
424 0.0029047027208035942 0.005349583632492098 0.009833166138421065
425 0.034375177005014544 0.00427174098401005 -0.03480788169530811
426 0.0018197721666497295 -0.0005030944780168037 0.002870531439762166
427 0.0011202757217172578 -0.009460703999541383 -0.007393769822951729
428 0.02388811371943684 0.013706324678863815 0.002463212776730005
165 0.034938516544704167 0.01796034978917698 -0.012086010352652766
715 0.0034142644971854536 0.0014593184241559283 0.001478233316552914
254 -0.008166994775180935 -0.0043057711923243204 0.0283888762956955
432 0.0018064598743608128 -0.00013006100799372038 0.003767612331429608
433 0.006062332454173916 -0.0078061668814754116 0.006477416208383384
774 -0.011524529342586168 -0.025865050271541335 -0.0020883426070292584
701 8.213618692873599e-05 0.00041786150268974693 -0.0002225753781357408
437 -0.004248203118962122 -0.0034002980901672235 -0.0012123465300171844
441 -0.006219869835153134 0.005911302916475718 -0.0072772957853183395
321 -0.006002761337572123 -0.014024531990231058 -0.004246168024612552
445 0.0017649774412868018 0.0030184300054475277 -0.0016107998235882113
448 0.006368255362627025 -0.0016013744623959657 0.004597205416158628
449 0.0006308627756913444 -0.003048751042216033 -0.00020833505450764347
452 0.004987532585124181 0.00014029147586376795 -0.0016440927445863186
453 0.0028963071845411145 -0.0014375799354837263 -0.00562622829401233
455 -0.0024613294946623844 0.0009849491575117711 0.00555205335449389
458 -0.008337487772659436 -0.003251786356039313 -0.003180805118095261
722 -0.000911968384865534 -0.0015280469673520686 0.00024211125251446812
462 -0.0010538252426171176 0.00020030664787363793 0.00024829470453535527
465 -0.00019017167811539277 -0.0031509665293475465 0.006946755178720875
466 0.0027241595484638875 -0.004300614435011251 -0.00209317152387125
469 -0.0014206558873141534 0.004212595545577807 0.0039383024935078685
470 -0.001798366993613784 0.0038704823230532033 0.005159463665088702
692 0.004908320482302879 -0.004976386742281714 0.0002479500426019491
475 0.006677241439682051 -0.0010728478332702773 0.0011466463819588821
478 -0.002540999042651492 -0.0026699320427966897 -0.000998945282637042
481 -0.005206830124509544 -0.0018686148546784964 -0.0021929634490207247
482 -0.0022870123880501655 -0.005822135881024015 -0.005876251151266799
485 -0.005413561677366857 0.001680131587404358 -0.005325803851739017
486 0.0021218511979038336 0.003664158433596758 -0.0008432016877666886
488 0.0048629504928088775 -0.012543138075786444 -0.0008428446762964352
489 0.0015371236058821737 -0.028119769000786915 -0.007923454805903101
620 0.00229605500907074 0.0013814752253081823 -0.00271849346087775
498 -0.006568789935072717 -0.0033071059660750596 -0.001508181898091244
499 -0.008104454991770415 0.017996568808116665 0.01932667618706732
500 -0.03199619644139555 -0.0034483695323875084 -0.00014944792939570613
770 8.805210228484257e-05 -0.02827829893696945 -0.019154666708009267
708 -0.00017210885862045642 0.0033643118179388343 -0.00377127414591888
507 -0.0008995313027242204 -0.0006439011578447904 0.001924207587973016
508 -0.0028449238238798576 -0.00910810705109632 -0.018254920422064252
509 0.019915879931255414 0.01129569600790188 -0.009801502939311046
510 -0.007313062301579914 -0.0036181720371766374 -0.0010047486189646375
511 -0.0012976445411984569 0.004143312169044732 0.03291488819212434
512 -0.0019002984720990542 -0.006447856094317993 0.005094275116461761
513 0.0014254694848940778 0.0006999212754540195 -0.0027260773786492607
514 -0.005478774195357142 0.012854014069190123 0.0002722012404522079
515 -0.0030741461026125056 -0.00034341622339817895 -0.03070450864090945
516 -0.002081807346485611 -0.005202144536864646 -0.004109475045474787
517 0.00738374152943854 -0.012573538091410392 -0.022212044411540396
518 -0.009083273789307499 0.011670177140053743 -0.015827567744423624
444 -0.002772121568670909 -0.0011753457422833814 -0.003698047781798234
523 0.00521055872578451 -0.0007184170190664696 0.001628608044725748
527 0.0006089421840683296 -0.001125548429187434 0.0024500166371872975
694 -0.022207795776109537 -0.007545682391879803 -0.005831309093944066
531 -0.003079800876986639 -0.0032395392057682146 0.002287328915961915
534 0.00033441980351870787 0.005154115710079361 0.006238300027969856
535 -0.002663892008965468 0.0029824372026406587 -0.0015532469149304362
538 0.001269348467100314 0.0008188841251389349 0.004240138569317488
539 0.00027170221201898263 -0.0038828242285165104 -0.002721569659680177
541 0.00240837530170282 0.0015663021780187652 0.003124346928135422
544 0.0005686509489711906 -0.002501769082046606 -0.006952767160420154
713 0.001764564864809565 -0.0018829407322866942 -0.003329026795657871
548 -0.007210305012962181 0.0010968152211900141 -0.002465597741192307
551 -0.000637648697252686 0.0026593521560292254 0.0007379491633657884
552 0.0015062089319199743 -0.0062961371330193605 0.007212526005836473
555 -0.00023446539667386528 0.0034585255043777766 -0.0022729224743922123
556 -0.0032771158763882915 0.0008657946538305024 -0.009900564647976349
726 -0.0014742095940536494 0.0004911498017707627 0.0005742968593061142
561 0.005605511692520961 0.0033063765051295512 -0.0039169168680270915
564 0.0021537552720061093 -0.001846056166001205 -0.003784907684148467
567 -0.005718253278319496 0.003730023170218509 -0.0026086089583694113
568 -0.007743717911388568 0.0021385440110907603 0.0014266722472575108
571 0.0014493876599169584 -0.005103725211308744 0.006932993967428807
572 0.0007178331587531307 -0.001655314510456057 0.007043685217750529
578 -0.003584916037384545 -0.0018950731878392033 0.0015664021726353526
579 -0.00247815938072951 0.013974648334334386 0.021436426186099217
522 0.0022873479603638057 -0.004210912354169918 -0.0028606347589792127
588 0.005160713120398093 -0.0016155437156587826 -0.005776230465109411
589 0.029274296279729835 0.022464622005634843 -0.0031993963524563226
590 -0.006148506020463159 0.02036634737011897 0.0037345816645989417
740 0.00440247172080119 -8.82628719885337e-05 -0.002983843271154715
769 0.007757613218018882 -0.006823707062838443 0.002642354351583187
597 0.00024026469014341048 0.004597805541300729 0.001324142526445344
598 -0.004404468376730181 0.016725252210092356 0.00962053180599074
599 -0.002517312920229033 -0.0026944260090403854 0.035223708330418116
600 0.0050756238907974935 -2.2294540638871616e-05 0.0005935523100515715
601 0.000660648694949773 -0.0075568969844795756 0.019649407010007988
602 0.018596008792150162 0.003371697653337712 0.009267954386798548
334 -0.0010155952013477193 0.0016574422414720323 -0.001931446588497135
434 -0.024058778783381897 -0.011421959670178682 -0.019264049769866835
693 0.02267522999369586 0.039203202892270576 -0.027647621653078616
606 -0.0031752198820636174 -0.006336688552647659 -0.00399024136630389
607 -0.014630747500893987 0.0038175859535959323 -0.0052639445752896905
608 0.00522728133533245 0.0037010870254204054 -0.0007592189993774145
704 -0.0017641136100566316 -0.0008718840246647848 -0.00010774240384239992
613 0.004181674466112625 6.937552923955148e-05 0.004798318554929813
617 7.635620440618812e-06 -7.035891585770273e-05 -9.555268346963914e-05
691 -0.01572007136655773 0.01590513607546321 -0.0009882958653139864
621 -0.0010715999095233597 0.000773929027801135 0.0019620620746924667
624 0.0006996408643825319 -0.0010217143201395366 0.0005899167706662924
625 0.0015181893090344023 0.001538371372810757 -0.0008705671481572142
628 0.0011481978296022934 -0.00304916785171614 0.003536112290362848
629 -0.0014699030526825916 -0.001151147307766707 -0.006892615695983414
631 0.002320758895230054 -0.0011130878150861971 0.0012089862611492177
634 0.0015548354515257737 -0.004831369270597521 -0.007185906672772315
725 0.0024120462003846543 -0.004420296277000084 0.003549963803357383
638 -0.0030857486810355723 -0.005616413325890374 -0.005762648836233025
641 0.001019289986915821 -0.0005600894036835209 0.004115660662678478
642 -0.002060207775123445 -0.006768287687402083 -0.0005942840726825548
645 -0.008114438069352688 -0.0013983545075022094 -0.0005372406976707423
646 0.012706694208785953 -0.0071097771673206646 -0.0018137806682639642
705 -0.00033557341870648987 -0.0026303841676048804 -0.002300466871978684
651 0.003331333161710703 0.005354066049748877 0.008109874434040093
654 0.0017908499553337934 0.0052368050231248854 0.0036119202456723547
657 0.002647706057783502 -0.007571244350737655 0.0029866191121229392
658 0.003847370329266952 0.0022134817499107865 0.0030070575201290913
661 -0.004213295383985721 -0.0031437095317358066 0.005740343716573804
662 -0.0017262840309108143 0.0037910318701518163 0.003992913780030166
664 0.008007443706937331 0.004573222685982002 0.004479524993288894
665 0.014289862028406776 0.008428201026714604 0.0037633422082779394
772 0.008279852340028633 -0.005687163777471931 -0.005760225158877596
674 -0.0010583247994116701 0.002801446791947406 0.0012781380271971433
675 0.01789731536042596 0.013079477570413271 -0.010881575153586412
676 -0.01901982449808395 -0.013568027276754496 0.008202592223910654
751 -0.018706318316896873 -0.00786299963328538 -0.012541429123872986
750 -0.0023190487382102687 0.0037140493907224206 -0.0015641235724161554
683 -0.010244991524223219 -0.004065605688139672 -0.007570044463772307
684 -0.010343149628137403 0.015136114142455675 -0.004441640404275974
685 -0.009964720931648826 -0.02585591071262688 0.010758268360260751
686 -0.002118277458304194 -0.0009909239478425838 -0.0003588385759588947
687 0.011618767889198254 -0.018483803394803034 -0.016788019017390205
688 -0.0033449733464205435 -0.010064291526846843 0.018325592266476832
689 9.731580033553256e-06 -0.0019694171205139124 0.0070250112742788
331 -0.002285376434197974 0.0011713644362643266 -0.005728036850269066
88 -6.885545044476123e-05 0.0038542329431009935 0.009466911881202628
530 0.005048103539066287 0.005425288398692008 0.0004956489055573989
332 -0.004128659307825339 0.00984902512996682 -0.022132399418796828
766 -0.0017020217995517516 -0.0007161214300193947 0.0038018547725088185
422 0.005621455804512488 -0.012623510024348047 0.02714091933433045
605 0.0042805488206219666 -0.00920204370768505 -0.009039425396654567
506 -0.009444151888348806 -0.009269098910206474 0.0021871588234203105
461 -0.00800809297419497 0.0018859582700481888 0.005750836125111239
431 -0.0020965727003430636 0.006932216951595874 0.00031945760191190214
260 -0.009187535404778475 0.008091885147058414 0.012910415541543216
6 -0.006343225648865992 -0.00014254838740605753 0.006234169733510097
23 -0.005531511175478461 -0.007170503687684936 -0.004051346375951168
38 -0.004535237810258049 0.00596718973246594 -0.0045949669429237215
43 -0.006263555311516711 0.01351163481513298 0.0022251996228906654
56 0.008776561447021249 -0.00577472939237288 0.007005483939801584
57 -0.008685965329332869 -0.002369998228408887 0.0065868688237487455
65 0.0011242753705520668 0.005255558221436837 0.005196414290847338
66 -0.022756174864099237 0.018667776651236912 -0.01166331039561632
89 0.002285346570303992 0.006226607113622585 -0.012007966571410284
96 -0.0037933723772876917 0.004437332511774255 -0.00019716240555037385
113 0.006355863840069129 0.003136730191077032 -0.0038728092530801055
128 0.0030612685899746622 -0.005981131143654278 -0.0033933256451741194
133 0.004191582217565899 0.0010843753166779782 -0.0029106237857065083
146 0.0018934179112691223 0.003829815362005659 0.003927365037609772
147 -0.010229008294168921 0.026185339001577705 0.0008793300807079761
155 -0.0024536952533309184 0.004739438849799795 0.0028062266935010823
156 -0.00818652839544618 0.015544114830423736 0.004605704884619373
179 0.01391609288362308 0.010523839647551703 0.008578513186402667
201 0.004955210998887122 0.002200489006739945 -0.0006799392367841929
219 0.009569550053414968 0.000441869288281501 0.0003799657921070938
237 -0.0018618512485759629 -0.008889592184145612 -0.009018844189418769
238 -0.00932786053610617 -0.003969550399920605 -0.004210191548991443
266 -0.0017699991085434069 -0.006478063716426095 0.00030255478985497176
283 -0.003623731485281233 -0.0016254102436142105 -0.005442702179052104
298 0.004653323398960749 0.007500570570445107 0.0009152370192332516
303 0.006697750620741266 0.0002791526555945475 0.003732302434718105
316 0.017608333534988474 -0.005856217665870638 -0.0030718274376244446
317 0.019762869079337782 0.0014085139361428212 0.006083248926531338
325 -0.0021155966740978326 -0.00019324703759481012 0.002732056961801371
326 -0.031979181747459846 -0.007589861537210727 0.03305586399879423
349 -0.011666561083876576 0.003533768844056455 -0.018162587921608582
371 -0.0024831018589568975 0.0064899074315789874 -0.002892457546589504
389 -0.0031081272718563673 -0.0033360174988830626 -0.00275889833028792
402 -0.002696243337853959 -0.0005863244533221621 0.000252741030426673
403 -0.03453351346078018 0.02737045424290994 0.0005257336560248667
411 0.0006286016338439177 0.009382505932911794 -0.00031316161295246754
412 0.0013489622987713197 0.009914394578855106 0.0019384947917127698
440 -0.001620862803054393 8.155094817107456e-05 -0.002513140986627505
457 -0.002092269259384214 0.002518962590761826 0.004418224699892121
472 -0.0021998569019491473 -0.002433333042762441 -0.006548838369862916
477 0.0035217663073830036 0.0008692688880284815 0.0007843859571310401
495 0.0016791596700457183 0.005016751523680012 0.003906014795264687
413 0.017743027832084604 -0.003113740772947718 0.010299411231350968
519 0.01822123482657319 0.0007762647275108172 0.0067844363102118705
526 -0.0007887498131679806 0.0069671053522402165 0.0013992235791197378
543 -0.0017015976211362065 -0.0017638641711371407 0.005229555985111056
558 0.0018386704118548045 0.0017801915416649917 -0.0041237649831713605
563 0.006304223727800301 0.00400808882200226 0.0017465790217444373
576 0.0017571724786353468 0.0006465779539299676 -0.004531573275043428
577 -0.01324569128055958 -0.0031191602849982595 -0.010551596260061089
585 -0.0005823673072600359 -0.0041461557672258465 0.002143583336274639
586 0.0013135399704050804 -0.018307473670136534 0.009512636067336839
609 -0.016608532883370906 -0.013118706580436111 0.01605598321465287
616 -0.0034919260821299346 -0.00406877436341382 0.002193737304941915
633 -0.001236236718976409 0.0018806704451191912 0.00266984108654457
648 -0.00014183498798218464 0.001739668351816622 0.0025737468492943475
653 -0.004215430883443498 0.006328188345605512 -0.00044713540880414145
671 5.920338279296667e-05 0.006175787192145033 0.002480465104376927
672 0.011429108375685114 0.010631196038194587 0.016511020037229016
695 0.024528145494345135 0.0074782000787061735 0.013840116204306625
717 0.0025244523607762612 -0.002655881773611875 -0.0024992873305259102
735 0.004155771774295565 0.0017570979914487228 -0.003970534876405383
748 0.0014117725433142588 0.0085894734900226 0.0011548741640361303
749 0.03560329520707867 -0.033255787137735054 0.00377495828719249
757 -0.005030186418124563 -0.003999646272313409 -0.006038867523414561
758 0.006803977138750494 -0.01213326624236129 -0.0016686409223661048
781 -0.008335510568596332 -0.0006673982851322207 -0.006377292472789694
782 -0.0182973842385626 -0.003307716886736718 0.026765156790750807
783 -0.03455698611748424 0.002010501982212584 0.026045677762311228
784 0.03126745493024896 0.028057123214215402 -0.009502643245680483
785 0.017254238972428327 -0.0012516376251859684 -0.012656867792456545
786 -0.024048157587549166 0.0019227924368151645 -0.008584801769924287
759 0.0050221584905656294 -0.006230917006376852 -0.012699150468525126
27 -0.00046816958325592874 0.0056969069588627365 0.004730999172994509
1986 -0.003801116569077959 -0.009229827289769964 0.003907586608295376
808 0.02146153144123922 0.02949391937840609 0.014489171735573415
809 -0.021604503277064716 -0.002060074070684927 -0.012991434351328598
810 0.0025815641760364417 0.009977375678375883 -0.0006514168894427416
814 -0.0002513205213300442 0.012078779801237904 -0.0015144502198429061
1003 -0.013218194562879121 -0.021169613366562087 -0.01278725958068269
857 0.009669397749564405 0.02904684429697728 -0.02366614126186415
829 0.02803220521037907 -0.02498139522526883 0.009807062106101673
830 -0.02388655172036994 -0.009997675183874495 -0.017293449727630108
831 -0.002484790963009013 0.0031688093099512286 -0.006197178600892087
835 -0.00476622237339151 -0.0035288487277937604 -0.012842259234976852
836 -0.0052699769843789325 0.011276661467563558 -0.006878679507127092
837 0.006210320254770564 0.004069062734851126 0.00058529297325996
877 0.02411393962646713 0.0027799195057892695 0.0014016442637084776
878 0.01017209384950985 0.034358883503909386 -0.02921865213262475
879 0.0008354736994026068 -0.0013125882366966796 -0.0014757492578150102
880 -0.0010336515320871903 -0.0016905290761020657 0.01183167176277268
881 0.010287571321014863 0.0063848016751990935 -0.0009743893381705187
882 0.003500215682466484 -0.0006780403155611218 -0.009647891152825177
892 0.0131283784073213 0.0081928502166904 0.0018818540630147406
893 0.006880766031978846 -0.0008663879747198546 0.032644868349717006
894 0.0029623250431773033 0.001708077415488259 0.0015855492189197494
904 -0.023165433343156162 0.023262335786167595 0.005972350329160852
1958 -0.004489892448513026 0.004929909346758725 0.007486405494773357
906 0.007619821857773558 0.0007054980016814156 -0.0026806011336187575
1852 -0.0026056624927908102 -0.009357089380067631 -0.0024075657201953642
1168 0.011250009609390524 -0.003828029113192309 0.01578114162726003
921 -0.007393386314363198 0.002715739705836907 0.009500469275667917
916 -0.007862722825282442 -0.0042367063154653065 0.011973524257601747
917 -0.01913278713894399 5.388114950026538e-06 -0.00513282229724753
918 -0.006484793892970273 -0.0057495100147568695 -0.0004141970852557437
943 -0.022806514950114674 0.017219053091475454 0.018555353086864183
944 0.0007864293458257338 -0.011232137098225167 -0.00034924136590881423
945 -0.0028945207137767016 0.00019214142277794427 0.005972417098719002
1985 0.02381637300403589 -0.0022458312031445543 0.018340236451012782
1984 -0.0032249865520237756 -0.007083079916850178 0.001696390340932583
637 0.012062529246067086 0.0017429083986334238 0.008150018873284948
967 -0.004803256224227327 -0.03480953370014837 0.0017342338882423017
968 0.014479771307787047 0.022353340609072788 0.026007174176525805
969 0.0005187065780185221 0.0016176679981142396 -0.0036533849384367627
1614 0.00223538266860267 0.0007966501453745481 -0.002725317494526076
977 0.023156936848727057 0.00742049674785517 0.004495302454630424
978 0.0005442224691740797 0.0030657296240727133 -0.00014240125799732073
985 0.011888104615567496 -0.0010092781869448862 -0.015624032882532987
986 -0.014410183335707424 -0.02549404177209545 -0.004299263842044282
987 0.0030621307026416703 0.0004420378364488957 0.0004794927113152183
1866 -0.005244597170119029 -0.0005454534869580981 -0.004926485304711317
1480 0.029101148241018095 0.011033892707866028 -0.011647569652799443
896 0.012398770389956855 0.00947215448567615 -0.004526825497604856
905 -0.006711986974971016 -0.015027552717506555 -0.020398362789644246
998 0.00643567624240223 0.042636467535154376 -0.011333320329866396
999 7.509021272942273e-05 -0.002818808424854789 -0.006375727242260469
547 -0.0066082638152819215 0.0043390122125842485 -0.010974814053187676
1288 -0.016801350632173848 0.022071141794714397 -0.0032581969658130486
1005 -0.0009131740773721753 0.005988513078058984 0.0020031988691203346
496 -0.001696113655663224 0.033847517695294954 -0.004503813236076294
1019 0.00215031496598827 -0.003659079070416621 -0.030689360574371955
1020 -0.00306524415682164 -0.003637196326318367 0.004461348921153717
1507 0.008592381630045567 -0.0037834036710796197 0.020349783475143372
1875 -0.0006346264296179954 0.003115663458881269 0.00362692462691012
1227 -0.0033979100022013807 -0.004326728514056293 -0.0004338482336526869
1076 0.022211187976193526 -0.005614097490871865 0.005364616792962044
1821 -0.002203995495552797 0.009701400014657286 0.002886128241646276
117 -0.00036337293494534824 -0.0019699743268078115 0.0004923122741446962
1051 -0.012227528920383462 -0.014577901402549772 0.013351686673909431
1052 -0.013593084965176028 -0.004685267284720908 -0.016367503592399135
1053 0.004629997863454161 -0.004609826131563857 -0.0001147813084060361
1057 0.007454979315889869 -0.008336632446162295 -0.0071363685770239075
1058 -0.006535167427993117 -0.01730859417192329 -0.016793866059520816
1059 0.004439204876198918 0.0003461813042268801 -0.0031494848835216006
1069 -0.01957956323236331 0.004013280337408599 0.019499778348686318
1070 -0.018530778011197905 -0.0031804341234309224 0.0055559098129342385
1071 0.0026455273042145584 -0.0036506068984041976 -0.0030141317020718453
1096 0.009582119019971191 -0.01883404604197556 0.007330174050445787
997 -0.014280986116118524 -0.0027645791543085122 -0.021367704621402375
1098 0.0025754669262934887 -0.00403792932679636 0.000966933854832304
1105 0.0039259390307205995 -0.02249525109005557 0.00992848711346421
1106 -0.01835129441623817 -0.006728287638966618 -0.012962339889247313
1107 0.005370134767510711 -0.00221427182343438 -0.0010602882290125348
1108 0.012881487701331372 -0.032954802021959925 0.006207849549085195
1109 -0.008509158212525143 -0.0022902388485378567 0.0026507809584425017
1110 -0.008505947109405335 -0.003825057482575496 -0.0002725324127292605
1123 0.009005483955998848 0.0065848183664839275 0.006416718551238794
1124 0.0038729799510418984 -0.0079285192373549 0.01457071194749454
1125 0.005596036499715551 -0.004435463216307613 0.0011509361509134985
1751 -0.01148203820890588 0.023165666191102795 0.00033975657339681693
1620 -0.0005956162278237325 0.004406346080752895 0.0013331117991834604
1612 0.00684106501792368 0.023108633469213106 -0.008403732398959637
327 -0.005066153744188183 -0.008406396602053357 0.005446344893738145
1179 -0.000662498133674133 0.008328772583512315 0.0010710535588398708
1169 -0.01215976414808679 -0.01433065698563873 0.029738678337486557
239 -0.004992428748097134 -0.016447649854366045 -0.028691507653636598
1197 0.0037100997636300235 -0.0004615891768748685 -0.0031191582656009114
1177 -0.0066824852078544794 0.0112961047516521 0.026305360422607532
1900 0.018423861682025332 -0.002050353905243042 0.021387200037332982
1417 0.005481207169113988 -0.000916037265993052 -0.023980193610428076
1989 -0.0063308681740541035 -0.007389609140434617 0.00824146193763243
1198 -0.00619410027810986 -0.019827870919590363 0.031705831787251636
1199 -0.05629536330058912 -0.01777721440504839 -0.0027937746786108704
1200 -0.0019289935707122593 -0.0017052430302339217 0.003004314318976087
1959 0.0002492073437470747 -0.012812468705281986 -0.002835263568426935
157 0.007372205743482625 -0.007624856717638851 -0.0008563245652028836
1225 -0.011341452997470658 -0.0013206720354549115 0.01464855925389496
1207 0.012278249785751425 -0.019229500405999585 -0.0073248005545278935
1208 -0.0018549807349934812 0.008557419367788388 0.005152566167227863
1209 4.0738222395895914e-06 -0.0021566432072005655 0.005391335892270628
1210 -0.009952196690867528 -0.008618373053965338 -0.003085685592080313
1917 0.001510177120466518 0.0008089506777030189 0.0012427406288775882
1046 -0.0280702878640983 0.003051821206509522 -0.013105852250790927
1216 -0.009902284441657668 -0.004715248915036924 -0.012718345026444762
1217 0.01564713797793613 -0.01947642276614518 0.0031278619240182976
1218 -0.0027496387736011436 -0.0004450409390747315 -0.0029970297975754996
1222 -0.002388228188649238 0.0057368506657920725 -0.014520856117469354
1223 -0.013851979157571989 0.0045648945716131985 0.007340393920151223
1224 -0.008767420148898497 -0.003514829847768318 -0.008191320708745356
1874 -0.0033956702434529413 -0.011443517349060593 0.002615403723481995
1226 0.018307687793027598 -0.0010254492029544342 -0.005216345126443665
1458 0.0015736726203920512 -0.0007881447404216422 0.0009965947285132308
1231 -0.006640233212046107 -0.006959026105560861 0.0040497733134334316
1232 -0.006332003323268627 -0.020882583339635705 -0.007341870239227721
1233 0.00044181541433071494 0.0021948550637906302 0.000908963842907274
1240 0.0017110739915369476 -0.02357923918899772 -0.014101352225149735
1241 0.008117396355976364 0.0038009858520168063 0.01246068113368011
1242 0.0012253846592472568 -0.007866589544252045 -0.004382896118481881
1261 -0.004502243732274113 -0.005103356761630784 0.002217336385079807
1262 -0.023298080043580326 0.010408434615119927 -0.028284829006859174
1263 0.007306375314505365 0.0045424870487722055 -0.004538799224969831
1988 -0.003955652795025902 0.017322857515367135 0.024958189651564273
1280 0.004243373618201297 0.005393633181497766 -0.009547113034580104
1281 0.004819394770834154 0.0010571821760171855 -0.008345719451412732
1018 0.010337945479769798 -0.025366195433752126 0.0033199659416847872
1065 0.0038126081913193374 -0.0005900254858481173 0.002812925176423138
1730 0.02063989760838212 0.004310365233962663 -0.029358274625656124
920 -0.0025910976005810537 -0.015490795811535767 0.00323698021661295
1873 -0.012901869172699467 -0.007533772072470131 -0.012316904189038363
1290 -0.0034334846057775697 0.003241198324079732 -0.003436653768829408
1297 -0.02201773470563401 -0.018003131560191572 -0.0014163113965192935
1298 0.016326851425627842 -0.016839094129139434 -0.010943705719438474
1299 0.010030170369070992 0.0009373926295972018 0.0014244317813744483
1312 -0.005000857711844623 -0.0030635145237606263 0.005719941510410228
1779 -0.00880070466587359 -0.0028504397444847275 -0.0007667143191253073
1853 0.014736207648455261 0.012764178494329856 0.008170503562194262
1321 0.008171528676578815 -0.0008533413682425604 0.0015982467452773333
1322 0.01603105930870225 -0.024236599004993423 -0.019944637785448794
1323 3.26999540957093e-05 0.0021198379877541205 0.0040702604465787
1336 0.00733599648713331 -0.0062891136951613025 -0.011187993305161483
1337 0.023754861812431076 -0.014366008237727514 -0.010952988299791367
1338 0.002283549669924512 -0.002015316143116558 -0.008758975015183737
1348 0.03549220662778975 -0.01653948441595858 -0.007753887966333388
1349 0.006343134057989449 0.0058421762860215885 0.01890821270259473
1350 -0.008249865278436769 -0.0019544906123571525 -0.002372666133747692
1363 -0.02883208046738209 -0.01328056881382739 0.010698060178314922
1364 -0.00862920867103482 -0.03255680604738389 0.00045294362111203374
1365 -0.0004367452673118149 -0.000998252056164765 -0.0024369634086398003
1819 0.009082040349890757 0.012913202751670155 0.008371202857058944
1869 0.0015898960289070095 -0.010225004152886435 -0.0013020726514913832
1957 0.016288971393906046 -0.008266450043690898 -0.04653974323003196
1372 0.0209547057002542 -0.009693152474511734 0.0010801825503099513
1373 -0.018807722579689972 -0.004194786683404659 0.006458338538753374
1374 -0.0007991819828028177 -0.008329373856076095 0.004064659930336373
1352 0.005795101184217672 -0.005699273229325863 -0.00750971371330125
67 -0.017818083927339284 0.005537548129217727 0.03427907147025808
1868 -0.004701233509828006 -0.003038621736892897 0.0139727340732104
1384 -0.004256006883632997 -0.016842102857464895 0.012107713511407853
1385 -0.00982773836255013 0.0022599560740011234 0.024686830390585786
1386 -0.004073942137050305 -0.00324300268724241 0.0033581043371783826
1396 -0.016932846119016187 0.015568789355381658 -0.007390747443346686
1397 0.01885965884554866 -0.006301928029196699 -0.018921261093670434
1398 0.00023218534124367954 -0.0037642284033451625 0.006201056998567522
1939 0.01711636923300184 -0.0014230762906110388 0.01292873427655249
802 -0.01679300998252929 -0.010481903166953953 0.024390570229308503
1854 -0.005307083813621264 0.00010960504589678826 -0.00016044090714185559
1432 -0.012305081488148578 0.008221279915443113 0.008041127525553539
1433 -0.009729326546478559 0.005831981466629857 0.01765189033072461
1434 -0.005906726473089 0.004364466870965687 0.010451739237424077
1865 0.0033674928911655616 0.008675180710441883 0.01797572171344201
1075 -0.02169640639251215 -0.012454922022355343 -0.020416383405275716
1285 -0.013351613084284652 0.01177058939022936 0.008251012958849233
1468 -0.01994035192181339 0.00972928806469336 0.00544585898449056
1469 -0.006255373238670818 -0.0014896254220147104 -0.02695767026549569
1470 0.0005473040556616548 -0.005578714504206319 -0.009234824280592925
1483 -0.0030809353329421195 -0.012210916637682874 -0.002935302950575371
1484 -0.0007482349112614173 -0.0002747522150523479 0.015892306502859752
1485 0.0048004714948094215 -0.0010428525160315679 -0.0029274632146809106
1486 0.0020907264087030794 -0.02425267701254989 0.012212523817916123
1487 0.0038151001868479335 -0.008462890837993684 0.02002625237840839
1488 -0.0017410747154916041 0.001122973622243704 0.0004959272907970517
1489 -0.001592213288195253 -0.016293309577220583 0.006876783619001422
1490 0.013021312424904804 0.011474662058761817 0.005365575063377768
1491 -0.009389318922034179 -0.0018489814463076635 -0.00014948237233518204
1196 0.009428209293655669 -0.004833036418142895 0.021459378210815915
1867 0.014979835946763024 -0.00408129921149228 -0.0029504048724717817
1916 -0.015494057117877023 -0.0020095987739051895 0.012939379838090903
1498 0.014262613188962901 0.0019967357831683187 -0.005591420391270406
1499 -0.006286762459903309 -0.00024915851054056585 0.028488361585373385
1500 -0.0006907344101904582 0.004506911547181585 -0.0007383371605124917
1731 -0.001338330576435319 0.004443601476734529 -0.0005406862892224866
815 0.005100593288085994 -0.013000257347530037 -0.004975024109711084
1481 0.011535581044316526 -0.01107938385452427 -0.004307495925306089
1510 -0.025618190645959535 0.015977505978671914 0.01230580815390742
1511 -0.005517407779565783 0.0022497409720216278 -0.002022844226064629
1512 -0.0020890843899363507 0.01112396763816234 0.0012690296521943054
1750 0.02834945997166064 -0.0083669761917547 -0.012098891369104327
1064 0.00455072675605045 -0.03604339701191087 -0.00737488256978466
375 0.0015375480102302699 0.00543296271428195 0.0008510441610724591
1546 0.003627551204073003 0.02200706348307588 -0.006459062443706201
1547 -0.001790885039780356 -0.0018732399223070706 0.005690590943179886
1548 -0.0028314906498581273 -0.0001309787689389032 0.003082175446140005
1902 -0.007543753187226241 0.010709172216692955 0.004372558546509014
1559 0.014753608849785733 -0.012801903690012712 0.02665410958134788
1560 -0.0020384654437305525 0.005315315275400647 -0.0020761564663283527
1576 -0.04161871206203869 0.004077653399261887 0.02860139218648242
1577 0.010537813218450803 -0.007041155192113437 -0.013934642067876691
1578 -0.006046473794236762 -0.00011480357888521544 0.00021259470659137163
1032 0.0032652908566356 0.0019259257508788047 -0.002604651334862303
1419 -0.001966163048107419 -0.004416063914093479 -0.0015023898250166564
1004 0.0004297951788394098 0.010340053175889402 -0.00976521264315715
1591 -0.013532914119220509 -0.006390993206722757 -0.008160960590318496
1592 -0.010850538385690799 0.006406031794381606 0.004561479093533179
1593 -0.00040710696771547965 0.0038258975191778778 -0.0015992210788147094
1609 -0.010306893500962883 0.00509765249530934 0.011256886930590265
1610 0.0009976456979417215 -0.010747804725000719 0.008177374781726452
1611 -0.0011786538828816712 0.0003639932905508173 -0.0046323440426346875
1412 0.0028769810607374795 -0.013936990276036787 0.02502152067214584
1613 -0.0026221464167038573 -0.022352873553078734 -0.023974593093283814
1414 2.7772434712416327e-05 0.029192551443299047 0.008687535824608468
1195 0.0037325968900796436 0.007360317317410904 -0.012760122437512766
497 0.021443116398488327 -0.0028195131052873206 -0.00475370297626627
1415 -0.002810597295951816 -0.020004702290385454 -0.003021051032570215
919 0.017371013440985017 0.009352599136182752 0.010496787666425375
1811 0.0016462485357415242 -0.014266762318783266 -0.0011345903383817018
1539 -0.0022197214724663217 -0.0022109261387892043 -0.002179498661279002
1630 0.03883585408847866 -0.022000589296616677 0.014744674136829653
1631 0.015047221983360342 0.003140132640922426 0.006297543534847703
1632 0.004881393654776479 -0.003943003432723553 -0.0075562287814428825
1864 -0.01639728867064755 -0.002289787863474618 -0.013789030729773282
1047 -0.0030852787944828136 -0.006212301013484593 -0.0011955294917025618
1915 -0.012528836029320851 -0.007759521752361423 -0.0017444280190705575
1509 0.008689322207303424 -0.005186909127686733 -0.0043685654142484615
1279 -0.015073532348580335 -0.002223167165483075 0.005527606932792801
1411 0.008354340440009008 0.012239604366096599 -0.02667394781977035
1413 -0.004025974088066625 0.001437746091148355 0.00023337214291151764
1170 -0.002524361078647684 -0.006179223826402497 -0.005813789366018218
1987 0.003744376950820881 -0.025709427333813803 0.0013485515640231478
1708 0.009021595443209648 0.0142154034500658 -0.0035849740550092475
1709 -0.015013906966804134 -0.011279721744257603 0.007549231390718154
1710 0.0027491213075788584 0.003997168891408893 -0.0036500262195588015
1717 -0.000666838830080814 0.008416248256110042 -0.002007528797989803
1718 -0.004851811255845068 -0.016710431155045096 -0.011252151632788195
1719 -0.0008899824551228209 -0.002795403184475808 0.004517253874399845
1723 0.00618476031740416 0.012092337629288963 -0.0056369718956424675
1724 -0.00637322867585799 -0.008148649816486078 0.025073211627201712
1725 0.013353142862418392 -0.0031171365894635586 -0.0015591542162506037
1744 -0.012841963496196838 -0.005591198001934234 -0.01146471342948005
1745 0.011050192301242864 -0.010045246460592077 -0.008156638152499333
1746 0.0018251140458861042 -0.0048416862243138205 0.0012228428966040755
1923 0.003521827689495996 0.0013078315617115752 -6.268718236140667e-05
1676 0.017538147658869085 -0.01524393752487929 0.00030317834260001816
1752 0.0036622933644253736 0.000310620453384461 0.004882970470420678
1756 0.0038066365264878047 -0.009702006352549933 -0.0022642028728918294
1757 0.016957783934874245 -0.013542212002536644 -0.011014603949428525
1758 0.004566563974222762 0.0009674127488718171 0.0019517952739490235
1759 0.00945488018574937 0.005098850271625218 -0.0006485061035197712
1760 -0.03461488016648523 -0.01206327353405884 -0.010508842306158433
1761 2.2808046255228715e-05 -0.005928413388288082 -0.0038431792122322933
1762 0.0035564423948822093 0.028881537188120098 0.008616258747746072
1763 -0.010037827039104668 -0.019108076380197417 0.0025951757994620507
1764 -0.00018764574975075224 0.000329885745425546 0.004263664591461002
1765 -0.013035982834850624 0.007770053252430942 0.019803662339920335
1766 -0.0030654909299606854 0.003086891058153413 0.0007088655429364529
1767 -0.0003638402809467215 0.0006927012501399565 0.00016133198954522705
1845 0.004240549722177001 -0.0002451014584309665 0.00519671107903071
1778 0.0020801986427218875 -0.004603579178119781 0.008236757231025293
1537 -0.003441615553611109 0.0022464308504711755 0.0017463557247790387
1780 0.007389535033433274 0.02461082969412995 -0.013785982566071378
1781 0.005266075858109319 0.0008557374848858645 0.011821616312777552
1782 -0.0002493874405378534 -0.0061580583081960166 -0.003906931695008713
1783 0.005518276698402398 -0.02236226944940111 0.006834092938061952
1784 0.0005495928754827201 0.019168785262077045 0.0016249702578824716
1785 0.0016907268554209518 -0.0010235689337072108 -0.007322002772880014
858 -0.004983566770901732 0.006226394667521165 -0.004629951203642609
1820 0.009463290257230176 -0.0009273599810684244 0.02198018420344144
1677 -0.00437522588084456 0.0027407020508213014 0.0031501451263546186
1828 0.010519751643398821 -0.03646147881775495 0.0019262504419759363
1829 -0.00081429743759735 -0.0077128389728241915 0.01624139823033938
1830 -0.00727463883060653 -0.0014219348063925052 -0.00025197922533996337
1834 -0.023483326503285797 -0.023609230163288433 0.01437916161783893
1835 -0.01052299526263305 0.006971907591725939 0.007843377181755299
1836 -0.00013427249084899123 -0.0005770756817838437 0.004745393160432983
1843 -0.013519987115632891 -0.01302397444914867 -0.0010166315202913467
1844 0.0337764984857554 0.0062391123460573 0.0032307615878587837
1777 -0.0006277072756840586 8.322239406944775e-05 0.010433684780528576
1212 -0.00042819707594084097 0.00032136106288056245 0.003861071312242728
1211 -0.026747390295786235 0.012004290172466526 -0.005094465537545364
1888 -0.009770243012179089 0.00033536793695964435 -0.01160420100038239
1314 0.006029612869453986 0.001376461259161479 -0.0027261421357915594
1482 -0.005872460112825376 0.00046931768629466006 -0.0027559292783702156
673 0.012353052434429652 -0.012227338978177887 0.0008760124675353197
1940 0.010156786957913975 0.009195997744003434 -0.005588689775045897
1313 0.0006428922399093767 -0.012421132214806997 0.037585576394452626
976 -0.0015001074778245207 0.001658008276085624 0.011915812139184035
1097 -0.010682303661113687 0.004585795840629507 -0.0036857389608900225
1901 -0.0063623377646806435 -0.014404771068179058 0.011531732040838547
1457 -0.003760671275252834 8.55084372321037e-05 0.002393652414017612
1941 -0.0019935230389195122 0.006089102137745865 -0.0010778589350721038
1077 0.0004997126682342923 -0.0022787956148097705 -0.0053328257521519425
1178 -0.018654968212655648 0.011015449308608904 -0.01039883339758643
1289 0.006668247485900454 -0.0046043382727820326 -0.017349733371314822
1508 0.0009001499454312153 0.0032478529037279487 0.0021101730327272423
721 -0.0019308943735099641 0.007242185895091451 0.006348276106934719
1031 0.028207677490748973 0.0018886133356880136 0.022237294176014367
1729 0.014990125490849705 0.00012258622835628562 -0.012536480804735389
1418 0.02114157851634173 -0.027709760573150312 -0.00949186478655229
856 0.03485639183516933 0.03153948092841414 0.016526604911189905
587 0.02210647259481296 0.012175939503507698 0.011935247602904236
1889 0.00995655409186704 -0.026700427509197357 -0.008126810434632516
1045 -0.004002677547674028 -0.007343012355024718 0.025287108320657458
1558 -0.008103013904297808 0.0006302647396481634 0.0009006535309085374
1890 -0.005185156685611158 -0.002942644203787532 0.0009529069244573196
1353 0.0017845830921026883 0.004388809378550808 -0.0019442430780239248
816 0.0006803166598142214 -0.004352619950760967 -0.0005057569111685804
1921 -0.007413965228915452 -0.004043511733308439 -0.009308427205213039
1416 0.0014695812198096956 -0.007709150803095833 -0.005676840429191351
1030 0.01869532789776815 -0.014131311587035605 0.04185290851677644
287 0.003970526466689945 0.00032585563609559677 -0.002263618466354398
100 -0.008186673812281418 -0.002256474609086961 -0.0014771912578109424
1287 -0.00818288136071929 0.0009867606060373671 -0.005654134211449998
1366 -0.029314852002576816 -0.020975815559390824 0.010669406414338712
1456 0.002654778847038472 -0.004861936500155258 -0.0021112611067604656
952 -0.0005295429187502076 0.017313568718638074 -0.040274010717713145
796 0.006320978405064241 -0.014515728846231427 0.001971470888351575
1138 0.010720221255152984 -0.007595406451034301 0.022163190644539053
798 2.7205760480634186e-05 -0.0072529523933057205 0.0010073997220535354
811 -0.010685767727375716 0.01686709839625822 -0.00861235731826811
812 0.016820566428653375 0.020430369084773633 0.03699513929707157
813 -0.0005023800693851299 6.776597947265354e-05 0.005549032442577509
826 0.011496489430951096 -0.03829567846528366 -0.009159855243311924
827 -0.012241272605507622 -0.038241964527088126 0.045860356328761086
828 0.0024359342247560005 -0.002188211990352699 0.005850669868525666
832 -0.011733340499429097 0.01377198832797161 0.013861662964657255
833 -0.012469631794546108 0.0016092620402721849 -0.009531472343547757
834 0.0029429797087311247 0.00021305864222425765 -0.0036293811593861936
838 -0.015546330832929917 -0.005261881036966475 -0.03990163006181314
839 0.014589182550796932 0.024279655263417018 -0.006824860899763444
840 0.0016791218992323863 -0.0019926661470855197 -0.001756024058535519
850 0.008124946013287046 0.005074723131185619 0.01968310785807467
851 0.006252421705001963 0.00862121650056781 -0.00760530957952849
852 0.0022627619543969775 -0.004947672414220141 -0.000528696382193392
853 0.005944560024325237 0.01369797515657303 0.007833331199765495
854 0.01872648172117688 -0.022256912987609255 -0.030708620114822203
855 0.005865653293505261 0.0033652484636627566 -0.013065600557549314
1284 0.007009302674185997 -0.0010506676080705788 -0.0014608116324664841
1378 -0.015903597776415774 -0.011899101536640908 0.009550527166025514
989 -0.010292711975552519 0.007336070683146224 0.005926875852706726
1010 0.004140464190431559 -0.01071467675088434 -0.008472887339278045
1812 0.006110038069796813 0.00557065784922151 -0.006424988485538199
1495 0.0024117353869513537 -0.010094982083580022 0.002273773997690207
1443 -0.0026167394076458137 -0.00011705069589117517 0.00039749294881474834
1977 -0.0024603730615148965 -0.00426074252548128 0.0007135915310234512
1324 0.01690623827237427 -0.009416346418119672 0.008624724481136525
1370 -0.00016951111280326454 0.0016972290652630612 -0.0001004736802840701
1139 0.006152240522791802 -0.002581852392430038 -0.019239773229504663
1667 0.008823660360725606 -0.01013711343196093 -0.024152182252770864
1855 -0.01865343930376976 0.00684855465353493 0.0027989614506499366
1517 0.00446836144171761 0.010553313960692331 -0.0035547681163744394
1292 0.0059750790616822725 0.01520308571752067 0.010984840367219015
898 0.0025789373314417745 -0.009386888008264375 0.009751154761116248
899 -0.02403777367832647 -0.006497881636186266 0.01787016191557149
900 -0.00025363698520917537 -0.006066476841653251 0.0038663696933012395
1395 -0.006571946919249124 0.0020009272798123022 -0.0004934325033268497
1038 -0.0019436061656153227 9.675364967694827e-05 -0.002193724280066261
1388 -0.009181246828082724 0.005613607048412265 0.012011946337098614
910 -0.0033374288162012914 0.003924449060039279 0.0178509005906693
911 0.003464584248599747 -0.000230465795755434 -0.00900845960258424
912 0.005365799032466005 0.0012984726147058034 0.001067317667575529
1423 -0.02235128829439026 0.012083366340171991 0.01273578854379646
1149 -0.0022802689450329003 0.0030298947154176374 0.0009644016845790112
1387 0.004987059531304333 0.014692997856345135 -0.013662962956956605
928 -0.012508489372364382 0.018995065090041657 0.005025183659831094
929 0.0011271217176873636 9.782983259084963e-05 -0.027371631010126515
930 -0.0043938271117363046 0.000426215295123174 0.00035382992338249054
931 0.009149347863367942 0.012230776319981295 0.017683773805289314
1330 -0.020346915624994574 0.015578232181816216 -0.00826998702820434
933 -5.1367020667425255e-05 -0.0028402838656129198 -0.004903367072492539
934 0.0024634850272547736 -0.03976709743747045 -0.03914600812504896
935 0.004320365183311376 -0.022951150734063848 -0.02243986930147627
936 -0.00020299008293452107 0.00870368841412639 -0.002812326817488948
940 -0.022911465633646554 -0.0030465188007376734 0.0009574918051346298
941 0.011697125803556327 -0.009622137647588541 -0.009763994044578051
942 -0.0010771625296640205 0.0010654296866085332 -0.004134757709492501
1140 -0.0009252853717348396 0.0006467341562411362 -0.003684885940594577
1513 -0.026698914288720798 0.017875473457356503 -0.01814559962440813
907 0.0009757962857229661 0.016117013305895666 0.015405018459576616
1870 0.015193142971439259 -0.016276392842652775 0.008868352088941373
1775 -0.004836864661268419 -0.01198295536295766 0.0004317838768318042
957 0.0042441496170179 0.0003852215109096462 0.007786381622527278
970 -0.0006278136630392691 -0.0171059232542321 0.004976821484779069
1523 -0.0060014992265108105 -0.009737123733329113 -0.014723287583302016
972 -0.004906605280655162 -0.006350052434933735 -0.0007796056002661046
1860 -0.0014014323633169666 -0.004732006250768903 0.0002543249142684197
1408 0.006207629391820572 0.006883939117478671 0.0072936773614270195
1858 0.004581308834593323 -0.003616569719348821 -0.0016923906883078033
1590 -0.002292980866490882 -0.003384656759359134 0.0006427832884304522
980 -0.0005134715450024028 -0.007148616082963873 0.01271803303762424
981 0.0004827973670501148 0.005493387463385031 -0.0017791828511513116
1735 0.012749302943589981 -0.01791381615658569 0.020483391895534046
983 -0.017847546194130044 0.010989409876658196 0.006199262956541054
984 0.002751953807994216 -0.006607199777360481 -0.001957680140140047
1776 0.0026046219474233565 -0.0003654647414843155 -0.002466560229826852
846 0.003597974455124946 0.005019977200281208 -0.0016836378650445245
1424 0.00734560006767627 -0.00479831467173596 0.023150050653322714
1842 -0.007741053421371964 0.002242850334361646 0.006581945070807638
1394 0.010559263305437072 -0.019820449854007643 -0.0051296707679700845
1184 -0.011240572524358169 -0.03487478466112839 1.3714251863087555e-05
1931 -0.002023270384568915 -0.020438302824231137 0.004949629670660238
971 0.0005276534211604183 -0.00762641980345285 -0.014942049421083663
1641 -0.0019323600064027897 0.0010191736096864658 -0.007536481075414199
1795 -0.0015986711962265895 -0.05886710715994079 -0.02250889932736318
1187 -0.0014344363689756617 -0.007014855992745709 -0.03719673436988196
1355 -0.005324914514270731 0.006520593153562662 -0.0003291634521199363
1969 0.004850615037815544 0.009122045535765348 -0.012088078193096487
1598 -0.0016089721131499666 0.0064350584426468346 -0.00028821037344790396
1148 -0.0017256460225022047 0.02789256906604272 -0.0032995274536965344
1015 0.00377985540736627 0.01662636488137961 0.0061257887329800725
1016 -0.015414176774559488 -0.019387095730697343 -0.026899194354099546
1017 -0.0031828443353967553 0.001232734090691587 -0.008247810018526893
1377 0.0003129879596724061 -0.002667862255977703 -0.003216164806425837
1895 -0.016705114902193292 -0.01676877867895097 0.005228842827037794
806 -0.031452596794477365 0.013705278132174089 0.01041413230875246
1024 0.00791995060093837 -0.0203490672820945 0.015474202907614669
1025 -0.024857687665848765 0.010232878689072635 0.011270390311063184
1026 0.0031559332212654618 0.0007616192815486838 -0.0021832606227260346
1742 -0.003848549008036663 -0.007920741823421056 0.003132168031267436
932 0.010975774514582967 -0.02996581917291371 -2.0544077572428466e-05
995 -0.013538023571003829 -0.02750136289636447 0.003319119181137348
1054 -0.02055672973970603 0.024528445074705144 -0.010792728834740493
1055 -0.00861063349342941 0.009581013890583702 -0.008249659401237347
1056 0.002748483534292112 -0.0017206021436928292 -0.0077820196010119115
1913 0.009824064355798311 -0.0035945315963718696 0.014126656584422642
1471 -8.158110914466401e-05 0.017278031891075723 -0.01690032756498221
1376 0.020711599436999104 0.01005485276335028 -0.003979160082112036
1276 0.012494580380471094 0.00459791905779417 -0.0008941580466525415
1920 -0.00173372087440526 -0.0027941843630659895 -0.0016131622660025687
1202 0.025188134710511807 -0.011122037723933475 -0.010374242689463423
1084 -0.001859332036801141 0.006003273654441527 0.007353946816306024
1085 0.02758340186622815 0.007939218450186726 -0.010778782107871619
1086 0.009693268551607208 -0.006180435076451566 0.002151926045458592
1090 -0.010085225691341083 0.0010766906510233563 -0.001689583169217306
1091 -0.014402297536651464 0.018626049592586624 0.0037289054855728743
1092 0.0010294130707201564 -0.011407357542229317 0.00031339846193786773
1099 -0.02092218376545883 0.011186101937675445 0.014021810044746381
1100 0.00625348351330558 0.009868305070973062 -0.017082880798387202
1101 -0.006266043095865361 -0.0013531879065880308 0.006337719487372517
1102 0.010964536626034225 0.00033813727889254243 -0.004095662979800035
1103 -0.004270541813504979 0.010065716916224862 0.03628847870165017
1104 0.004535368903627698 -0.0010539194001632681 0.002425805359044019
1114 0.01775613963219503 -0.0016013878647358143 0.007639757511490205
1115 0.013759317899869235 -0.010327871329510204 -0.017154878530874385
1116 -0.0035918247489858117 0.0009675882057566694 0.006918347054251882
1518 -0.0005301863984497629 0.00016975678123353527 0.0018850960122517937
965 -0.010373694531881236 -0.02064671013827436 -0.004865442565302819
1841 0.0044797451517022135 0.021541053538346858 -0.011539662807521691
1132 0.00847132922912998 0.0031395035574860856 -0.003730417066937745
1133 0.004991332689301375 -0.007320498500829849 0.010748047880083003
1134 0.004897304213926081 -3.327009179104625e-05 -0.0010659577107463552
1135 -0.008276477546499874 0.01219835925032007 0.0009081600908742077
1136 -0.013657392870515674 0.005116135106069285 -0.0013258696970714875
1137 -0.005752806673980861 0.0003194453932026922 0.0035058875715753466
1144 0.004852697481117837 0.001830518660266337 -0.00474774273904056
1145 0.014663425825055471 0.020691227385888442 -0.021145314628046166
1146 0.00568067021082575 0.0027292165432438544 -0.0011793983001345358
1150 0.00333438275687373 -0.03329238216875804 0.009151421822932585
1151 -0.002758099931666145 -0.0022845792911712175 0.0026616641074290698
1152 -0.003948480167892452 0.004532235436368672 0.003659927097045138
1774 0.012147023336061671 -0.003839758800840639 0.024430135095378655
956 0.0025913806510335933 -0.0019715302549086285 -0.004695021577779118
1973 -0.004091564300140736 -0.012861209637954504 -0.003500633548366066
803 -0.02326048111763388 0.00029306154268909435 -0.0008441289759914523
1278 0.0067109383336338225 -0.0037076596289789114 0.0026163280443112394
1325 -0.012419256397175652 -0.0029304972471923814 -0.024956928216102223
1192 0.011589605736381738 0.00093917602231003 0.012522892953105658
1193 0.007032121715614749 -0.008590443539729603 -0.002540988277285871
1194 -0.007769044204433139 0.0098703804154885 -0.0008358177043362569
1472 -0.007952958038771316 -0.012434083082635826 -0.007657095845451845
807 -0.004869361609055246 -0.0027233200445687202 -0.00018395359986000752
908 0.0029450127125225036 0.0067584882115595945 -0.014326078396154351
1213 -0.0024421302702991574 -0.012296243901352276 -6.15233250309581e-08
1214 -0.0010500370887624093 0.018813028125218553 0.011466951677718443
1215 0.0006697402389507785 0.006726538795621957 -0.0027249299516171593
1978 0.017050984194951196 -1.5004992425047946e-05 0.032168529693497844
1589 0.00537890984510852 -0.014984605945313123 -0.004012022693386979
868 0.010097926279317064 -0.009836599495853776 -0.032770796459537954
1243 0.005420024045613778 -0.0021197904750341647 0.019141293349425107
1244 0.0006799542729704076 0.015266348170113516 -0.0058398492704058395
1245 0.004887985039146934 -0.002214980748641065 0.0007870037551494511
1249 -0.017056959154014912 0.00033501160327229244 -0.0355917696870243
1250 0.017305791576851495 -0.011771548561676637 0.03143642925659523
1251 -0.00021245146051381117 -0.008515121348490185 0.002230462824925959
1666 0.021007714612181698 -0.019242572350610585 -0.0028042232429772926
1282 0.008510125468160688 0.018100571250555697 0.016861426716558332
1521 0.0035261160672800944 -0.002380105923279085 0.00030704954895640984
1258 -0.005399183801971106 0.01990228113623404 0.00437956639821073
1891 -0.02347782046327798 -0.001576861288629538 -0.020024414355433947
1260 0.0026290169058818314 0.008565578995767745 0.0035199914477555207
1734 -0.0019479564551714331 0.003030553006398161 -0.004032997362704925
1332 -0.0030204230324780918 -0.0066933704088235225 -0.001306440671211347
1618 -0.003053468285835061 0.00907453810365 0.005773701630969278
1356 -0.0010486371387066007 0.0026712406435237205 0.00146973875246182
1011 0.0012964397303263182 0.004584366462403438 -0.002907859245314477
1625 -0.01401849844413236 -0.03165558107425997 0.0068969382968815445
1524 -0.0007475362256033779 -0.0012117480225238258 0.003998143953953528
1856 0.010592424670047357 0.014385462529040507 -0.012689805858536981
1293 0.00292771427783308 -0.0020410674350895782 0.005038309126977195
1303 -0.006314501158587343 0.029057732144612967 0.021016996761136608
1304 0.003261421664837499 0.009343544270452522 0.022872725449297783
1305 -0.006000630085888401 -0.0019763622227015596 -0.0027774476722004686
1897 0.005576563440726026 -0.01020764494383587 -0.01214963955573247
1326 0.004088417557184206 -0.01009743328803908 0.0031495256169225033
1885 0.009735797625846646 -0.007183800330530749 -0.015992388453110355
1318 0.018284060169306744 -0.00012414529240840577 0.005708314706188434
1319 -0.023664548012648202 0.01310152009056429 -0.007071011031206032
1320 -0.0035784542411294103 0.0016186831969010847 0.008678496922197191
1932 -0.001772660141862147 -9.39946017816467e-05 -0.0015208967425520232
1881 0.003425112581075489 0.0018995070007732427 0.003117662968096673
1872 0.0038137135665172474 0.005663338765715851 -0.0018658701146919321
1980 -0.0006211759690173603 0.0061149785574275166 0.005735076588082203
1328 -0.0036829755637786486 0.001886445395022625 0.009506619285656676
1329 0.0003639895928967941 0.00956450444280984 0.007867104699228144
870 0.008911033973021312 -0.0028913759197024026 -0.007912407719218528
1970 0.020603212537913074 0.014860655133965275 -0.0134500474277576
1006 0.005721947096357045 -0.01314695214390562 0.016291732302640922
1367 0.0022189756290344645 -0.012252553123181076 -0.003537635938013794
1444 0.0025136667870036757 0.04236552327163408 0.002615505654504239
1347 -0.002234835431323592 0.003948171232925384 0.0043364830482839865
1879 -0.0028833880522277353 -0.006635591124925698 -0.009987962674859428
1351 -0.008455491431758878 -0.027790792917652473 0.008494389018793095
895 0.011205211332879026 0.02160276566311645 -0.008514420453725057
1357 -0.003279660367600938 0.021490585674145954 -0.0012264795667389669
1358 -0.013592235570812974 -0.011223971321340198 0.0029007061325091194
1359 -0.003494705019852036 0.00343523356856474 -0.00492914439248844
1567 0.01890005583199556 0.010703087407602962 0.02204934063751691
1639 -0.014842288341634834 0.028170597540850988 -0.008789456886598355
1975 0.008675451400481067 -0.015623731095077125 0.0059857021869657145
1425 -0.0036324946489234514 0.00371981614482777 0.0014666714122940406
1515 -0.003243500731864235 0.0039016495882835643 0.0013778798081455362
1833 -0.0017083803364083695 -0.00012306216744309854 -0.006753181132968739
1927 0.008672978251670314 0.005718062030086881 0.027058004851699364
1345 0.008862743822215495 -0.01705419331689362 -0.006418965769844316
1520 0.0078008299909884315 -0.004170152811891671 -0.00020445462365400788
1733 0.017959182419671177 -0.010986099241249403 0.00965356208890693
1840 0.0029699886805301078 0.015017546062965443 0.013361014022759011
909 0.0058753060461801095 -0.00018231072678978372 -0.0012259271761283573
1399 0.015032018018986537 0.021148296481516747 -0.01971109518695866
1400 -0.004283789469661408 -0.03036179989585166 -0.01565662922471735
1401 0.00025456112582502975 0.007367878762504633 -0.0070050449119207344
1402 -0.004339461604599334 0.015047561513519039 0.003212762481128476
1403 0.011290748408238096 0.013219716118509356 0.010774117800164606
1404 0.0017918064943606502 0.0017394424521315504 -0.0036968947265908275
1405 -0.01525018941487028 0.021501823982522685 0.013099025864148779
1406 0.005248286794890708 0.003268869402293455 0.017832024007266616
1407 -0.00043831802149642545 0.005912441066678692 0.001158543518646121
1699 0.009932138825984834 -0.006846908636568505 0.0033511661283503716
1906 0.01282382567404579 0.006005561966594046 0.012517173093473817
1380 -0.0024040287112948025 0.007979689706482194 -0.005494479166508227
1979 0.0009562453470853378 0.019521748893550867 0.005385298564626299
1929 0.0005568310081563266 -0.004459213398633355 -0.001676002315772113
1741 0.0017507788125414275 -0.011982717795888118 0.0008406474472416373
1961 0.005127428026812905 0.003460888811827876 0.00649934475294807
867 -0.0022607803223071107 -0.004684240084452238 -0.006444200099724374
1516 0.02089117299243317 -0.013534565638150288 0.005763068526434344
1327 -0.00017257765043625204 0.0012861082702089982 0.01600881762303595
966 0.0023754351317562426 -0.0029582130068691683 -0.008457653761376069
1185 0.009010022945756585 0.0024454652873591 4.630131021769681e-05
1894 -0.01941500539444789 0.00489354169660552 -0.0230336101378784
1716 -0.006131744562966415 -0.00265139432625752 -0.0042862237126315515
955 0.015461887640212217 -0.010333669559459658 -0.005335649728973812
1462 -0.006908348427142226 0.008693361695155662 -0.0008516858312442825
1463 0.014015072871822834 0.014275768785816921 -0.004830580623677288
1464 -0.00313079152340167 0.006685915034495658 -0.00239093349283557
1009 0.006921975279019593 -0.038227949751701226 0.012988379255141116
866 -0.0005617066576809114 0.00759461402065666 0.021496033206585982
1201 -0.004261992456492671 0.010420825838950001 -0.016264979280756073
1474 -0.010927874595975237 0.008094861707739834 0.008650973215197536
1475 0.014635415486416552 -0.0018901832985652577 0.01216008550122449
1476 0.0051413570520223405 -0.0024591271686306214 0.0026557497801891344
1477 0.006042528694568026 -0.022883901294052548 -0.029373116459330693
1478 -0.00900172700732681 0.00443517553788458 0.007552262300955282
1479 0.003289506866282757 0.0006968787273191826 -0.007417253315117054
1871 0.020240674599711402 -0.007774334725273834 -0.006362280683936913
1797 0.004651318726714607 -0.0009784234029619316 -0.00170020945186635
1787 0.0019896009511682373 0.011657734761198787 -0.006949137220143464
1253 0.012130676583973307 -0.01105636055275479 -0.034259296438376836
1908 -0.007427548570747109 -0.0036751548806328474 0.0013271540974315419
1497 0.0005582621477367688 0.005470712196027127 -0.003564669598834075
1126 0.01827517959096489 0.0053884694692113285 -0.015002478110237295
1514 0.006668634823089535 -0.008524893065239833 -0.014914697831582734
844 0.0011020212503605787 0.0037502696653156195 0.0053237303434750536
1496 0.046705904342358856 -0.006845288096668833 0.009846181512512594
1277 -0.017811637644841286 -0.0070515230710650805 -0.04626359816114563
1588 -0.00907572300391996 0.0003603471280901567 -0.015394608916094043
1369 -0.0012279068116816554 -0.00854227317640857 0.028274433033265097
845 0.013836073417226835 -0.009806110592518368 -0.018092057369312603
1504 0.0031826981161109324 -0.0033630764066791686 0.02754497352036551
1534 -0.00813113329430297 -0.0017198033416704565 0.02537176553113461
1535 -0.020395363452858986 0.018517024611012664 -0.020719180613881418
1536 -0.0020232857542896014 0.0003699995397776599 0.0007973007770046581
1561 -0.014722563145234952 -0.00934233934711607 -0.014200668141562255
1562 0.012713078477504554 0.02107905212131773 0.0034675822874069237
1563 -0.004999717343990562 0.00010905611033028603 -0.0054061340500149505
897 -0.002392668365640967 -0.008448390479328724 0.0038868656570746163
1568 -0.03671661143073721 -0.010143551913367172 -0.019798382555537293
1569 0.0013171101765248967 0.0020635019927706414 0.00037190400600194904
1573 -0.00851447811609829 0.0026355909927252216 0.020999363605943098
1574 -0.005314488676748466 0.003327388226120379 -0.0093124704686143
1575 -0.004421619819168029 0.003915787619060669 0.00624869896615448
1371 -0.0016908775483083808 0.0047366390067550114 0.002675587131112045
1899 0.009269065846839702 -0.0018486474884401006 -0.0020719023899597486
1880 -0.008230554754625929 -0.01004683153717844 0.01486868871030026
1389 -0.001021003242077618 -0.006581608318072687 -0.002683509801632141
1887 -0.00024007559669199897 -0.0005229033727818633 -0.00026741621769806224
1037 -0.004121836296048127 0.0024636522288999274 -0.0032034684417814666
1603 -0.013861686652626957 -0.006783784398995136 -0.0002237673124575747
1604 -0.02453733131570394 -0.01258990271813676 -0.02057909114168966
1605 -0.007559649368483041 -0.0007478475504172364 -0.0014139240680133961
1606 -0.0164559184456795 -0.007916828535862263 -0.004203811269967999
1607 0.003903439705923989 0.017017789484491598 -0.0012890068194278345
1608 -0.004559377537204539 -0.00740682855999251 0.0013769343407090216
1615 0.00952105832482321 -0.005806369087849627 -0.008872491608288615
1616 -0.060567010265011295 -0.017072310178974735 -0.002239515561162864
1617 -0.001637002016540482 -0.002334483588484487 0.0013253786388233704
1960 0.0002880717896849371 -0.014244102995819706 0.0004076653157637742
797 0.010195111971617586 -0.01439309037775223 -0.023586689458512288
1597 0.00239176110837211 0.021433878742980972 -0.0052701197602876134
1628 -0.00126053986047005 0.002133122125901277 0.009099695745210227
1649 0.02285714485151882 0.014219282376264231 0.027612298883062745
1650 -0.0026345054144518254 0.007067743340646712 -0.007661505210574428
1122 0.006360117003300107 -0.002343574717640079 -0.007845592017969659
869 0.00014698744921851182 0.025287784841672722 0.007981180843412563
865 0.025056081533527425 0.001372240720955947 -0.004768481055198509
1657 -0.012660328735952315 0.0034675517947282022 0.008620684857746983
1658 -0.0254670607107231 0.012799301867406104 -0.023789977606322503
1659 -0.0012804110536864023 -0.005509390128936421 -0.008519099840684564
1660 -0.021706166970310144 0.004597126337674177 0.0021324323257884913
1661 0.010575336072339422 0.015756705626248275 0.003204680760416349
1662 -0.0025262286265095323 -0.008523213343471291 -0.0045478785237776445
1663 0.006466398030891043 -0.00028580210839009273 -0.0031218658617955543
1664 -0.016240313957263608 -0.003327781032151667 0.0033226651153182504
1665 0.0009342234052676308 0.004591902616088008 0.006261172084872271
1331 0.01325175210742032 0.020682262978371745 -0.0010634686133892699
1410 -0.0016191942644135707 0.0007181469705609048 0.0038805979959673754
1907 0.012161956795246787 0.0158099360948586 0.014059416276953281
1678 0.01733245310559657 0.005872143824514489 0.0023626599755558965
1679 0.012132851602546969 -0.004582062678542576 -0.031466078582672155
1680 0.0018164336992811411 -0.00031764652517524947 -0.007990007919625676
1687 -0.005006737995032763 0.018928681069526703 -0.01791929479218817
1688 0.00632222521672148 0.010181443222491633 -0.023204284034604804
1689 0.0006832169943551147 0.003812513639128275 -0.003657131078089506
1446 -0.00202664690482914 -0.007311013004618352 0.006612724280050352
1519 0.015581275730997601 0.015744662595356018 0.012529250490292626
863 -0.007849600831706632 -0.009547283422690876 0.016344291025640067
1648 0.006614418657028776 0.019759453139765522 -0.021200681120770976
1619 0.022430103224916176 0.002304207099577527 0.0076565494290734845
1506 -0.005208391370721376 -0.004873352141836489 -0.0070804356577018335
937 0.010082226389125828 0.020671635183275177 -0.004701452190234253
1147 0.018438196711461362 -0.003936505000338114 -0.04065171734641046
1409 -0.013051794788009627 0.012223128577119878 -0.01073683191473083
1705 0.009141577365286025 0.0031634989634606605 -0.018818973600516212
1706 -0.002040637044229096 -0.0059921404284663405 0.013117668564093687
1707 -0.0009004651874259276 -0.005047616504178863 -0.007852099560854166
1726 -0.03300792863228839 0.03083192247008727 0.0012429863679980042
1727 -0.00339984976519976 -0.006165719123663145 0.009211096192366864
1728 -0.002012311741911227 -0.0012274012963543125 -0.007868108064371201
1186 0.0074645832071625964 0.0028602815124936535 0.016913744326147066
1528 -0.0017142485101256438 0.005047387051379307 0.014903210370092741
1128 -0.004786292001189677 -0.005894607791008506 0.0032397886853202623
1505 0.03724717257978273 0.009058555831999961 -0.019476453780472577
1522 0.009151470861065039 -0.007185843267628111 0.00402124919680953
1859 -0.0048249322628877685 0.02610463286987773 -0.020225321880270597
953 -0.0008531959862515842 0.03237176371243329 -0.0015102934156301562
1626 -0.0009330225468411241 0.0011019914268327253 -0.0038784370542904465
1976 0.018807865018808267 0.011525077969129806 -0.023844240088773633
1691 -0.016276505745024383 0.0013749300563862153 -0.028231781749285742
1896 0.0004554163613245425 0.011094856141311565 0.003818869770101518
1743 -0.0013064394789123314 -0.007847369361931159 0.0010274103783775891
1747 0.0021640286769421704 0.009796927125480472 -0.021291889270175286
1748 -0.015915828668735848 0.00623237751797303 -0.005734946212136553
1749 -0.00949751449166305 -0.002852007150799836 -0.0022117690492691492
1753 0.013950412270730092 0.020826284399597366 0.011840887055145459
1754 -0.03260676354808712 0.0010734110807525637 -0.024077513828709467
1755 -2.4977318517142666e-05 0.0003908866050746911 -0.003684796201704373
1393 0.023770062279723052 -0.0013541141776406132 -0.008278986343676962
1715 -0.019317479733279054 -0.03201328532756916 -0.01966260411086663
1700 0.03249659629033234 0.009369931164296701 -0.007576304786633757
1640 0.017807519208060205 -0.00546132412700567 -0.02034686956110525
1007 0.013663909852674117 -0.033373773287769734 0.012251843821393518
1629 -0.00276515963322246 0.003653571203679329 0.004937375766469605
1886 -0.006946455891905811 -0.005241056349617701 -0.007370372494602498
1796 0.013518769167402432 0.0015629836689677696 5.7531499211618795e-05
1930 0.02864338755899615 -0.00930520346424638 0.02920487872057099
1798 -0.018315277477030684 0.010284373518767875 -0.02064883942260983
1799 -0.00328108685750311 -0.004576716094036183 -0.013469313394770156
1800 0.005148360182607081 -0.002386965879117214 0.00120516244281321
1807 0.0020067190022203516 0.0016147725151156478 -0.010814808595798576
1808 0.006222829326295829 -0.011563101780732927 -0.009784259167852055
1809 -0.00020769530569811917 9.147615757686142e-05 -0.0016497698781110584
1822 0.004590168846012973 0.027153582839867324 0.0170606316468101
1627 0.02528727842183152 -0.012211593830527235 0.003637075764632023
954 -0.002576328596088234 0.004932178528582004 -0.00625603721966963
1813 -0.013713310114753567 -0.005550995561588832 0.00597932119685225
1814 -0.012611570754064919 0.01358585891263905 -0.014678674416076837
1815 -9.160998079433389e-05 -0.0031559219533308703 -0.004127560900838139
1857 -0.002499354824430414 0.00532834686023913 0.006973194446876219
1823 -0.005881117541821003 -0.002843022418197334 -0.021809781541439394
1824 -0.004352991420889313 -0.006083947732669393 -0.009657381594791018
1714 0.004435643760723702 0.00202342592035436 -0.013462567774395357
1204 -0.006093566310338139 0.02094474769738179 0.01491372293623939
1008 -0.0014780718635436505 0.00169438673590971 -0.0046860234615283
964 0.026034268639257507 -0.004815218518354321 0.004327807923155069
1962 -0.0039002490340193053 -0.0018853149071946247 -0.000992050108240184
902 0.01650673105682765 0.011198927986746886 0.010071120289861908
1354 -0.01139420403827324 0.015186478119727884 -0.010432071602890551
1732 0.0009104968129859427 0.0008173391791911985 0.018887229877752192
1624 0.007253034848377385 -0.0004204428982329852 0.016603264129315377
1529 -0.010642974818701691 -0.0045286491846861805 0.011979942903682652
1530 -0.006906040178849852 0.00043424198222692054 0.0028148301380975624
1473 -0.009611475159620651 -0.004458593711428619 -0.002494095677944306
1971 0.0030874256666109045 0.003932451964710217 -0.0003626718043711713
994 0.000608811940224474 0.031969709206286376 -0.005910199235539863
996 -0.004803755579799637 -0.003451281623203718 -0.0009083889132621273
1972 -0.0348567152740383 0.0012878619827929453 -0.00985293073152832
1291 0.001980698051144134 0.00840090125619032 -0.003992053557933511
1701 0.001573659335483504 0.0057140755846222 -0.002440092810008196
1379 -0.007643832251827903 -5.172575782561806e-05 -0.016072334822027284
1036 -0.025518232533918536 0.025919547541331543 0.007852652777946648
1918 0.0007779508875033959 0.01184419494248879 -0.0073411874258452435
1375 0.016259368374208844 -0.017199184825175164 0.009892361621402888
1183 -0.01217573857955856 -0.0212786503493062 0.023385498715109355
1127 -0.002710184777249481 -0.0031209659113589083 0.01907656329165379
990 0.002424064864090097 0.003047283676045024 0.001993440573029204
1974 0.0021385475642287325 -0.0011990259471500787 -0.0055023200090752586
988 0.024284121069164954 0.012071578585130046 0.008015673944597512
1788 -0.0003001882019563197 -0.0010736748869084663 0.003797794900194589
1838 0.007399913837919846 0.044347398370093216 0.0015149555612668562
1928 -0.004975872842848502 0.020780622073188756 -0.007979302461761548
862 0.007333032200359053 -0.011943886319525691 0.002816940536141063
1445 -0.0188924858211065 0.015050441548932939 0.026357001592325655
939 -0.0016313310562425859 -0.0030059244093087072 -0.00479243589088095
1188 -0.007144631591803154 -0.003527911730652821 0.01078742128574087
1837 0.006767102854026272 0.002587255274308983 -0.0021679570344277986
1839 -0.0039129603522681765 -0.0009668986616533516 0.00043395692208035737
1599 0.005614536529003055 0.00038417243456565604 0.005150578788888214
1121 0.018451563398289846 0.017705326936625486 -0.01549258530885378
1259 0.003027866538751423 -0.004528809010139772 0.0025288602964922803
890 0.010137264399440616 0.01890064435631633 -0.0013498473925980517
1922 0.01749256259461749 0.0125519597541825 0.012075564216504773
1898 -0.01174603186516485 -0.013884706120349356 -0.0022797881201303
1692 0.0025231741489815784 0.0008270653764522293 0.003328169712018184
1668 0.0025950880867932273 0.003293707922016773 0.0006832178694472298
1203 0.007491587526105199 0.0019430104436760954 -0.003461316982253289
1429 0.031465109819172846 -0.01944107077785345 0.007986868916145869
1892 -0.008183261023650761 -0.0031548647203558607 0.01283199390878669
1538 0.00013302769890532017 -0.023640066263764026 0.0037015188082172327
1252 -0.0029732645071513094 0.009633155526144558 0.019788735410910467
1286 -0.006901466846116651 -0.0011274144003607114 -0.02095924490602535
1914 -0.005399587141119759 8.069038782639014e-05 0.0016746086795416228
1893 -0.006099176443026563 -0.005197009421123579 -0.0018176516820794918
1254 -0.00337959142915051 0.0015273993325736952 0.0035736793131007443
979 0.01952927733501404 0.007123651209611377 -0.006870331171026288
1919 0.01050124080481649 0.0008850319700716691 -0.024948711372226325
804 0.005211531744081891 -0.003560843739685547 -0.0012886280481402388
1441 -0.012413084645486882 0.0014890132156983764 -0.01838681070651766
1368 -0.0036378270798415363 0.00015375647520621583 -0.009006251664914868
1633 -0.016007557025028894 -0.009845700415459058 -0.00570857944746335
1690 -0.022560779848932982 -0.015424311782036066 0.005755422545056014
1283 0.027871277151227104 0.009000934287867602 -0.008741364881299384
805 -0.007713938566640569 0.005894231412488014 0.013559921262045551
864 -0.005786320499250503 -0.0021249172311404185 0.004152719137796378
891 0.0007909952583829142 0.00020886177070520651 -0.001028787849142163
938 -0.011203774020361754 -0.013180283153773783 -0.01752287093756342
1034 -0.003993340095085306 0.006862904233568858 -0.01184682004559559
1634 -0.002444004042026224 -0.009822192631592864 0.018112679413688902
1295 -4.492855533437882e-05 0.008842274981276665 0.021683985949147395
1832 -0.0002364918091183569 0.01174384107119905 0.0161688879234242
1120 0.021737323616887287 -0.004552209826833812 0.0022573099722374675
889 0.013252627898227192 0.000981876944090854 -0.024708106265354933
1022 -0.019507212557247595 -0.006748613062729373 -0.005482728257665013
901 0.010435061362305098 -0.016535868288702484 -0.008645305280438612
1063 0.0014537227522537118 0.01575858190429369 -0.002200066221318519
1675 -0.018295337827993197 -0.0010577071528463356 -0.019331673630959518
1635 0.0008448721223716095 0.004965233825575398 0.002571981865739736
982 0.02127916457822427 0.009097170682628846 -0.014034735587236422
1810 0.019380989594380445 -0.0033172301510828194 0.00889112121876719
793 0.01154663218285275 -0.011242357582524858 -0.008992644128670004
794 -0.01367407602078978 -0.012469059006900658 0.003995071267328785
795 0.0010693500245666941 -0.0008474905246653315 0.004499147101747161
799 0.002692462136238203 -0.003688303768667602 -0.010601979489219208
800 -0.010381839229049778 -0.0024013964528587562 -0.012717937207430176
801 0.00265334846153857 0.010124179538890068 0.002532932709881902
1159 -0.0023406566229174407 -0.015802895683393225 0.0018026915500280272
1049 -0.002403177350525108 0.01165682311751888 0.030422791217373065
1466 0.0046195266936043975 -0.0021522626630970936 -0.008835225780532318
817 -0.001196104661003864 0.0013421112699674089 -0.004499239674796903
818 -0.0013044218678569732 -0.004523191897568577 0.000684745872182205
819 -0.00250620377277311 -0.0018183005288196698 0.0009382253262737621
820 0.0011803159014283709 -0.020060692543020377 -0.013330320199603748
1361 0.008556008224694463 0.0057444608564177655 -0.00047456142034895776
1050 0.0021814685330816307 -0.0007542002209696149 -0.0021106335975283504
823 -0.0285158120275937 0.0010650921176687984 0.023065227490712045
973 -0.020338183844910138 -0.006188164175767657 -0.016546818840633106
1736 -0.0123740375910733 0.002752848565557966 -0.02128480882592723
841 0.0013196559846373303 -0.026218887911176488 0.013077201956681208
842 0.012278706775874048 0.011523133744456057 -0.01410974697517817
843 0.0007633870789262586 -0.0012224211083007148 -0.003828802810193075
1247 0.002351961951635736 -0.03288506476165249 0.011205772635677243
1014 -0.000614206815935632 0.0035297105363413708 0.0017950622275403508
1936 -0.011960688650440589 -0.010391387689533522 -0.001384549694645177
847 0.008000527222971662 0.01321473782555721 -0.002389199511294507
848 -0.028119768558065764 0.03239957028938027 -0.056218566224313246
849 0.0014658487413095607 -0.003719413644251543 0.00019033757531190904
859 -0.013837344970522567 0.009202552571668285 0.004224854474003298
860 0.0036121915211137553 -0.015088732138256634 -0.007072830726693062
861 -0.0027559253428129818 -0.00464701805390782 0.0019247206145001227
1786 0.006876158923577016 0.010711640567766354 0.004682904721037683
872 0.006881706906730385 0.012799390220629337 0.009660229769885965
873 0.0035827290813621408 0.0013220073724933066 0.0019064517307889645
874 0.017646149964369452 -2.465166906348865e-06 0.0008805520714891306
1236 0.0009050373666550908 0.003215021721723497 -0.006668737620461254
1048 0.0007832117626196884 -0.010241382295701627 0.001079700486551944
883 -0.015686126650997372 -0.009771387862456642 0.01983043821075121
884 -0.03007837083872584 -0.019790350148060163 -0.011585316368260172
885 0.002208421705030146 -0.004860539279810711 0.0016178234514561528
1074 -0.002987134513292143 0.0003284946470393658 -0.00014961781539580554
1309 -0.006385405678827914 0.019645334220707352 0.016044249108362958
1453 0.020207345641823037 -0.0029649554606861854 -0.016792101524931515
1029 -0.0005154531406677818 -0.003081008067153877 0.0003174777101462796
927 -0.0036246592830321577 -0.004297475436340842 0.010789211724021598
1021 0.024761168609900904 -0.04274904900419691 0.018736389618641148
1551 0.00010484408168175732 -0.003445004922717755 0.000596945258070045
1166 -0.0042509490935588945 0.013046915708911679 0.01722554049910215
1001 0.006908301437601612 -0.004613225706741336 -0.003651188732221672
922 -0.016036014042080965 -0.0066605506440400655 0.004715761309915482
1968 0.003979390720773073 0.0017512726328830584 -0.00562261435468881
924 -0.0005483485753113059 -0.005781278776622062 0.0006603341863165693
1294 -0.016146064002649355 -0.009514743122202775 0.006177629227256707
1454 0.013056006321163676 -0.001598452100671094 -0.0035247511052157077
410 0.003242878036663527 0.0023810636219185988 -0.009385128187570424
1033 -0.0071818887819190885 0.028677329320155247 -0.004833769525459943
1550 -0.007607210561145082 0.014516004557765857 0.004312747054192831
1694 0.0006647544495166088 -0.0005535068970211734 0.002086246129787443
1924 4.859943127436309e-05 -0.016764981540585453 -0.013292292540293254
1848 0.007084254712747249 0.005009085024883403 -0.0044625503661421245
1944 0.001346851030096585 -0.004487634547110376 0.003568153565621242
1310 0.00014984990284652245 -0.0022769993931147617 0.016402244642372107
950 -0.0077609420716152015 0.027727889264257177 0.006981154829683851
951 -0.003638681468973417 0.0036899335478142517 0.004322810429945836
958 0.0022670325509779534 0.01956816876958684 0.02240162015772623
959 0.021093357621741204 -0.01451560606981514 0.0203070315444333
960 0.0008897852806837716 0.0027469444714245707 0.0026610928317550814
1391 0.004407924910143683 0.01122944997195855 0.009570997452785007
962 0.019819822377584756 -0.04098750726334877 0.01161530390077327
408 0.002561707045802497 0.0036767781218773666 -0.005123920944126709
1685 0.009810728864480148 0.009656867004747886 -0.0010109213790966266
649 -0.0013761903737594863 -0.005843396572955463 0.005062742792345761
1693 -0.020053611574549546 -0.015988770009922923 -0.0008233032589007744
923 0.011240341969510178 0.01936240874448499 -0.00047623010963829536
1652 -0.010166994551253094 -0.00902065453027968 0.007479180588708448
1392 -0.0021860535713984393 0.0007808778785317731 0.0047099897881611895
1553 -0.005588775411434401 0.017836581575743804 0.0046188346553301205
1937 0.016845582316541905 -0.009521696461667367 -0.005630631300889569
1234 -0.014653377783014211 0.012870270512984769 0.01653855640198881
1039 0.0019651615179226466 -0.019508112468619904 -0.01877637737298475
1040 -0.003387066805680011 0.011630394373809149 0.0034317064534789433
1041 -0.001312479958823669 0.0010066164667911575 -0.003577735879193307
1042 0.010219982782574404 0.0219798465651144 0.023412973005498185
1043 0.0003092954018124493 0.004594909650018443 -0.011093686113995771
1044 -0.0024747120110374184 0.0013492203665562052 -0.00484096607962131
1360 0.006166289596051389 -0.012776584478135438 -0.0005621070394561071
409 -0.009743520417180736 0.03079950597301257 -0.005965904787241205
1992 0.004368177444528053 0.0004999779032221465 0.003537323862627702
1060 -0.03518647548295907 -0.007423098489596568 -0.01237199815142794
1061 -0.011733921056418833 -0.012989976442531886 -0.016091740983516453
1062 0.001985802375696654 -0.00033371281170047984 0.0001783805907655613
1066 0.004777341330590489 0.012351894610595073 -0.029332502176648557
1067 0.0019451893672940395 0.004304326953314192 0.009159393658591695
1068 -0.002325174111370648 -0.000624257091038654 0.0021300970949384647
1094 0.012658723792427289 0.00857072169417222 -0.004745644363599459
1501 0.011791131402876145 -0.0014194434663515887 -0.0058969662750041705
696 0.011405806444609957 -0.015412596962074714 0.024768305488059965
1078 0.01134584483188825 0.023657156509625087 0.01776867673583952
1079 0.0220917954002322 -0.018543529076696066 -0.010141280593489357
1080 -0.00014339014595989878 -0.0032169990513077396 0.0010675970208049023
1081 -0.004900794656735868 -0.02221483538851096 0.010674413831612682
1082 -0.0008747220111088276 -0.006772471142446055 -0.007094379518897295
1083 0.0033170812353103276 0.006330620488818288 -0.007186456631412858
1087 0.016936426543761676 -0.002908099797330844 -0.03834671791084016
1088 -0.01535630584031472 0.023406886034966417 -0.017600265945181513
1089 -0.0033198455797343466 9.636306490596305e-05 0.004427186416439659
1093 0.012659194656819812 0.017164110170950243 -0.017181220742033407
494 0.010220670805925697 0.024763537942472845 0.0025632816428448942
1095 -0.0015185104989663529 0.004554933825533365 0.0029213174942862266
1111 0.003336558604141783 -0.00549565506219753 0.015389466601818665
1112 -0.013951141829146486 -0.007244153242262226 0.001644450151465261
1113 -0.004274394247553901 0.0003772633469525979 0.007369507120788704
1117 -0.007829066254457605 0.015366759998275307 -0.028095610753166453
1118 0.0177682356721367 0.022305295995036018 0.033878765293228356
1119 -0.00037600970873882935 -0.0040223537103007065 -0.007334025719019753
1235 -0.045831348014965606 -0.005240655957926461 0.008121591385064967
1903 0.0023822195918074083 -0.0021479645528798465 0.028831008475925637
1002 -0.0008869494245079908 -0.005892371847470683 -0.0003733053344328153
1129 0.04003976228330566 -0.00546509870396435 0.005537014221485065
1130 0.008183143554891784 -0.00998547718969627 -0.039725274890053716
1131 -0.0033097634680180773 -0.00514061337929781 0.0012432744594003075
1933 -0.0016004559039933496 -0.017733149646457183 0.008931869314179839
1911 -0.005334334863303113 -0.0006899276366761699 -0.003503550185741596
1143 -0.0018573616129723386 -0.001130433124292158 0.003148133554792652
1153 -0.004863257315589048 0.012683864582573645 0.0012488756794860494
1154 0.003701200243237994 0.014421579305725534 -0.0029682596611853985
1155 -0.008861907847070359 -0.0028506373637530963 0.0008127921535093605
1156 0.0117617837771801 0.0009719612770355675 0.0061658255371040875
1157 -0.0018473719363402306 0.02075372897865412 -0.008121964556118511
1158 0.0015131750770718318 0.0008845938141668558 -0.005212080976678275
1035 3.950003340883029e-05 -0.0009390235289811513 -0.007070786481778506
1334 0.008797807997070663 -0.0014351911926098646 0.00661439963665533
1910 -0.012148517018327042 -0.022741991780912862 -0.017944171193445053
1162 -0.010652578836108725 0.017709218204774915 -0.004732254014472481
1541 -0.007064761223288993 -0.009210757749980321 2.274794978365883e-05
1164 0.0013901465221072924 -0.0006412663467005248 0.003576179524884555
583 0.0015149593935050029 0.006535874263637062 -0.012890799307714284
1390 0.007226041031622354 0.006638535690447371 -0.004893173882226337
1967 0.000611196298450806 -0.002431501316131535 -0.009051459070878417
1171 -0.012665189650606362 -0.013445069276733179 0.010969216865715463
1172 -0.0016883790114659257 -0.02242543007186091 0.017689843394810275
1173 -0.003909618484695241 -0.0013012583940298346 -0.002054232656357868
1174 -0.01300004077406658 0.01463223282726982 -0.024315946768524426
1175 0.002888041482299541 0.006559955190152062 -0.0011846738480554247
1176 -0.0022010663436721565 0.0014940955599435344 0.000874217477036106
1180 0.011680236674157449 -0.0028757299974983778 -0.022664614991134407
1181 -0.00488452347195244 -0.004030854263510583 0.009492251716226871
1182 0.0015354002250822783 -0.0009780575009594736 -0.00020160326183486606
1189 -0.005802755001584165 -0.008389383818583786 0.014247473832458906
1190 -0.005367485623158071 0.012885460692319236 0.0025040664750976926
1191 0.001746825554040386 -0.0020947254291561464 0.004840269870566211
1449 0.0012971140239773252 0.0012968297460187017 0.0009643576563799421
1926 -0.00808996130720706 0.0063428070190091335 -0.00839089463660934
1684 -0.003311666394948411 -0.013908867352946662 0.005919552828183832
993 0.0030291862622260526 0.0018946337122556203 0.003050168802571132
322 0.00036329292430862793 -0.00285142870534027 0.003751476163871682
1948 0.005561902474871252 -0.015440039076845938 -0.0025660553007967653
1228 -0.024059908581076508 -0.023368681248239157 0.01558111105881803
1229 0.015228314418315745 -0.026334981891471113 0.007454278417164094
1230 -0.001098620443099333 -0.006596518682369982 -0.0044175962093175244
1237 -0.024402717172069578 -0.004708778761258836 -0.022606900763676125
1238 0.004405772509663711 -0.020748259062269292 0.004255710213621761
1239 -0.0014168567836775907 0.0025145881654082226 0.0011350955970393516
1526 -0.001956456563391213 0.004987308650774913 -0.02304880064711509
1467 -0.0012811506397865206 -0.000424914344235208 0.012504563607605233
1943 0.00717915176590335 0.002815321354175577 0.018668081753259708
559 -0.0020975673863032032 0.002844790982596485 -0.0022337066226660357
1246 0.014024993205290402 -0.0025580743432371254 -0.0008342965822501961
991 0.022382575242459235 -0.022263640122811682 -0.013284498382647912
1264 0.018356274235202925 -0.00024002734873100205 0.02448436813860158
1265 -0.004791088765229441 0.00010895336641137094 -0.005335078187970977
1266 0.004380107008940362 0.010206737273648119 -0.0008558627481345884
1267 0.021346146509572703 0.0021235702221244586 0.01764125751310421
1268 0.013113513474565856 0.006668338313330266 -0.03218450412780552
1269 0.007728871939406704 -0.0011822258515358996 -0.007239361146928167
1273 -0.009988795791864258 0.03639350470840506 -0.014760813068332962
1274 -0.010472261534757823 0.022398222538949526 -0.011904961936185872
1275 0.0015854507149213866 0.0034682394581954487 -0.0060909958590583905
1346 -0.013395782750647022 0.0026347334424289925 -0.011943827556627517
1028 -0.024885966657722015 -0.008706658999079967 0.01679022917890078
145 -0.007334381352483093 0.00415921049568147 -0.0015606821906212528
1426 0.025781042962413302 -0.01678947162597856 0.007959810255280426
180 0.005484108597110033 -0.0051696561761800505 -0.009668849491554892
1296 -0.0042792544765932975 0.0020290238722046267 -6.356371266235112e-05
1300 0.023500713460839918 -0.01701677911177745 0.00760272755356971
1301 -0.02194598580032286 -0.03614453793208634 0.011384503320509118
1302 0.006903625666015161 -0.00402993853212339 0.0054397485190625615
961 -0.0004091037265784028 -0.021878544106242077 0.007972436952575379
1651 -0.015798569288947642 -0.03320325932740355 0.022601389166643036
1942 0.0039434173393287746 -0.010126797481597803 -0.01142725977811887
1315 -0.008866011552774099 0.012171022805953047 -0.001664716796805912
1316 0.009023986758669406 -0.018906485739481386 0.02366742754844828
1317 0.001263382742144615 0.0021724077733684456 0.0030237858820052763
1362 -0.0019161305264415367 0.003309193798023192 0.0003229994927962498
1965 0.0031855051400699794 -0.0028644272893971878 8.979344244937663e-07
1343 -0.02162322216184472 -0.015860730667346622 0.01198351392003788
1339 0.0020948366669692863 0.0021483329289336767 0.023520900803890903
1340 -0.006687992788932085 0.01022418366756224 0.004863328159373102
1341 -0.0006197401216086627 -2.4766238365914097e-05 0.002272359284149815
876 -0.006245113093009779 -0.004083448639998146 2.368351213943116e-05
1601 0.0018811164404410447 0.0014961816850571792 -0.017573895190351803
1344 0.0020110662051488343 -0.011299775503073308 0.005625667836671417
949 0.021986591930855923 -0.014289868394445923 -0.0009161471205294581
1167 0.00480782500437857 0.003744221670280202 0.0012337707801453454
584 0.0031310202637330736 0.0003066172943788111 0.002265170491537228
1737 0.0004842369003781007 -0.0031537574799006063 -0.006700459622372674
887 0.0015377538519268884 0.020979046074898425 -0.014764471856538338
1502 -0.007753325032242329 0.011367325744219985 -0.011144946508191143
1381 0.0016120390532840965 -0.00185974274529137 -0.014611438514936752
1382 0.0033888317809442044 0.008573047906713024 -0.023938689053503086
1383 0.00128206794208759 0.003681890613216287 0.004011985349788735
1990 0.018299740696447415 0.00837118806326607 0.02149813262419541
610 0.012432265258776252 -0.005777071513090078 -0.012341755211366469
1982 -0.007369089441073306 0.012001003677847207 0.00021950554284615005
1420 0.017090173737595943 -0.0001488051813601597 0.004098523485817625
1421 0.01663461326632911 0.00677443864589416 0.0006522958816117785
1422 0.0009751752801211764 -0.00072750971948648 0.004212592860523448
1163 -0.001984595860862354 0.004686766938771592 -0.012559308368435029
129 -0.0009818536044383065 -0.006433193444139796 0.0018233931226175593
1950 -0.0008287449974497955 -0.0016254519817683027 -0.002051799125606492
1256 -0.004322204746679437 0.005778199407227604 0.008312652641383273
1430 0.028805286123693978 -0.006817742533690353 0.0192316044438507
1431 0.0037288069277690164 0.00472516783642017 0.00840973156991456
1435 0.013753570193604197 0.01490867125658233 -0.005179532073755213
1673 -0.0055739603436728066 -0.0132005606920262 0.0061652139530006655
1437 -0.009478222667937979 -0.0031008162941139916 -0.0007724551431444922
1438 0.003890560606051374 -0.004722897925126214 0.004277998301651465
1439 0.0024398629360826325 -0.0008587321313003543 -0.00013319045391051192
1440 0.0006656243184075063 -0.010258912110113799 0.007448884882420869
492 0.0012572697465571654 0.005265925499541282 0.0065638367281625224
1442 -0.012738502999811 -0.013014240151970132 0.008714697955120839
1587 0.0005315250970636599 0.0019746345523856054 0.0016020906681198659
1271 0.002451778005191163 -0.007857203438982408 0.014298867477504756
1847 -0.005820714524629416 0.014442312782489034 -0.0032501003136175552
520 0.0152492531558454 0.0012178473711338947 -0.018071267055680556
1450 -0.0067064096250347 -0.009909066111771562 0.0012526512912989444
1451 -0.029835420502217297 -0.01643858986414467 -0.020287509806529925
1452 -0.003658750599054404 -0.0025496529814560626 -0.002182792689590842
1023 -0.0006671202365364365 -0.00022783760465312119 -0.0032330150423066284
1335 -0.005998660989905082 0.001222650830729825 -0.0015898615788145717
1952 0.017711385965335672 -0.008445859244867038 -0.004019299564036916
1459 0.001547536371104579 0.002055058722269596 0.012199952473997609
1949 0.011451610254467 0.02151364877304445 -0.02409975222078746
1461 -0.0010638868400129728 -0.0035521282852916756 0.0020424255407168134
1935 -0.0033932328086379595 0.004068349126759787 0.007365984686123451
1966 -0.011345003691469199 -0.021616497151480726 0.013304493555538982
1878 0.002065748831562671 0.0004999022592672148 -0.004108177113663113
1492 -0.002495152066880828 0.005032083199325926 0.008968901071215141
1831 -0.003021842261316265 -0.002918954586684534 -0.01203960692118454
1494 0.005139838054744875 -0.005038909768378416 -0.0011667488580085006
756 0.0004712724692182326 -0.008169355648590027 -0.013078637559184514
1945 -0.0027882230215864187 -0.009786553269673941 -0.014034067784438168
1503 0.006046703877803298 0.004637366395175016 0.0023970555748714767
90 0.011923414730210798 -0.02447573645299821 -0.011605527831916962
821 -0.003241862015413187 0.005991619472710774 0.0009903948964791673
1585 0.016034612593436488 -0.024849207326085494 -0.004458472258713418
1525 0.01094280839693996 -0.005546105685057179 -0.0022670811003936914
1964 -0.010384321070486273 0.0015371899082363696 -0.02361974940017497
1527 0.004069405159030879 0.001099863493859436 -0.002461496750187314
1951 0.013455936239470698 0.0031378166629066257 0.0314446800037234
1013 -0.018152955450696995 0.0027439578223097134 -0.020484659689501562
1905 -0.006145154315115427 0.003978312192913521 -0.004384299575867269
1531 0.00025496384780288695 -0.018949391264218424 0.011269676472862571
1532 0.016956889384732644 -0.004462368715560367 -0.00708854196724073
1533 -0.0014946334261228022 -0.0018085852812517122 0.003571635837709121
1909 0.0009746226492420202 0.011088267669062315 0.015919911880180014
1963 -0.01515001700404576 -0.0030628488350003874 0.0072909763294212475
871 0.003453005946570135 -0.0012060156176508488 -0.0035631758561140894
1543 -0.008912251623990548 -0.001950370968263838 0.0004979316703787006
1544 0.004023933527639071 0.0024358692557043906 0.01353555343902754
1545 -0.002553359447110563 -0.0031596838846183577 -0.003930981036880041
913 0.0035682850259927856 0.007009957065868973 -0.015009191618601524
1912 -0.001315560663249929 -0.02121073083491706 0.0017145587514041322
1306 0.005567028063557575 -0.007599752041190857 -0.011558784399409178
1311 0.0020001993381429588 0.0010974422687031675 -0.0005110492929334948
875 -0.013663697195900642 -0.015063347631072982 -0.010651617406693095
886 -0.013174793426865818 -0.009996426598629043 -0.003679369023007
1555 -0.01534889428709612 0.003937342353911258 -0.0034349735879372076
1556 0.028447045559927463 0.000814484359552362 0.018803177911298874
1557 0.0021343649727204057 0.0014964968603526103 -0.003928757612504087
1564 0.040927609895221234 -0.0017485858054776203 -0.011129348110363068
1565 0.007338462914244801 0.011260825622946747 -0.006431091623221208
1566 0.0004557594898805062 0.0033541511730553752 -0.001741339993594385
1570 0.004249574552615476 -0.03943618055575933 0.006464244929379291
1571 0.005440470474748673 -0.021105530992563314 0.019289462918051777
1572 0.0027183756347022602 0.0030278046498637265 0.005402904326400023
1955 -0.008647664031470678 0.011567138925833245 -0.015147346434029997
1552 0.012902268480837744 -0.010881278939657638 -0.03724064251559237
754 0.0030236649265344344 -0.0029662418615881456 0.0010504132013881332
825 0.00536254377376216 0.003001807694779258 0.0046826975107601984
1579 -0.02492174387481335 0.004243256911898729 -0.004471484795706446
1307 -0.0034127975088400694 0.004903843388053635 0.0010577454641331754
1594 -0.002819346959219697 -0.011960813984616006 -0.03983412129788924
1595 -0.004478930021478371 -0.006443813784215247 0.02562344123749122
1596 0.0007365919907845795 -0.004166027987670503 0.0001890716388004567
1493 -0.005048616235921087 -0.004933583747816855 0.00010279826468230823
1696 -0.03281158849604654 -0.015402256280572776 0.0029473162948292684
1436 -0.011563267300545528 0.006355207772701533 0.004127389443442334
1621 -0.010752090465252658 0.0016717690980061059 -0.006296257535555249
1622 -0.012922359206841984 -0.043632254180604575 -0.026979675949860095
1623 -0.0052294170680888975 -0.000949201103066371 0.001099495365570578
1636 -0.00887898659142484 -0.007806968196734625 0.011867214356559446
1637 -0.011861869167743063 -0.005450344026927982 -0.0037915155192930856
1638 0.00420799638866121 0.0012771311028844756 -0.0023055932610132088
1642 0.013137289603428439 -0.001646765365172269 -0.016786118467174746
1643 0.010277660257931854 0.03478357670835878 -0.019288465817148076
1644 -0.002576336743401533 0.0028773086024555775 0.0002051516830535966
1141 -0.00697637469877871 -0.005972007151859177 -0.0014312966100144319
1161 -0.0034525298686586743 -0.003784348791043405 0.0016943729833064974
1686 0.003646403190447809 -0.004976236671163573 -0.00048695470373073644
1072 -0.0064805079862434445 0.021049422586558605 -0.003306539211029148
1946 0.01568620871304171 -0.005461091891673617 -0.006205608950195285
1455 -0.004703400507731358 0.0038873528268539947 0.008210290268474538
1954 -0.004213364448920949 -0.0036126311249697484 -0.009419560342431089
1257 0.0042043295341645 -0.0008070807384349244 0.00969215302151345
992 0.011147209768252186 -0.012488398243725555 0.021816463762581628
1142 0.004754895329896902 -0.013785159307655157 -0.0010425282876589672
1342 0.014871531382401881 -0.027603194251041577 0.01820053527261091
1165 -0.0078104623290734 0.01561404237904021 -0.0016712117933756867
1681 -0.019599471242326104 0.015036389960866283 -0.004487916008772922
1682 0.026376305202277486 0.006624889418280225 -0.013193381232509176
1683 -0.0014129117249925684 -0.0009580754388264222 -0.001964387280170139
1586 0.009108589641258122 -0.018662166807944996 -0.006596014412906998
1925 0.015870677725269178 -0.004656566946513479 -0.00877819833191134
1981 -0.01613521512317394 0.013283323678433002 -0.01596386681986124
1904 0.021144548900021643 -0.028587666292650804 -0.0063882147711368945
1697 0.020350671409322115 0.03722746710163629 -0.006161228011216951
1698 -0.0031395612752538513 0.007011146108941356 0.005866539527895524
1702 -0.02968381795789608 -0.026005683505503696 -0.004764018288341313
1703 0.019663947727906573 0.0045567246000152665 -0.01279654424337705
1704 0.006861852201487502 0.002432333258882028 -0.0042146806891675635
1711 -0.015753762797267635 -0.0044537009713943995 -0.017644955521114097
1333 -0.024697040263330437 0.017917261984644915 0.008026786659574446
888 -0.007012108550001993 -0.0034157713930950584 0.004880806158683303
1583 -0.009247223728850661 0.001701781401211715 -0.0033550906360173926
1947 0.0017648063933057008 -0.0007261205073701491 -0.004365334012214616
1542 -0.002129332971384723 -0.002698237430426272 3.4467874917300095e-05
1720 -0.0035117374686582208 0.001965507306025404 0.015995456035228617
1721 -0.04959627291906498 0.00755013497588977 0.0028900307374476793
1722 -0.0009643575118581319 -0.002024416923815608 -0.0013438687493423213
1738 -0.022587687251346432 0.008226760364163 -0.010194652123925533
1739 -0.008327138159747229 -0.02884143728111878 -0.0005789085466518417
1740 -0.0047554028073767424 -0.002533817355837098 0.0037656546002347454
1768 0.012373935322853647 0.012145280771047103 0.014116792283117609
1769 -0.0037917243625278335 -0.01670646463969795 -0.005565840574400356
1770 0.003541420279133564 0.004382042287712545 0.0051024107840477095
1771 0.01432559495488518 0.014421044568007293 -0.003800617476067269
1772 -0.03831656734301154 0.0026144710366589725 0.012270711530101884
1773 -0.001620309920133054 0.0005217261389566407 -0.00015011008985833986
1789 0.021324349035068513 0.02363930714055336 -0.04241327099622504
1790 0.007824234532691479 0.013466967084460293 -0.004984229550570103
1791 0.004119665464578371 -0.004475602872041328 0.0025197687878586905
1792 -0.009109840222980834 0.006265684235332511 0.01938933170412866
1793 -0.0004246637555276192 -0.01968237240777828 -0.0007420293159766271
1794 -2.3186038085852632e-05 0.004184295923489156 -0.00016207726981992102
1801 -0.009682458424249916 0.012885910989189292 0.020094459679159408
1802 0.005656446892358545 0.0012374713901141263 -0.006384533511342894
1803 -0.0017031297323830236 -0.001378555416612352 0.001950324846669421
1804 0.012579772658084552 0.0038729215880777498 0.007261717380961006
1805 0.0215380875262623 -0.000905755322040638 -0.014856001281101015
1806 0.0016684119574194836 -0.005919084793187853 -0.002719626590778071
1816 -0.00749606188402533 0.007324032520236544 -0.00888893190190007
1817 -0.021217063176918637 0.007318301003537065 0.027069772876245738
1818 0.0011241597895075746 0.0013297921861973113 0.0012730653267304724
1825 -0.011407502708740105 0.00042040333849778413 -0.00736154210312857
1826 0.00875017046441513 0.003649092081366334 0.012328699290663745
1827 -0.007278395908339957 -0.0006822435828898285 -0.0030779052313185955
1991 -0.015974796798348987 -0.017168383835665813 -0.007943533698180821
1983 0.0029009514684588678 0.0050855265551034085 -0.004693888275821067
1027 0.008335744868320812 0.010055855943105966 0.00356307756867293
1883 0.027172795823406006 0.0028086530945868743 0.023421103237222917
1000 0.008714171964675506 -0.0022668391465562065 0.010808687760280147
1012 -0.03397201650948496 -0.02525425683338064 -0.0065382287191162874
1849 0.01308444613816125 0.02104355135660893 0.031881208730849916
1850 -0.0053157018979602235 0.02594524608267548 -0.020492334568436753
1851 -0.0007404181833533782 0.0006491826856631862 -0.010728602414264338
1861 0.0011435518089777108 0.037308189776454975 8.6253101604296e-05
1862 0.010238675682179366 0.016157206828204002 -0.0043708937357321365
1863 0.0035515009184166786 -0.0007540065351195887 1.684587268974844e-06
1876 0.008456134767943968 0.032542531325436615 0.005147144901872689
1877 0.02502599451518964 0.005787969291446199 0.014205760418837868
1465 -0.0017432111381843224 -0.009654828737289897 0.0060381501601354986
914 0.023245432601748973 -0.00251199706819143 0.00544647461381375
1428 0.00035033637060469377 0.001356463563571231 -0.001827612027677344
1248 0.00019796285475835824 -0.010155266974296993 0.00368436683672129
963 0.0001730087939709501 0.002506424235970966 -0.0020228976239754504
1073 0.00969766466955594 -0.01583565593329127 0.015753347491428912
1956 -0.008935179644166753 -0.004459704884005948 -0.00014049729926927267
1882 -0.0066757456547119265 -0.028471542582950937 0.026038615719164607
926 -0.008916177281194062 0.004442990801862367 0.007678766807921594
1460 -0.007116709943634153 0.004387850422929934 -0.0032707555649092793
1540 0.0037121489842877908 0.013445649940627356 -0.001135255262679103
822 -0.005393416203370053 -0.00042607838946349063 -0.006333221133672973
1713 -0.0006086170951855425 -0.008633522022147774 0.005355493549381816
1672 -0.03866077985474109 0.014481696513429175 0.004236561412000341
1938 0.0039067865757907725 -0.0009444139742646688 -0.004893358501320371
1580 -0.011808871196260928 -0.020156634841428902 0.012172800684874743
915 0.006588836765082713 0.0014655828142332197 -0.008109279989424564
1554 -0.003517028377473909 0.0080369070310495 -0.0037201877152579833
1846 -0.008672653892977365 0.008856286113159782 -0.004378318132197972
1221 -0.000705952712840061 0.0004040606608119104 0.0031592742414923397
350 0.011730689498609021 -0.00013797479191309417 0.0008472902145405786
1206 -0.005818998030272545 0.003900785538005115 -0.001764657658462106
1712 -0.0009618822973256401 -0.01262427839738174 0.0011691979474766773
1160 0.02961748942623653 0.013901202848308848 0.014353072146820599
1674 0.006122517284919687 0.0017879990964146002 0.007591535730358596
1884 -0.002584694551834036 -0.0029779304454029 -0.0032379641260378016
1205 0.004605174769398949 -0.013495878155564352 -0.021775764071506915
1695 -3.951990969973116e-05 -0.004903407745866629 -0.004562041015426769
1582 0.006195408305478818 0.013078639262036994 0.0007452201125049948
1549 -0.014687585556247823 0.004638732745682414 -0.001601788297485917
1581 0.010475939647414657 0.001314612031374839 0.0036748469678362827
1448 -0.002807203702818758 0.005462820614699879 -0.01664861766524145
975 0.010077328475069912 0.0044402079830480265 0.0018724715167467113
1308 -0.004527146038473276 -0.0047899452849833905 0.004309794542672909
974 -0.031146280517380717 -0.001689269359422556 -0.0027268188884828136
755 0.019633653222733874 0.002703648396644657 -0.002867043351738565
1272 -0.002140669399392211 -0.006504992621571057 -0.0014984984623143181
1953 0.00847804501481512 0.016132001985016613 -0.005618370179294176
1270 0.007746969068494872 -0.014000688473125914 -0.031158560937300964
1653 -0.005168343522216055 0.006268264381609358 -0.004966327923047952
1934 -0.013621113296994197 7.833477847337445e-06 -0.00705914854944498
1647 -0.0015185532210750742 -0.0015318543501685292 0.0029062941355442284
903 0.0025235593527531274 0.0012593747162482369 -0.004111886582248911
493 -0.02423347074799444 0.008245202580391048 0.029801638292106823
1255 0.013378981847657973 -0.008629841640014293 0.01677531306366251
473 0.00015195397735702553 0.0061742565257730695 0.004079990206337128
323 -0.013305607922880441 -0.00036476254690051525 -0.001947565839703199
39 -0.004457579329292342 0.0033158672423243174 0.003578653485695965
1584 -0.0009294133905166456 -0.0036960834194038283 0.007916480701984622
1447 -0.03540051571244735 -0.010745939028013006 -0.002301830471928807
582 0.0011858647301146443 0.0035650189234767097 0.0034206130860140456

Bonds

1 1 60 61
2 2 62 63
3 2 62 64
4 2 948 946
5 2 948 947
6 1 150 151
7 1 54 55
8 2 161 162
9 2 161 163
10 1 200 787
11 1 218 788
12 1 232 233
13 2 234 235
14 2 234 236
15 2 243 244
16 2 243 245
17 1 314 315
18 2 429 430
19 2 429 431
20 2 677 678
21 2 677 679
22 2 594 595
23 2 594 596
24 1 370 789
25 1 388 790
26 1 406 407
27 2 591 592
28 2 591 593
29 2 246 247
30 2 246 248
31 2 164 165
32 2 164 166
33 2 417 418
34 2 417 419
35 1 752 753
36 1 490 491
37 1 746 747
38 2 680 681
39 2 680 682
40 2 1671 1669
41 2 1671 1670
42 1 580 581
43 2 152 153
44 2 152 154
45 2 71 72
46 2 71 73
47 2 504 505
48 2 504 506
49 1 666 667
50 2 668 669
51 2 668 670
52 1 716 791
53 1 734 792
54 2 763 764
55 2 763 765
56 1 400 401
57 2 501 502
58 2 501 503
59 2 1656 1654
60 2 1656 1655
61 2 74 75
62 2 74 76
63 1 144 145
64 2 420 421
65 2 420 422
66 1 574 575
67 1 299 350
68 1 320 321
69 2 603 604
70 2 603 605
71 2 1602 1600
72 2 1602 1601
73 1 58 59
74 2 68 69
75 2 68 70
76 2 77 78
77 2 77 79
78 2 80 341
79 2 80 342
80 2 83 84
81 2 83 85
82 1 148 149
83 2 158 159
84 2 158 160
85 2 167 168
86 2 167 169
87 2 170 427
88 2 170 428
89 2 173 174
90 2 173 175
91 2 176 177
92 2 176 178
93 2 778 779
94 2 778 780
95 1 230 231
96 2 240 241
97 2 240 242
98 2 249 250
99 2 249 251
100 2 252 511
101 2 252 512
102 2 86 87
103 2 86 88
104 2 258 259
105 2 258 260
106 2 255 256
107 2 255 257
108 1 318 319
109 2 328 329
110 2 328 330
111 2 760 761
112 2 760 762
113 2 337 338
114 2 337 339
115 2 340 601
116 2 340 602
117 2 343 344
118 2 343 345
119 2 346 347
120 2 346 348
121 1 404 405
122 2 775 776
123 2 775 777
124 2 414 415
125 2 414 416
126 2 423 424
127 2 423 425
128 2 426 687
129 2 426 688
130 2 432 433
131 2 432 434
132 2 692 693
133 2 692 694
134 1 488 489
135 2 498 499
136 2 498 500
137 2 507 508
138 2 507 509
139 2 510 773
140 2 510 774
141 2 513 514
142 2 513 515
143 2 516 517
144 2 516 518
145 1 578 579
146 2 588 589
147 2 588 590
148 2 769 770
149 2 769 771
150 2 597 598
151 2 597 599
152 2 600 81
153 2 600 82
154 2 334 335
155 2 334 336
156 2 606 607
157 2 606 608
158 1 664 665
159 2 772 253
160 2 772 254
161 2 674 675
162 2 674 676
163 1 750 751
164 2 683 684
165 2 683 685
166 2 686 171
167 2 686 172
168 2 689 690
169 2 689 691
170 2 331 332
171 2 331 333
172 2 766 767
173 2 766 768
174 1 38 89
175 1 56 57
176 2 65 66
177 2 65 67
178 1 128 179
179 1 146 147
180 2 155 156
181 2 155 157
182 1 201 781
183 1 219 782
184 2 237 238
185 2 237 239
186 1 298 349
187 1 316 317
188 2 325 326
189 2 325 327
190 1 371 783
191 1 389 784
192 1 402 403
193 2 411 412
194 2 411 413
195 1 472 519
196 2 495 496
197 2 495 497
198 1 558 609
199 1 576 577
200 2 585 586
201 2 585 587
202 1 648 695
203 2 671 672
204 2 671 673
205 1 717 785
206 1 735 786
207 1 748 749
208 2 757 758
209 2 757 759
210 2 1986 1984
211 2 1986 1985
212 2 810 808
213 2 810 809
214 2 831 829
215 2 831 830
216 2 837 835
217 2 837 836
218 2 879 877
219 2 879 878
220 2 882 880
221 2 882 881
222 2 894 892
223 2 894 893
224 2 906 904
225 2 906 905
226 2 921 919
227 2 921 920
228 2 918 916
229 2 918 917
230 2 945 943
231 2 945 944
232 2 969 967
233 2 969 968
234 2 1614 1612
235 2 1614 1613
236 2 978 976
237 2 978 977
238 2 987 985
239 2 987 986
240 2 1866 1864
241 2 1866 1865
242 2 999 997
243 2 999 998
244 2 1005 1003
245 2 1005 1004
246 2 1020 1018
247 2 1020 1019
248 2 1875 1873
249 2 1875 1874
250 2 1227 1225
251 2 1227 1226
252 2 1821 1819
253 2 1821 1820
254 2 1053 1051
255 2 1053 1052
256 2 1059 1057
257 2 1059 1058
258 2 1071 1069
259 2 1071 1070
260 2 1098 1096
261 2 1098 1097
262 2 1107 1105
263 2 1107 1106
264 2 1110 1108
265 2 1110 1109
266 2 1125 1123
267 2 1125 1124
268 2 1620 1618
269 2 1620 1619
270 2 1179 1177
271 2 1179 1178
272 2 1197 1195
273 2 1197 1196
274 2 1989 1987
275 2 1989 1988
276 2 1200 1198
277 2 1200 1199
278 2 1959 1957
279 2 1959 1958
280 2 1209 1207
281 2 1209 1208
282 2 1917 1915
283 2 1917 1916
284 2 1218 1216
285 2 1218 1217
286 2 1224 1222
287 2 1224 1223
288 2 1458 1456
289 2 1458 1457
290 2 1233 1231
291 2 1233 1232
292 2 1242 1240
293 2 1242 1241
294 2 1263 1261
295 2 1263 1262
296 2 1281 1279
297 2 1281 1280
298 2 1065 1063
299 2 1065 1064
300 2 1290 1288
301 2 1290 1289
302 2 1299 1297
303 2 1299 1298
304 2 1779 1777
305 2 1779 1778
306 2 1323 1321
307 2 1323 1322
308 2 1338 1336
309 2 1338 1337
310 2 1350 1348
311 2 1350 1349
312 2 1365 1363
313 2 1365 1364
314 2 1869 1867
315 2 1869 1868
316 2 1374 1372
317 2 1374 1373
318 2 1386 1384
319 2 1386 1385
320 2 1398 1396
321 2 1398 1397
322 2 1854 1852
323 2 1854 1853
324 2 1434 1432
325 2 1434 1433
326 2 1470 1468
327 2 1470 1469
328 2 1485 1483
329 2 1485 1484
330 2 1488 1486
331 2 1488 1487
332 2 1491 1489
333 2 1491 1490
334 2 1500 1498
335 2 1500 1499
336 2 1731 1729
337 2 1731 1730
338 2 1512 1510
339 2 1512 1511
340 2 1548 1546
341 2 1548 1547
342 2 1902 1900
343 2 1902 1901
344 2 1560 1558
345 2 1560 1559
346 2 1578 1576
347 2 1578 1577
348 2 1032 1030
349 2 1032 1031
350 2 1419 1417
351 2 1419 1418
352 2 1593 1591
353 2 1593 1592
354 2 1611 1609
355 2 1611 1610
356 2 1539 1537
357 2 1539 1538
358 2 1632 1630
359 2 1632 1631
360 2 1047 1045
361 2 1047 1046
362 2 1509 1507
363 2 1509 1508
364 2 1413 1411
365 2 1413 1412
366 2 1170 1168
367 2 1170 1169
368 2 1710 1708
369 2 1710 1709
370 2 1719 1717
371 2 1719 1718
372 2 1725 1723
373 2 1725 1724
374 2 1746 1744
375 2 1746 1745
376 2 1923 1921
377 2 1923 1922
378 2 1752 1750
379 2 1752 1751
380 2 1758 1756
381 2 1758 1757
382 2 1761 1759
383 2 1761 1760
384 2 1764 1762
385 2 1764 1763
386 2 1767 1765
387 2 1767 1766
388 2 1845 1843
389 2 1845 1844
390 2 1782 1780
391 2 1782 1781
392 2 1785 1783
393 2 1785 1784
394 2 858 856
395 2 858 857
396 2 1677 1675
397 2 1677 1676
398 2 1830 1828
399 2 1830 1829
400 2 1836 1834
401 2 1836 1835
402 2 1212 1210
403 2 1212 1211
404 2 1314 1312
405 2 1314 1313
406 2 1482 1480
407 2 1482 1481
408 2 1941 1939
409 2 1941 1940
410 2 1077 1075
411 2 1077 1076
412 2 1890 1888
413 2 1890 1889
414 2 1353 1351
415 2 1353 1352
416 2 816 814
417 2 816 815
418 2 1416 1414
419 2 1416 1415
420 2 1287 1285
421 2 1287 1286
422 2 798 796
423 2 798 797
424 2 813 811
425 2 813 812
426 2 828 826
427 2 828 827
428 2 834 832
429 2 834 833
430 2 840 838
431 2 840 839
432 2 852 850
433 2 852 851
434 2 855 853
435 2 855 854
436 2 1284 1282
437 2 1284 1283
438 2 1812 1810
439 2 1812 1811
440 2 1443 1441
441 2 1443 1442
442 2 1977 1975
443 2 1977 1976
444 2 900 898
445 2 900 899
446 2 1395 1393
447 2 1395 1394
448 2 1038 1036
449 2 1038 1037
450 2 912 910
451 2 912 911
452 2 1149 1147
453 2 1149 1148
454 2 930 928
455 2 930 929
456 2 933 931
457 2 933 932
458 2 936 934
459 2 936 935
460 2 942 940
461 2 942 941
462 2 1140 1138
463 2 1140 1139
464 2 957 955
465 2 957 956
466 2 972 970
467 2 972 971
468 2 1860 1858
469 2 1860 1859
470 2 1590 1588
471 2 1590 1589
472 2 981 979
473 2 981 980
474 2 984 982
475 2 984 983
476 2 1776 1774
477 2 1776 1775
478 2 846 844
479 2 846 845
480 2 1842 1840
481 2 1842 1841
482 2 1641 1639
483 2 1641 1640
484 2 1017 1015
485 2 1017 1016
486 2 1377 1375
487 2 1377 1376
488 2 1026 1024
489 2 1026 1025
490 2 1056 1054
491 2 1056 1055
492 2 1920 1918
493 2 1920 1919
494 2 1086 1084
495 2 1086 1085
496 2 1092 1090
497 2 1092 1091
498 2 1101 1099
499 2 1101 1100
500 2 1104 1102
501 2 1104 1103
502 2 1116 1114
503 2 1116 1115
504 2 1518 1516
505 2 1518 1517
506 2 1134 1132
507 2 1134 1133
508 2 1137 1135
509 2 1137 1136
510 2 1146 1144
511 2 1146 1145
512 2 1152 1150
513 2 1152 1151
514 2 1278 1276
515 2 1278 1277
516 2 1194 1192
517 2 1194 1193
518 2 807 805
519 2 807 806
520 2 1215 1213
521 2 1215 1214
522 2 1245 1243
523 2 1245 1244
524 2 1251 1249
525 2 1251 1250
526 2 1521 1519
527 2 1521 1520
528 2 1260 1258
529 2 1260 1259
530 2 1734 1732
531 2 1734 1733
532 2 1332 1330
533 2 1332 1331
534 2 1356 1354
535 2 1356 1355
536 2 1011 1009
537 2 1011 1010
538 2 1524 1522
539 2 1524 1523
540 2 1293 1291
541 2 1293 1292
542 2 1305 1303
543 2 1305 1304
544 2 1326 1324
545 2 1326 1325
546 2 1320 1318
547 2 1320 1319
548 2 1932 1930
549 2 1932 1931
550 2 1881 1879
551 2 1881 1880
552 2 1872 1870
553 2 1872 1871
554 2 1980 1978
555 2 1980 1979
556 2 1329 1327
557 2 1329 1328
558 2 870 868
559 2 870 869
560 2 1347 1345
561 2 1347 1346
562 2 1359 1357
563 2 1359 1358
564 2 1425 1423
565 2 1425 1424
566 2 1515 1513
567 2 1515 1514
568 2 1833 1831
569 2 1833 1832
570 2 909 907
571 2 909 908
572 2 1401 1399
573 2 1401 1400
574 2 1404 1402
575 2 1404 1403
576 2 1407 1405
577 2 1407 1406
578 2 1380 1378
579 2 1380 1379
580 2 1929 1927
581 2 1929 1928
582 2 867 865
583 2 867 866
584 2 966 964
585 2 966 965
586 2 1185 1183
587 2 1185 1184
588 2 1716 1714
589 2 1716 1715
590 2 1464 1462
591 2 1464 1463
592 2 1476 1474
593 2 1476 1475
594 2 1479 1477
595 2 1479 1478
596 2 1797 1795
597 2 1797 1796
598 2 1908 1906
599 2 1908 1907
600 2 1497 1495
601 2 1497 1496
602 2 1536 1534
603 2 1536 1535
604 2 1563 1561
605 2 1563 1562
606 2 897 895
607 2 897 896
608 2 1569 1567
609 2 1569 1568
610 2 1575 1573
611 2 1575 1574
612 2 1371 1369
613 2 1371 1370
614 2 1899 1897
615 2 1899 1898
616 2 1389 1387
617 2 1389 1388
618 2 1887 1885
619 2 1887 1886
620 2 1605 1603
621 2 1605 1604
622 2 1608 1606
623 2 1608 1607
624 2 1617 1615
625 2 1617 1616
626 2 1650 1648
627 2 1650 1649
628 2 1122 1120
629 2 1122 1121
630 2 1659 1657
631 2 1659 1658
632 2 1662 1660
633 2 1662 1661
634 2 1665 1663
635 2 1665 1664
636 2 1410 1408
637 2 1410 1409
638 2 1680 1678
639 2 1680 1679
640 2 1689 1687
641 2 1689 1688
642 2 1446 1444
643 2 1446 1445
644 2 1506 1504
645 2 1506 1505
646 2 1707 1705
647 2 1707 1706
648 2 1728 1726
649 2 1728 1727
650 2 1128 1126
651 2 1128 1127
652 2 1626 1624
653 2 1626 1625
654 2 1896 1894
655 2 1896 1895
656 2 1743 1741
657 2 1743 1742
658 2 1749 1747
659 2 1749 1748
660 2 1755 1753
661 2 1755 1754
662 2 1629 1627
663 2 1629 1628
664 2 1800 1798
665 2 1800 1799
666 2 1809 1807
667 2 1809 1808
668 2 954 952
669 2 954 953
670 2 1815 1813
671 2 1815 1814
672 2 1857 1855
673 2 1857 1856
674 2 1824 1822
675 2 1824 1823
676 2 1008 1006
677 2 1008 1007
678 2 1962 1960
679 2 1962 1961
680 2 1530 1528
681 2 1530 1529
682 2 1473 1471
683 2 1473 1472
684 2 1971 1969
685 2 1971 1970
686 2 996 994
687 2 996 995
688 2 1701 1699
689 2 1701 1700
690 2 990 988
691 2 990 989
692 2 1974 1972
693 2 1974 1973
694 2 1788 1786
695 2 1788 1787
696 2 939 937
697 2 939 938
698 2 1188 1186
699 2 1188 1187
700 2 1839 1837
701 2 1839 1838
702 2 1599 1597
703 2 1599 1598
704 2 1692 1690
705 2 1692 1691
706 2 1668 1666
707 2 1668 1667
708 2 1203 1201
709 2 1203 1202
710 2 1914 1912
711 2 1914 1913
712 2 1893 1891
713 2 1893 1892
714 2 1254 1252
715 2 1254 1253
716 2 804 802
717 2 804 803
718 2 1368 1366
719 2 1368 1367
720 2 864 862
721 2 864 863
722 2 891 889
723 2 891 890
724 2 1635 1633
725 2 1635 1634
726 2 795 793
727 2 795 794
728 2 801 799
729 2 801 800
730 2 819 817
731 2 819 818
732 2 1050 1048
733 2 1050 1049
734 2 843 841
735 2 843 842
736 2 1014 1012
737 2 1014 1013
738 2 849 847
739 2 849 848
740 2 861 859
741 2 861 860
742 2 873 871
743 2 873 872
744 2 1236 1234
745 2 1236 1235
746 2 885 883
747 2 885 884
748 2 1074 1072
749 2 1074 1073
750 2 1029 1027
751 2 1029 1028
752 2 927 925
753 2 927 926
754 2 1551 1549
755 2 1551 1550
756 2 1968 1966
757 2 1968 1967
758 2 924 922
759 2 924 923
760 2 1848 1846
761 2 1848 1847
762 2 1944 1942
763 2 1944 1943
764 2 951 949
765 2 951 950
766 2 960 958
767 2 960 959
768 2 408 409
769 2 408 410
770 1 649 696
771 2 1392 1390
772 2 1392 1391
773 2 1041 1039
774 2 1041 1040
775 2 1044 1042
776 2 1044 1043
777 2 1992 1990
778 2 1992 1991
779 2 1062 1060
780 2 1062 1061
781 2 1068 1066
782 2 1068 1067
783 2 1080 1078
784 2 1080 1079
785 2 1083 1081
786 2 1083 1082
787 2 1089 1087
788 2 1089 1088
789 2 1095 1093
790 2 1095 1094
791 2 1113 1111
792 2 1113 1112
793 2 1119 1117
794 2 1119 1118
795 2 1002 1000
796 2 1002 1001
797 2 1131 1129
798 2 1131 1130
799 2 1911 1909
800 2 1911 1910
801 2 1143 1141
802 2 1143 1142
803 2 1155 1153
804 2 1155 1154
805 2 1158 1156
806 2 1158 1157
807 2 1035 1033
808 2 1035 1034
809 2 1164 1162
810 2 1164 1163
811 2 1173 1171
812 2 1173 1172
813 2 1176 1174
814 2 1176 1175
815 2 1182 1180
816 2 1182 1181
817 2 1191 1189
818 2 1191 1190
819 2 1449 1447
820 2 1449 1448
821 2 1926 1924
822 2 1926 1925
823 2 993 991
824 2 993 992
825 2 322 323
826 2 322 324
827 2 1230 1228
828 2 1230 1229
829 2 1239 1237
830 2 1239 1238
831 2 1467 1465
832 2 1467 1466
833 1 559 610
834 2 1266 1264
835 2 1266 1265
836 2 1269 1267
837 2 1269 1268
838 2 1275 1273
839 2 1275 1274
840 2 1296 1294
841 2 1296 1295
842 2 1302 1300
843 2 1302 1301
844 2 1317 1315
845 2 1317 1316
846 2 1362 1360
847 2 1362 1361
848 2 1965 1963
849 2 1965 1964
850 2 1341 1339
851 2 1341 1340
852 2 876 874
853 2 876 875
854 2 1344 1342
855 2 1344 1343
856 2 1167 1165
857 2 1167 1166
858 2 1737 1735
859 2 1737 1736
860 2 1383 1381
861 2 1383 1382
862 2 1422 1420
863 2 1422 1421
864 1 129 180
865 2 1950 1948
866 2 1950 1949
867 2 1431 1429
868 2 1431 1430
869 2 1437 1435
870 2 1437 1436
871 2 1440 1438
872 2 1440 1439
873 2 492 493
874 2 492 494
875 2 1587 1585
876 2 1587 1586
877 2 1452 1450
878 2 1452 1451
879 2 1023 1021
880 2 1023 1022
881 2 1335 1333
882 2 1335 1334
883 2 1461 1459
884 2 1461 1460
885 2 1935 1933
886 2 1935 1934
887 2 1878 1876
888 2 1878 1877
889 2 1494 1492
890 2 1494 1493
891 2 1503 1501
892 2 1503 1502
893 2 1527 1525
894 2 1527 1526
895 2 1905 1903
896 2 1905 1904
897 2 1533 1531
898 2 1533 1532
899 2 1545 1543
900 2 1545 1544
901 2 1311 1309
902 2 1311 1310
903 2 1557 1555
904 2 1557 1556
905 2 1566 1564
906 2 1566 1565
907 2 1572 1570
908 2 1572 1571
909 2 754 755
910 2 754 756
911 2 825 823
912 2 825 824
913 2 1596 1594
914 2 1596 1595
915 2 1623 1621
916 2 1623 1622
917 2 1638 1636
918 2 1638 1637
919 2 1644 1642
920 2 1644 1643
921 2 1161 1159
922 2 1161 1160
923 2 1686 1684
924 2 1686 1685
925 2 1455 1453
926 2 1455 1454
927 2 1257 1255
928 2 1257 1256
929 2 1683 1681
930 2 1683 1682
931 2 1698 1696
932 2 1698 1697
933 2 1704 1702
934 2 1704 1703
935 2 888 886
936 2 888 887
937 2 1947 1945
938 2 1947 1946
939 2 1542 1540
940 2 1542 1541
941 2 1722 1720
942 2 1722 1721
943 2 1740 1738
944 2 1740 1739
945 2 1770 1768
946 2 1770 1769
947 2 1773 1771
948 2 1773 1772
949 2 1791 1789
950 2 1791 1790
951 2 1794 1792
952 2 1794 1793
953 2 1803 1801
954 2 1803 1802
955 2 1806 1804
956 2 1806 1805
957 2 1818 1816
958 2 1818 1817
959 2 1827 1825
960 2 1827 1826
961 2 1983 1981
962 2 1983 1982
963 2 1851 1849
964 2 1851 1850
965 2 1863 1861
966 2 1863 1862
967 2 1428 1426
968 2 1428 1427
969 2 1248 1246
970 2 1248 1247
971 2 963 961
972 2 963 962
973 2 1956 1954
974 2 1956 1955
975 2 822 820
976 2 822 821
977 2 1713 1711
978 2 1713 1712
979 2 1938 1936
980 2 1938 1937
981 2 915 913
982 2 915 914
983 2 1554 1552
984 2 1554 1553
985 2 1221 1219
986 2 1221 1220
987 2 1206 1204
988 2 1206 1205
989 2 1674 1672
990 2 1674 1673
991 2 1884 1882
992 2 1884 1883
993 2 1695 1693
994 2 1695 1694
995 2 1581 1579
996 2 1581 1580
997 2 975 973
998 2 975 974
999 2 1308 1306
1000 2 1308 1307
1001 2 1272 1270
1002 2 1272 1271
1003 2 1953 1951
1004 2 1953 1952
1005 2 1653 1651
1006 2 1653 1652
1007 2 1647 1645
1008 2 1647 1646
1009 2 903 901
1010 2 903 902
1011 1 473 520
1012 1 39 90
1013 2 1584 1582
1014 2 1584 1583
1015 2 582 583
1016 2 582 584

Angles

1 1 8 60 61
2 2 63 62 64
3 2 947 948 946
4 1 98 150 151
5 1 525 54 55
6 2 163 161 162
7 1 181 200 787
8 1 187 218 788
9 1 186 232 233
10 2 235 234 236
11 2 245 243 244
12 1 5 314 315
13 2 431 429 430
14 2 679 677 678
15 2 595 594 596
16 1 351 370 789
17 1 357 388 790
18 1 356 406 407
19 2 592 591 593
20 2 247 246 248
21 2 165 164 166
22 2 419 417 418
23 1 702 752 753
24 1 442 490 491
25 1 439 746 747
26 2 681 680 682
27 2 1669 1671 1670
28 1 528 580 581
29 2 153 152 154
30 2 72 71 73
31 2 505 504 506
32 1 618 666 667
33 2 669 668 670
34 1 697 716 791
35 1 703 734 792
36 2 765 763 764
37 1 95 400 401
38 2 503 501 502
39 2 1655 1656 1654
40 2 75 74 76
41 1 615 144 145
42 2 421 420 422
43 1 265 574 575
44 1 265 299 350
45 1 268 320 321
46 2 605 603 604
47 2 1600 1602 1601
48 1 7 58 59
49 2 70 68 69
50 2 79 77 78
51 2 342 80 341
52 2 85 83 84
53 1 97 148 149
54 2 160 158 159
55 2 169 167 168
56 2 428 170 427
57 2 175 173 174
58 2 178 176 177
59 2 779 778 780
60 1 185 230 231
61 2 242 240 241
62 2 251 249 250
63 2 512 252 511
64 2 88 86 87
65 2 260 258 259
66 2 257 255 256
67 1 267 318 319
68 2 329 328 330
69 2 761 760 762
70 2 339 337 338
71 2 602 340 601
72 2 345 343 344
73 2 348 346 347
74 1 355 404 405
75 2 777 775 776
76 2 416 414 415
77 2 425 423 424
78 2 688 426 687
79 2 434 432 433
80 2 693 692 694
81 1 441 488 489
82 2 500 498 499
83 2 509 507 508
84 2 774 510 773
85 2 515 513 514
86 2 518 516 517
87 1 527 578 579
88 2 590 588 589
89 2 771 769 770
90 2 599 597 598
91 2 82 600 81
92 2 335 334 336
93 2 608 606 607
94 1 617 664 665
95 2 254 772 253
96 2 676 674 675
97 1 701 750 751
98 2 685 683 684
99 2 172 686 171
100 2 691 689 690
101 2 332 331 333
102 2 767 766 768
103 1 6 38 89
104 1 526 56 57
105 2 67 65 66
106 1 96 128 179
107 1 616 146 147
108 2 157 155 156
109 1 92 201 781
110 1 188 219 782
111 2 239 237 238
112 1 266 298 349
113 1 6 316 317
114 2 327 325 326
115 1 262 371 783
116 1 358 389 784
117 1 96 402 403
118 2 413 411 412
119 1 440 472 519
120 2 497 495 496
121 1 526 558 609
122 1 266 576 577
123 2 587 585 586
124 1 616 648 695
125 2 673 671 672
126 1 612 717 785
127 1 704 735 786
128 1 440 748 749
129 2 759 757 758
130 2 1984 1986 1985
131 2 808 810 809
132 2 830 831 829
133 2 835 837 836
134 2 878 879 877
135 2 881 882 880
136 2 892 894 893
137 2 905 906 904
138 2 920 921 919
139 2 916 918 917
140 2 943 945 944
141 2 968 969 967
142 2 1613 1614 1612
143 2 976 978 977
144 2 985 987 986
145 2 1864 1866 1865
146 2 997 999 998
147 2 1003 1005 1004
148 2 1019 1020 1018
149 2 1873 1875 1874
150 2 1226 1227 1225
151 2 1820 1821 1819
152 2 1052 1053 1051
153 2 1058 1059 1057
154 2 1070 1071 1069
155 2 1097 1098 1096
156 2 1106 1107 1105
157 2 1109 1110 1108
158 2 1123 1125 1124
159 2 1619 1620 1618
160 2 1178 1179 1177
161 2 1195 1197 1196
162 2 1988 1989 1987
163 2 1199 1200 1198
164 2 1958 1959 1957
165 2 1207 1209 1208
166 2 1915 1917 1916
167 2 1216 1218 1217
168 2 1222 1224 1223
169 2 1457 1458 1456
170 2 1231 1233 1232
171 2 1241 1242 1240
172 2 1262 1263 1261
173 2 1280 1281 1279
174 2 1063 1065 1064
175 2 1288 1290 1289
176 2 1297 1299 1298
177 2 1778 1779 1777
178 2 1322 1323 1321
179 2 1337 1338 1336
180 2 1349 1350 1348
181 2 1364 1365 1363
182 2 1868 1869 1867
183 2 1373 1374 1372
184 2 1384 1386 1385
185 2 1396 1398 1397
186 2 1853 1854 1852
187 2 1433 1434 1432
188 2 1468 1470 1469
189 2 1483 1485 1484
190 2 1487 1488 1486
191 2 1490 1491 1489
192 2 1498 1500 1499
193 2 1729 1731 1730
194 2 1511 1512 1510
195 2 1546 1548 1547
196 2 1901 1902 1900
197 2 1559 1560 1558
198 2 1577 1578 1576
199 2 1030 1032 1031
200 2 1417 1419 1418
201 2 1591 1593 1592
202 2 1610 1611 1609
203 2 1538 1539 1537
204 2 1631 1632 1630
205 2 1045 1047 1046
206 2 1508 1509 1507
207 2 1412 1413 1411
208 2 1168 1170 1169
209 2 1709 1710 1708
210 2 1718 1719 1717
211 2 1723 1725 1724
212 2 1745 1746 1744
213 2 1921 1923 1922
214 2 1750 1752 1751
215 2 1757 1758 1756
216 2 1759 1761 1760
217 2 1763 1764 1762
218 2 1765 1767 1766
219 2 1843 1845 1844
220 2 1780 1782 1781
221 2 1784 1785 1783
222 2 856 858 857
223 2 1675 1677 1676
224 2 1828 1830 1829
225 2 1834 1836 1835
226 2 1210 1212 1211
227 2 1313 1314 1312
228 2 1481 1482 1480
229 2 1939 1941 1940
230 2 1075 1077 1076
231 2 1889 1890 1888
232 2 1351 1353 1352
233 2 814 816 815
234 2 1414 1416 1415
235 2 1286 1287 1285
236 2 796 798 797
237 2 812 813 811
238 2 827 828 826
239 2 833 834 832
240 2 838 840 839
241 2 851 852 850
242 2 853 855 854
243 2 1282 1284 1283
244 2 1811 1812 1810
245 2 1441 1443 1442
246 2 1976 1977 1975
247 2 898 900 899
248 2 1394 1395 1393
249 2 1037 1038 1036
250 2 911 912 910
251 2 1148 1149 1147
252 2 928 930 929
253 2 932 933 931
254 2 935 936 934
255 2 940 942 941
256 2 1138 1140 1139
257 2 956 957 955
258 2 970 972 971
259 2 1858 1860 1859
260 2 1588 1590 1589
261 2 980 981 979
262 2 982 984 983
263 2 1774 1776 1775
264 2 845 846 844
265 2 1841 1842 1840
266 2 1640 1641 1639
267 2 1015 1017 1016
268 2 1375 1377 1376
269 2 1024 1026 1025
270 2 1054 1056 1055
271 2 1919 1920 1918
272 2 1084 1086 1085
273 2 1091 1092 1090
274 2 1099 1101 1100
275 2 1103 1104 1102
276 2 1114 1116 1115
277 2 1516 1518 1517
278 2 1133 1134 1132
279 2 1136 1137 1135
280 2 1145 1146 1144
281 2 1150 1152 1151
282 2 1276 1278 1277
283 2 1193 1194 1192
284 2 805 807 806
285 2 1213 1215 1214
286 2 1243 1245 1244
287 2 1250 1251 1249
288 2 1519 1521 1520
289 2 1258 1260 1259
290 2 1733 1734 1732
291 2 1331 1332 1330
292 2 1355 1356 1354
293 2 1010 1011 1009
294 2 1522 1524 1523
295 2 1292 1293 1291
296 2 1303 1305 1304
297 2 1325 1326 1324
298 2 1319 1320 1318
299 2 1931 1932 1930
300 2 1880 1881 1879
301 2 1870 1872 1871
302 2 1978 1980 1979
303 2 1328 1329 1327
304 2 868 870 869
305 2 1346 1347 1345
306 2 1358 1359 1357
307 2 1424 1425 1423
308 2 1513 1515 1514
309 2 1832 1833 1831
310 2 907 909 908
311 2 1400 1401 1399
312 2 1402 1404 1403
313 2 1406 1407 1405
314 2 1379 1380 1378
315 2 1927 1929 1928
316 2 866 867 865
317 2 964 966 965
318 2 1183 1185 1184
319 2 1715 1716 1714
320 2 1463 1464 1462
321 2 1475 1476 1474
322 2 1478 1479 1477
323 2 1795 1797 1796
324 2 1907 1908 1906
325 2 1495 1497 1496
326 2 1535 1536 1534
327 2 1561 1563 1562
328 2 895 897 896
329 2 1568 1569 1567
330 2 1573 1575 1574
331 2 1370 1371 1369
332 2 1897 1899 1898
333 2 1388 1389 1387
334 2 1886 1887 1885
335 2 1603 1605 1604
336 2 1607 1608 1606
337 2 1616 1617 1615
338 2 1648 1650 1649
339 2 1121 1122 1120
340 2 1658 1659 1657
341 2 1661 1662 1660
342 2 1663 1665 1664
343 2 1408 1410 1409
344 2 1678 1680 1679
345 2 1688 1689 1687
346 2 1445 1446 1444
347 2 1504 1506 1505
348 2 1705 1707 1706
349 2 1727 1728 1726
350 2 1127 1128 1126
351 2 1624 1626 1625
352 2 1894 1896 1895
353 2 1741 1743 1742
354 2 1747 1749 1748
355 2 1753 1755 1754
356 2 1628 1629 1627
357 2 1799 1800 1798
358 2 1808 1809 1807
359 2 952 954 953
360 2 1813 1815 1814
361 2 1856 1857 1855
362 2 1823 1824 1822
363 2 1006 1008 1007
364 2 1961 1962 1960
365 2 1528 1530 1529
366 2 1471 1473 1472
367 2 1969 1971 1970
368 2 994 996 995
369 2 1700 1701 1699
370 2 989 990 988
371 2 1973 1974 1972
372 2 1787 1788 1786
373 2 937 939 938
374 2 1187 1188 1186
375 2 1837 1839 1838
376 2 1598 1599 1597
377 2 1690 1692 1691
378 2 1667 1668 1666
379 2 1201 1203 1202
380 2 1913 1914 1912
381 2 1892 1893 1891
382 2 1252 1254 1253
383 2 802 804 803
384 2 1366 1368 1367
385 2 862 864 863
386 2 890 891 889
387 2 1633 1635 1634
388 2 793 795 794
389 2 799 801 800
390 2 818 819 817
391 2 1049 1050 1048
392 2 841 843 842
393 2 1012 1014 1013
394 2 848 849 847
395 2 860 861 859
396 2 871 873 872
397 2 1235 1236 1234
398 2 883 885 884
399 2 1073 1074 1072
400 2 1028 1029 1027
401 2 925 927 926
402 2 1550 1551 1549
403 2 1967 1968 1966
404 2 923 924 922
405 2 1846 1848 1847
406 2 1943 1944 1942
407 2 949 951 950
408 2 959 960 958
409 2 409 408 410
410 1 615 649 696
411 2 1390 1392 1391
412 2 1040 1041 1039
413 2 1042 1044 1043
414 2 1990 1992 1991
415 2 1061 1062 1060
416 2 1067 1068 1066
417 2 1078 1080 1079
418 2 1082 1083 1081
419 2 1088 1089 1087
420 2 1093 1095 1094
421 2 1112 1113 1111
422 2 1117 1119 1118
423 2 1001 1002 1000
424 2 1129 1131 1130
425 2 1909 1911 1910
426 2 1141 1143 1142
427 2 1154 1155 1153
428 2 1157 1158 1156
429 2 1033 1035 1034
430 2 1162 1164 1163
431 2 1171 1173 1172
432 2 1175 1176 1174
433 2 1180 1182 1181
434 2 1190 1191 1189
435 2 1448 1449 1447
436 2 1924 1926 1925
437 2 992 993 991
438 2 323 322 324
439 2 1228 1230 1229
440 2 1237 1239 1238
441 2 1466 1467 1465
442 1 525 559 610
443 2 1265 1266 1264
444 2 1267 1269 1268
445 2 1273 1275 1274
446 2 1294 1296 1295
447 2 1300 1302 1301
448 2 1315 1317 1316
449 2 1361 1362 1360
450 2 1963 1965 1964
451 2 1339 1341 1340
452 2 875 876 874
453 2 1343 1344 1342
454 2 1165 1167 1166
455 2 1736 1737 1735
456 2 1381 1383 1382
457 2 1420 1422 1421
458 1 95 129 180
459 2 1948 1950 1949
460 2 1430 1431 1429
461 2 1435 1437 1436
462 2 1439 1440 1438
463 2 493 492 494
464 2 1586 1587 1585
465 2 1450 1452 1451
466 2 1021 1023 1022
467 2 1334 1335 1333
468 2 1460 1461 1459
469 2 1933 1935 1934
470 2 1877 1878 1876
471 2 1493 1494 1492
472 2 1502 1503 1501
473 2 1526 1527 1525
474 2 1903 1905 1904
475 2 1532 1533 1531
476 2 1543 1545 1544
477 2 1309 1311 1310
478 2 1556 1557 1555
479 2 1565 1566 1564
480 2 1571 1572 1570
481 2 755 754 756
482 2 824 825 823
483 2 1594 1596 1595
484 2 1621 1623 1622
485 2 1637 1638 1636
486 2 1643 1644 1642
487 2 1160 1161 1159
488 2 1685 1686 1684
489 2 1453 1455 1454
490 2 1255 1257 1256
491 2 1682 1683 1681
492 2 1697 1698 1696
493 2 1703 1704 1702
494 2 887 888 886
495 2 1946 1947 1945
496 2 1541 1542 1540
497 2 1721 1722 1720
498 2 1739 1740 1738
499 2 1768 1770 1769
500 2 1772 1773 1771
501 2 1790 1791 1789
502 2 1792 1794 1793
503 2 1802 1803 1801
504 2 1805 1806 1804
505 2 1816 1818 1817
506 2 1825 1827 1826
507 2 1982 1983 1981
508 2 1850 1851 1849
509 2 1862 1863 1861
510 2 1426 1428 1427
511 2 1247 1248 1246
512 2 961 963 962
513 2 1955 1956 1954
514 2 821 822 820
515 2 1711 1713 1712
516 2 1936 1938 1937
517 2 914 915 913
518 2 1553 1554 1552
519 2 1220 1221 1219
520 2 1205 1206 1204
521 2 1673 1674 1672
522 2 1882 1884 1883
523 2 1694 1695 1693
524 2 1579 1581 1580
525 2 973 975 974
526 2 1307 1308 1306
527 2 1271 1272 1270
528 2 1952 1953 1951
529 2 1651 1653 1652
530 2 1646 1647 1645
531 2 902 903 901
532 1 439 473 520
533 1 5 39 90
534 2 1583 1584 1582
535 2 583 582 584
