Build from BT.h.09.00.cif

1954 atoms
9 atom types
1015 bonds
3 bond types
536 angles
3 angle types
1 impropers
1 improper types

0.0 20.692583  xlo xhi
0.0 18.634709  ylo yhi
0.0 55.525985  zlo zhi
-12.217496  0.000000  0.000000 xy xz yz

Masses

  1    28.085500  # st
  2    40.078000  # cah
  3    15.999400  # oh
  4    15.999400  # ob
  5     1.007940  # ho
  6    15.999400  # o*
  7     1.007940  # h*
  8    15.999400  # oc
  9    12.010700  # co

Atoms

    1   1   1   2.1000   8.984216580451   1.030684999961   0.655959999353 # st
    2   8   1   2.1000   5.978816579906   5.932775999559  19.889039998024 # st
    3 536   1   2.1000   4.196216581733   2.546015999068  15.651339998200 # st
    4 537   1   2.1000   3.531916581304   4.265385999807   5.125399999867 # st
    5   5   1   2.1000   3.590716580803   4.760635999768  13.707739997309 # st
    6   6   1   2.1000  -5.846583419611  18.446415999050   7.045879996932 # st
    7   3   1   2.1000   6.549116580433   4.779755999067   0.852079997689 # st
    8   4   1   2.1000   7.762016581356   3.330326000396  20.314239996998 # st
    9 538   1   2.1000   1.612016579401   6.018246000735  15.781240001694 # st
   10 539   1   2.1000   5.090316580651   1.707176000864   4.964409998176 # st
   11 540   2   1.0500   8.671216579801   1.204314000086   3.851170001112 # cah
   12 541   2   1.0500   5.234916581255   5.717215999872  16.669039998482 # cah
   13 542   2   1.0500   4.463016580782   2.903216000245  19.133539998806 # cah
   14 543   2   1.0500   3.087616581223   4.330985999384   1.807570000890 # cah
   15 544   2   1.0500   5.354516580599   1.412136000373   1.868509996549 # cah
   16 545   2   1.0500   2.273416580151   6.019265999463  19.156039999489 # cah
   17 546   2   1.0500   7.432916580592   2.484835999572  17.101839999982 # cah
   18 547   2   1.0500   6.944316580205   4.454556000321   3.970750000651 # cah
   19 548   2   1.0500   3.415916579958   2.556965999836  10.764540001200 # cah
   20   1   3  -0.9500   8.701616580874   1.840715999514  54.861739996964 # oh
   21   2   3  -0.9500   9.722116580374   0.611116999344  21.072939997571 # oh
   22 549   4  -1.0500   4.083816580779   3.344185999126  14.337439998412 # ob
   23 550   4  -1.0500  -5.380953418927  17.227215999266   6.159790000574 # ob
   24 551   4  -1.0500  -2.381123420127  18.394916000206   0.412379998645 # ob
   25 552   4  -1.0500   6.829016580114   4.659446000645  20.289839997073 # ob
   26 553   4  -1.0500   5.009616581733   1.200742999192  15.394739998119 # ob
   27 554   4  -1.0500   4.247916581419   2.985995999238   5.481110001035 # ob
   28 555   4  -1.0500   9.782716580958   1.955215999532   1.653239996780 # ob
   29 556   4  -1.0500  11.101616579600   0.572563000314  18.773140000908 # ob
   30 557   4  -1.0500   4.969916581596   3.391595999944  16.696039997080 # ob
   31 558   4  -1.0500  -3.849863418783  17.557815999285   4.065220000606 # ob
   32 559   4  -1.0500   7.660216579990   0.620428999906   1.331669997269 # ob
   33 560   4  -1.0500   4.701316579571   5.409466000698  19.193739999669 # ob
   34 561   4  -1.0500   2.735016579813   2.182116000213  16.072439997346 # ob
   35 562   4  -1.0500   2.395716580554   3.854655999849   4.000819997617 # ob
   36 563   4  -1.0500  -6.614173418975  17.870316000596   8.305699997686 # ob
   37 564   4  -1.0500   3.353116579950   4.528686000503  12.223839999770 # ob
   38   3   3  -0.9500   6.830316581891   4.123185999234  54.958139996851 # oh
   39   4   3  -0.9500   8.063116580852   2.846535999635  21.773439998822 # oh
   40 565   4  -1.0500   2.379916581563   5.373055999434  14.508439996934 # ob
   41 566   4  -1.0500   5.493516580999   0.762510999913   6.125809997041 # ob
   42 567   4  -1.0500   5.686416579976   3.844205999993   1.768019997063 # ob
   43 568   4  -1.0500   7.074216580888   2.211355999177  19.377940001701 # ob
   44 569   4  -1.0500   0.500716579650   5.072506000713  16.289340001258 # ob
   45 570   4  -1.0500   4.232716580170   0.906014999628   3.935399998950 # ob
   46 571   4  -1.0500  -0.249263419276  17.401215999668   1.448919998788 # ob
   47 572   4  -1.0500   9.070816581153   3.745825999396  19.501140001143 # ob
   48 573   4  -1.0500   6.878212965083   0.026607373049  16.801739999693 # ob
   49 574   4  -1.0500   6.411816580631   2.183106000788   4.309629998178 # ob
   50   5   3  -0.9500   4.824816580077   5.802705999817  13.901539997854 # oh
   51   5   5   0.4250   5.539616581208   5.680446000263  13.128740000852 # ho
   52   6   3  -0.9500   7.561316580165   0.709552999104   7.601990000402 # oh
   53   6   5   0.4250   7.431916581343   0.752647000149   8.649939996234 # ho
   54  55   6  -0.8476  -4.622433420056  16.956616000543  53.483439999740 # o*
   55  55   7   0.4238  -4.117983419025  16.073016000574  53.540939999632 # h*
   56  55   7   0.4238  -5.383143419472  16.949616000827  54.161740001650 # h*
   57  56   6  -0.8476   4.732416579622   2.481336000646  21.803439999732 # o*
   58  56   7   0.4238   4.340216581536   3.224265999067  22.374640000172 # h*
   59  56   7   0.4238   4.069916580516   1.701546000701  21.796940000275 # h*
   60  57   6  -0.8476   7.486816580604   2.905116000727  14.199340000814 # o*
   61  57   7   0.4238   8.406416581157   2.615166000086  14.520440000629 # h*
   62  57   7   0.4238   7.339616581069   3.828996000479  14.574039999737 # h*
   63  58   6  -0.8476   5.630316581079   6.085666000127   6.926379999232 # o*
   64  58   7   0.4238   6.238116580382   5.313515999648   7.105230000472 # h*
   65  58   7   0.4238   5.546416581913   6.259295999072   5.957550000409 # h*
   66  59   6  -0.8476   1.193936581282   2.728705999547   9.811639996441 # o*
   67  59   7   0.4238   0.956066580816   2.198995999454   8.967039998520 # h*
   68  59   7   0.4238   1.295796580945   3.664686000113   9.373339996255 # h*
   69  60   6  -0.8476   5.951216581605   1.851555999596  12.356239999638 # o*
   70  60   7   0.4238   6.649316580581   2.352966000650  12.919339997168 # h*
   71  60   7   0.4238   5.302716582041   1.477235999039  13.056040001461 # h*
   72  61   6  -0.8476   5.265016581277   1.920965999523   9.238440000012 # o*
   73 115   7   0.4238  -0.338783419103   2.147466000592  10.834539999621 # h*
   74 115   7   0.4238  -0.704853418151   3.008495999258  12.112839997514 # h*
   75  62   6  -0.8476   7.789216580628   0.817273000776  10.511540000562 # o*
   76  62   7   0.4238  -4.183633418762  18.536715999304  10.958139997150 # h*
   77  62   7   0.4238   6.962616580683   1.127983999247  11.076240001545 # h*
   78  63   6  -0.8476   0.115496580464   6.115546000705  10.480439996583 # o*
   79  63   7   0.4238  -0.801443419202   5.806876000375  10.700539996298 # h*
   80  63   7   0.4238   0.297456580090   5.638515999521   9.609939997581 # h*
   81   7   1   2.1000   4.880616580188   7.342725999532   0.875620000061 # st
   82  14   1   2.1000   1.881316580217  12.118615999088  20.065139997145 # st
   83 575   1   2.1000  -0.008723419884   8.614486000019  15.556240000424 # st
   84 576   1   2.1000  -0.705073419435  10.419716000296   5.262739996657 # st
   85  11   1   2.1000  -0.414593418836  10.886515999267  13.502939999390 # st
   86  12   1   2.1000   1.983416579837   5.813716000620   7.402349998909 # st
   87   9   1   2.1000   2.551216579943  10.861516000280   0.905170001735 # st
   88  10   1   2.1000   3.544116580347   9.535896000821  19.978639997113 # st
   89 577   1   2.1000  -2.361833419106  12.296315999154  15.463839998067 # st
   90 578   1   2.1000   0.873036580357   7.863445999374   5.397569996844 # st
   91 579   2   1.0500   4.394316580917   7.482196000383   3.943319997724 # cah
   92 580   2   1.0500   1.182416580218  11.938016000444  16.392439999646 # cah
   93 581   2   1.0500   0.382596581144   9.274866000201  18.750440001182 # cah
   94 582   2   1.0500  -0.725303419130  10.810916000095   2.045320000881 # cah
   95 583   2   1.0500   1.198086579372   7.526646000725   2.064509997679 # cah
   96 584   2   1.0500  -1.721033420560  12.320216000607  18.871039996399 # cah
   97 585   2   1.0500   3.346116580735   8.815016000296  16.498340001302 # cah
   98 586   2   1.0500   2.741316581117  10.730215999825   4.350669997379 # cah
   99 587   2   1.0500  -0.066533420147   8.756695999976  10.610340000078 # cah
  100   7   3  -0.9500   4.629116581623   8.183225999943  55.069639999492 # oh
  101   8   3  -0.9500   5.630016579400   6.799096000675  21.176740000941 # oh
  102 588   4  -1.0500  -0.337973419786   9.470265999363  14.199340000814 # ob
  103 589   4  -1.0500   2.680416581409   4.950806000241   6.342980001605 # ob
  104 590   4  -1.0500   5.799216580070   6.123945999992   0.575619996517 # ob
  105 591   4  -1.0500   2.696916580902  10.822116000386  20.322039998567 # ob
  106 592   4  -1.0500   0.975206580608   7.394706000519  15.302739999401 # ob
  107 593   4  -1.0500   0.045006580217   9.133885999094   5.664319996974 # ob
  108 594   4  -1.0500   5.531816581035   8.271186000701   1.923969999533 # ob
  109 595   4  -1.0500   6.804816579658   6.914666000072  19.005540000108 # ob
  110 596   4  -1.0500   0.773576580031   9.584776000629  16.466039997509 # ob
  111 597   4  -1.0500   4.546516580079   5.312266000164   4.590579997035 # ob
  112 598   4  -1.0500   3.573916582133   6.822135999144   1.494809998395 # ob
  113 599   4  -1.0500   0.718856581352  11.815715999624  19.118140000264 # ob
  114 600   4  -1.0500  -1.290603418957   8.180346000134  16.273039998690 # ob
  115 601   4  -1.0500  -1.926413418855  10.073826000096   4.417079996586 # ob
  116 602   4  -1.0500   1.117616581106   4.969265999158   8.356509999308 # ob
  117 603   4  -1.0500  -0.484613419595  10.706415999671  11.995639997144 # ob
  118   9   3  -0.9500   3.455516581727  10.483015999781  55.162240000893 # oh
  119  10   3  -0.9500   3.769316580512   8.669585999090  21.275939998544 # oh
  120 604   4  -1.0500  -1.585143418860  11.692315999407  14.195440000029 # ob
  121 605   4  -1.0500   1.184106581575   6.949345999710   6.700679998533 # ob
  122 606   4  -1.0500   1.494716579671   9.782466000500   1.177069998060 # ob
  123 607   4  -1.0500   2.661416581099   8.712866000616  18.969039999741 # ob
  124 608   4  -1.0500  -3.300093419194  11.244016000618  16.067339996747 # ob
  125 609   4  -1.0500   0.142626580469   6.985006000538   4.340930001200 # ob
  126 610   4  -1.0500   7.903916580916   5.122915999546   1.577389997183 # ob
  127 611   4  -1.0500   4.936516580795   9.878796000528  19.376639999589 # ob
  128 612   4  -1.0500   2.744716581192   6.368065999490  16.785739998467 # ob
  129 613   4  -1.0500   2.243316581513   8.185115999177   4.791550001330 # ob
  130  11   3  -0.9500   0.847856581312  11.766815999183  13.919239999280 # oh
  131  11   5   0.4250   1.767216580307  11.973215999763  13.515439997919 # ho
  132  12   3  -0.9500   3.208116580083   6.438456000606   8.312489998255 # oh
  133  12   5   0.4250   4.119016579910   6.272836000722   7.819029996426 # ho
  134  64   6  -0.8476   6.124010001906  10.286515999359  51.491640001681 # o*
  135  64   7   0.4238   6.076250001488  10.827315999058  50.608839997641 # h*
  136  64   7   0.4238   5.611600001815  10.857315999705  52.144539997343 # h*
  137  65   6  -0.8476  -1.231293419283  12.605415999112  21.842239997429 # o*
  138  65   7   0.4238  -1.628773420569  11.791116000248  22.343939999834 # h*
  139  65   7   0.4238  -0.262763419947  12.419615999933  21.616940000370 # h*
  140  66   6  -0.8476   3.557116581451   8.341375999217  13.993740001168 # o*
  141  66   7   0.4238   4.146016581487   7.520605999702  14.024739997296 # h*
  142  66   7   0.4238   4.181616581523   9.100695999079  14.134939997824 # h*
  143  67   6  -0.8476   3.079616580470  10.610515999272   6.885009997999 # o*
  144  67   7   0.4238   2.603416579650  10.338715999852   7.763999997770 # h*
  145  67   7   0.4238   4.031216580332  10.810116000873   7.101620000799 # h*
  146  68   6  -0.8476  -2.141573419048   8.721145999833   9.334939996645 # o*
  147  68   7   0.4238  -2.887333420433   9.403106000743   9.246139999283 # h*
  148  68   7   0.4238  -2.457213418742   7.970056000401   8.705440000138 # h*
  149  69   6  -0.8476   2.052916580301   8.106375999423  11.646640000258 # o*
  150  69   7   0.4238   1.764916579509   7.157226000528  11.584939998239 # h*
  151  69   7   0.4238   2.623216580042   8.098176000874  12.456439998012 # h*
  152  70   6  -0.8476   2.171916580276   9.664156000133   9.107740000343 # o*
  153 124   7   0.4238  -4.418843419267  10.597915999410   8.485739998511 # h*
  154 124   7   0.4238  -5.645253419370  10.229815999980   7.397090000186 # h*
  155  71   6  -0.8476   4.697916580101   5.099775999776  10.053539997409 # o*
  156  71   7   0.4238   4.264616579879   4.939545999915  10.953839998278 # h*
  157  71   7   0.4238   4.008816580593   5.645565999887   9.508840000734 # h*
  158  72   6  -0.8476  -2.807823419557  11.125616000199  10.925839998909 # o*
  159  72   7   0.4238  -1.801133418723  11.000216000063  11.199440000987 # h*
  160  72   7   0.4238  -2.832823417999  11.485815999391   9.951339997494 # h*
  161  13   1   2.1000   0.966946580578  13.624015999199   0.777590001583 # st
  162   2   1   2.1000  -1.989063419647  18.405615999586  19.806139997435 # st
  163 614   1   2.1000  -4.107203420003  14.924215999428  15.434639998884 # st
  164 615   1   2.1000  -4.783293420333  16.529116000165   4.896870000762 # st
  165  17   1   2.1000  -4.480773419134  17.362515999559  13.627940001330 # st
  166  18   1   2.1000  -2.059603419858  12.381915999784   7.322279996725 # st
  167  15   1   2.1000  -1.523783418753  17.096616000459   0.629589998576 # st
  168  16   1   2.1000  -0.543643420646  15.729816000694  20.360540000475 # st
  169 616   1   2.1000  -6.426513418735  18.508716000439  15.641739999685 # st
  170 617   1   2.1000  -3.186363420254  13.880316000179   4.850199999888 # st
  171 618   2   1.0500   0.696806579305  13.754816000607   4.041849996588 # cah
  172 619   2   1.0500  -2.933073420315  17.998116000261  16.753740001569 # cah
  173 620   2   1.0500  -3.728933419596  15.514515999916  19.043040001245 # cah
  174 621   2   1.0500  -4.928913420135  16.857115999917   1.852589997162 # cah
  175 622   2   1.0500  -2.793553420265  13.795816000809   1.881439999406 # cah
  176 623   2   1.0500  -5.600353419048  18.593816000158  19.417139997485 # cah
  177 624   2   1.0500  -0.805543419238  14.934115999586  16.902139997110 # cah
  178 625   2   1.0500  -1.333963420076  16.714416000296   3.928510001635 # cah
  179 626   2   1.0500  -4.266903418191  15.222115999094  10.482639997168 # cah
  180  13   3  -0.9500   0.690296581613  14.472215999112  54.877739998189 # oh
  181  14   3  -0.9500   1.350146580312  12.799215999829  21.385940000029 # oh
  182 627   4  -1.0500  -4.253153419710  15.918715999188  14.246039996825 # ob
  183 628   4  -1.0500  -1.194283418216  11.239615999306   6.550079996854 # ob
  184 629   4  -1.0500   1.776416580046  12.308415999968   0.552719997748 # ob
  185 630   4  -1.0500  -1.169943419088  17.175416000247  20.399940000855 # ob
  186 631   4  -1.0500  -3.169143420684  13.668816000365  15.009740001251 # ob
  187 632   4  -1.0500  -3.995943417987  15.196315999022   5.228199996913 # ob
  188 633   4  -1.0500   1.769216580596  14.492516000339   1.815719999397 # ob
  189 634   4  -1.0500   2.920616579468  13.134316000597  19.420839999226 # ob
  190 635   4  -1.0500  -3.315833419486  15.579815999319  16.644139998171 # ob
  191 636   4  -1.0500   0.174266581860  11.420015999076   4.381929999481 # ob
  192 637   4  -1.0500  -0.359073419004  13.239415999506   1.428819997734 # ob
  193 638   4  -1.0500  -3.311873419292  17.885315999988  19.207340001266 # ob
  194 639   4  -1.0500  -5.491593419262  14.337415999730  15.841539999303 # ob
  195 640   4  -1.0500  -5.993363419560  16.247716000762   3.999530001287 # ob
  196 641   4  -1.0500  -3.026603418788  11.729916000119   8.313560000634 # ob
  197 642   4  -1.0500  -4.508773419344  17.403215999587  12.130239997598 # ob
  198  15   3  -0.9500  -1.120823417930  16.377415999046  54.748239998334 # oh
  199  16   3  -0.9500  -0.409883419922  15.121715999809  21.779340001148 # oh
  200 643   4  -1.0500  -5.728553418492  18.038015999203  14.351939998481 # ob
  201 644   4  -1.0500  -2.832303419304  13.205915999932   6.155859999100 # ob
  202 645   4  -1.0500  -2.430303418574  16.090415999497   1.434099996917 # ob
  203 646   4  -1.0500  -1.464943418295  14.810415999195  19.442339999138 # ob
  204 647   4  -1.0500  -7.512333420523  17.450016000672  16.173939997832 # ob
  205 648   4  -1.0500  -4.043343420371  12.990016000669   3.893149999704 # ob
  206 649   4  -1.0500   3.418516581833  11.198915999278   2.128700001395 # ob
  207 650   4  -1.0500   0.894416581572  15.941215999208  19.775340000351 # ob
  208 651   4  -1.0500  -1.345603419984  12.770115999704  16.526239998372 # ob
  209 652   4  -1.0500  -1.938893419599  14.354615999778   4.016289997767 # ob
  210  17   3  -0.9500  -3.207153418353  18.323615999182  14.227239997884 # oh
  211  17   5   0.4250   9.546072965181   0.125007372415  13.469339999038 # ho
  212  18   3  -0.9500  -1.032583419068  13.290415999302   8.075399996774 # oh
  213  18   5   0.4250  -0.252353418241  13.058115999213   8.695939998369 # ho
  214  73   6  -0.8476  -1.899273419651  11.861415999449  53.044139998783 # o*
  215  73   7   0.4238  -0.984153419571  11.558515999985  52.807739996501 # h*
  216  73   7   0.4238  -2.517363418693  11.924915999670  52.212039999390 # h*
  217  74   6  -0.8476   4.199216581388   6.729705999518  25.793040000473 # o*
  218  74   7   0.4238   4.080416580685   7.746266000284  25.898739997533 # h*
  219  74   7   0.4238   3.385916580155   6.423005999089  26.355139997232 # h*
  220  75   6  -0.8476  -0.243283420864  14.480216000651  14.247440001236 # o*
  221  75   7   0.4238   0.530386580371  14.411716000632  14.907540001336 # h*
  222  75   7   0.4238  -0.381883420425  13.518816000854  13.988640000570 # h*
  223  76   6  -0.8476  -0.575243419329  15.854316000307   7.504279998172 # o*
  224  76   7   0.4238  -0.650063420330  14.821816000224   7.594500000404 # h*
  225  76   7   0.4238   0.402906581483  16.152315999410   7.490779998873 # h*
  226  77   6  -0.8476  -2.244993420085  16.179016000005   9.561839997159 # o*
  227  77   7   0.4238  -1.490413419947  16.573915999468  10.123540001382 # h*
  228  77   7   0.4238  -1.860633419782  16.025615999141   8.633139998834 # h*
  229  78   6  -0.8476  -3.190823420146  13.762816000283  12.158839999650 # o*
  230  78   7   0.4238  -3.100233419740  13.890916000122  13.130640000095 # h*
  231  78   7   0.4238  -3.040943419203  12.790516000368  11.993239997516 # h*
  232  79   6  -0.8476   0.533506581229  14.752415999682  11.329940001612 # o*
  233 133   7   0.4238  -8.438337419061  13.980516000591  11.445140000441 # h*
  234 133   7   0.4238  -8.674832419079  15.545315999786  11.102639997459 # h*
  235  80   6  -0.8476   0.898806580298  12.332816000470  10.256839999724 # o*
  236  80   7   0.4238   0.751206580349  13.245616000000  10.697539999538 # h*
  237  80   7   0.4238   0.344996581339  11.658815999833  10.822939999565 # h*
  238  81   6  -0.8476  -6.471953418855  16.384615999500  10.532139996448 # o*
  239  81   7   0.4238  -6.068823418603  17.100115999386  11.164339999478 # h*
  240  81   7   0.4238  -6.682213419310  16.918415999482   9.643640000231 # h*
  241  19   1   2.1000  15.776340000187   0.979389999683   0.510739999155 # st
  242  26   1   2.1000  12.907917000557   5.764345999285  20.072040000241 # st
  243 653   1   2.1000  10.974100001190   2.223416000589  15.514839998503 # st
  244 654   1   2.1000  10.393040000684   4.184306000558   5.169049997970 # st
  245  23   1   2.1000  10.583150000192   4.583536000050  13.454239996285 # st
  246  24   1   2.1000  13.905396384252   0.247807372283   7.268449997884 # st
  247  21   1   2.1000  13.344190000648   4.769856000773   0.551969997170 # st
  248  22   1   2.1000  14.590510001989   3.270285999699  20.195439998726 # st
  249 655   1   2.1000   8.676570001738   5.883145999315  15.540639997286 # st
  250 656   1   2.1000  12.026659900297   1.575606000251   5.199549999265 # st
  251 657   2   1.0500  15.553700000474   1.450956000551   3.829129999895 # cah
  252 658   2   1.0500  12.108880801067   5.656366000568  16.438539998526 # cah
  253 659   2   1.0500  11.263650999603   2.903366000332  18.992639997940 # cah
  254 660   2   1.0500  10.157820000427   4.438116000093   1.941200001262 # cah
  255 661   2   1.0500  12.243918001480   1.502956000307   2.001570000480 # cah
  256 662   2   1.0500   9.534880001499   6.057595999979  18.920939999319 # cah
  257 663   2   1.0500  14.378490000171   2.662655999708  16.525339999900 # cah
  258 664   2   1.0500  13.915530000500   4.455605999067   4.185229998922 # cah
  259 665   2   1.0500  10.148216579375   2.179896000787  10.586339998240 # cah
  260  19   3  -0.9500  15.193910000234   1.718035999715  54.702539997541 # oh
  261  20   3  -0.9500  16.135606384878   0.233707373414  21.624739996387 # oh
  262 666   4  -1.0500  10.603000001273   3.127685999515  14.167639999704 # ob
  263 667   4  -1.0500   1.984800001403  17.379715999608   6.657020000200 # ob
  264 668   4  -1.0500   4.258760001613  18.186515999707   0.195809996764 # ob
  265 669   4  -1.0500  13.750510000239   4.490115999849  20.630339998513 # ob
  266 670   4  -1.0500  11.605896000964   0.844718000251  15.140739996710 # ob
  267 671   4  -1.0500  11.106669999501   2.797096000744   5.670719999685 # ob
  268 672   4  -1.0500  16.720320000971   1.865615999064   1.267899997652 # ob
  269 673   4  -1.0500  17.703980000004   0.562950000758  19.646139996285 # ob
  270 674   4  -1.0500  11.956964000939   3.090396000225  16.293139999744 # ob
  271 675   4  -1.0500   3.026000001532  17.656616000126   4.327229997305 # ob
  272 676   4  -1.0500  14.536120000026   0.732516000822   1.485010000837 # ob
  273 677   4  -1.0500  11.912664000830   5.375385999544  18.939640001515 # ob
  274 678   4  -1.0500   9.569616579841   1.931096000435  16.183139998259 # ob
  275 679   4  -1.0500   9.123716581385   3.778985999394   4.391729997039 # ob
  276 680   4  -1.0500  13.441396383172   0.154907373626   8.737539999335 # ob
  277 681   4  -1.0500  10.598060001318   4.399466000634  11.956440001360 # ob
  278  21   3  -0.9500  14.139260000672   4.342326000378  54.775239996932 # oh
  279  22   3  -0.9500  15.267720000437   2.637615999456  21.544839998110 # oh
  280 682   4  -1.0500   9.487070001548   5.388045999441  14.163439997578 # ob
  281 683   4  -1.0500  12.657773001161   0.774518999308   6.359929996900 # ob
  282 684   4  -1.0500  12.526689001337   3.505366000160   0.942550000114 # ob
  283 685   4  -1.0500  13.666740001359   2.221215999933  19.528339998784 # ob
  284 686   4  -1.0500   7.696216580421   4.771995999531  15.855039998601 # ob
  285 687   4  -1.0500  11.127916579343   0.599423000381   4.343169997151 # ob
  286 688   4  -1.0500   6.483310000704  17.521315999832   1.270859999045 # ob
  287 689   4  -1.0500  15.681220001654   3.781645999696  19.196639999683 # ob
  288 690   4  -1.0500  13.592890001779   0.339827999041  16.440939998155 # ob
  289 691   4  -1.0500  13.223680000472   2.082626000835   4.313489998043 # ob
  290  23   3  -0.9500  12.008159300156   5.277406000422  13.975539999358 # oh
  291  23   5   0.4250  12.898273001221   4.734755999028  13.788239998269 # ho
  292  24   3  -0.9500  15.066310001364   1.362286000623   7.069020001217 # oh
  293  24   5   0.4250  14.985620001408   2.390006000416   7.120970001275 # ho
  294  82   6  -0.8476  -0.492273418933  18.338715999875  53.105039999075 # o*
  295  82   7   0.4238  12.600796384685   0.111407372594  52.816140000754 # h*
  296  82   7   0.4238  11.354016581218   0.542366999801  53.592639999497 # h*
  297  83   6  -0.8476   7.620700001180   8.307085999805  21.513139997000 # o*
  298  83   7   0.4238   7.823019999390   9.023536000864  22.190139996799 # h*
  299  83   7   0.4238   8.488340001201   7.806145999646  21.371139998617 # h*
  300  84   6  -0.8476  13.699130001259   3.237095999683  13.127239999696 # o*
  301  84   7   0.4238  12.980005000396   3.065635999514  12.439839999656 # h*
  302  84   7   0.4238  14.577510001133   3.320216000116  12.643540000058 # h*
  303  85   6  -0.8476  13.671650000509   3.935596000259   6.935789998932 # o*
  304  85   7   0.4238  14.271750000821   4.534815999714   7.565010000110 # h*
  305  85   7   0.4238  12.782401000654   3.849596000017   7.412070000181 # h*
  306  86   6  -0.8476   9.750016580518   2.222356000595   8.199949999477 # o*
  307  86   7   0.4238  10.451400001586   2.287455999261   7.472569996833 # h*
  308  86   7   0.4238   8.936716580821   1.793175999242   7.766909998014 # h*
  309  87   6  -0.8476  10.788416581266   0.426073999798  12.324839999871 # o*
  310  87   7   0.4238  11.450753999247   0.948398000820  12.872439996560 # h*
  311  87   7   0.4238  -0.845203418588  18.317915999600  11.972840000673 # h*
  312  88   6  -0.8476  12.789030999357   2.062306000839  10.573339999326 # o*
  313  61   7   0.4238   5.525216580642   0.949867999810   9.231240001127 # h*
  314  61   7   0.4238   6.055116580565   2.549165999034   9.085740000046 # h*
  315  89   6  -0.8476  15.546470001913   0.174533899712  10.347740000925 # o*
  316  89   7   0.4238   3.146750000420  18.199115999569  11.146339996711 # h*
  317  89   7   0.4238  14.718516384729   0.175007372252   9.815639999524 # h*
  318  90   6  -0.8476   8.246216582084   4.020435999205  10.555239999814 # o*
  319  90   7   0.4238   9.140916580635   4.243745999044  11.036639996568 # h*
  320  90   7   0.4238   8.492316579949   4.456196000031   9.642339998119 # h*
  321  25   1   2.1000  11.766591000504   7.366846000492   0.579609999370 # st
  322  32   1   2.1000   8.909640000973  12.067416000417  20.035840001216 # st
  323 692   1   2.1000   6.956310000642   8.581466000723  15.484740000848 # st
  324 693   1   2.1000   6.381400000350  10.374115999908   5.205799998529 # st
  325  29   1   2.1000   6.606150000194  11.008716000651  13.664339999398 # st
  326  30   1   2.1000   9.417450000150   6.083116000510   7.385659998484 # st
  327  27   1   2.1000   9.315740001553  10.819915999730   0.541990001028 # st
  328  28   1   2.1000  10.384620000840   9.383435999882  20.075339998342 # st
  329 694   1   2.1000   4.637740001243  12.064515999976  15.668140001152 # st
  330 695   1   2.1000   8.100490001923   7.956225999825   5.178649996484 # st
  331 696   2   1.0500  11.588390000065   7.536625999687   3.823469997532 # cah
  332 697   2   1.0500   7.900150000326  11.892815999667  16.794439998509 # cah
  333 698   2   1.0500   7.296790000624   9.191655999716  18.950139998502 # cah
  334 699   2   1.0500   5.742570000380  10.678615999680   2.283550000797 # cah
  335 700   2   1.0500   8.329660000333   7.596306000175   1.970680001327 # cah
  336 701   2   1.0500   5.249580000593  12.301716000425  19.003339999523 # cah
  337 702   2   1.0500  10.122419999683   8.848836000677  16.754440000998 # cah
  338 703   2   1.0500   9.644190000507  10.727315999383   3.746050000723 # cah
  339 704   2   1.0500   6.694816581224   6.598605999799   9.914139997698 # cah
  340  25   3  -0.9500  11.198541000206   7.905205999396  54.706239999282 # oh
  341  26   3  -0.9500  12.108602600607   6.341055999336  21.325939998209 # oh
  342 705   4  -1.0500   6.719160001063   9.436885999858  14.135639997253 # ob
  343 706   4  -1.0500  10.030610002138   5.029735999484   6.415329998505 # ob
  344 707   4  -1.0500  12.416766002106   5.954975999404   0.267609997683 # ob
  345 708   4  -1.0500   9.557420000404  10.657616000531  20.448040001277 # ob
  346 709   4  -1.0500   8.061320000726   7.394625999851  15.190039996946 # ob
  347 710   4  -1.0500   7.465120001456   9.282085999424   5.674880000892 # ob
  348 711   4  -1.0500  12.767918001491   8.215695999540   1.302009998620 # ob
  349 712   4  -1.0500  13.891899999664   6.852906000860  19.597339996434 # ob
  350 713   4  -1.0500   7.657100000233   9.489915999591  16.523240001613 # ob
  351 714   4  -1.0500  11.343547001375   4.927745999275   4.177219998079 # ob
  352 715   4  -1.0500  10.631210000110   6.985565999621   1.528069996487 # ob
  353 716   4  -1.0500   7.665860001521  11.683615999946  19.191739998128 # ob
  354 717   4  -1.0500   5.655816581157   7.965906000476  15.978939997472 # ob
  355 718   4  -1.0500   5.157616581205   9.752276000363   4.491849999128 # ob
  356 719   4  -1.0500   8.336816579062   5.488896000851   8.328770000362 # ob
  357 720   4  -1.0500   6.467860001275  11.108016000539  12.143739996897 # ob
  358  27   3  -0.9500   9.416020000757  10.127435999545  54.645640000332 # oh
  359  28   3  -0.9500  10.741220001430   8.633025999603  21.418140001523 # oh
  360 721   4  -1.0500   5.346990001801  11.600715999020  14.366839996638 # ob
  361 722   4  -1.0500   8.767370000319   7.168646000326   6.455770000576 # ob
  362 723   4  -1.0500   8.491979999434   9.947716000791   1.463209999584 # ob
  363 724   4  -1.0500   9.562650001269   8.540656000011  19.106439997911 # ob
  364 725   4  -1.0500   3.645016580798  11.039615999957  16.247839997038 # ob
  365 726   4  -1.0500   7.149016579804   6.943306000551   4.474389997665 # ob
  366 727   4  -1.0500  14.363350000541   5.216176000276   1.636849997698 # ob
  367 728   4  -1.0500  11.683851001760   9.814755999992  19.304440000583 # ob
  368 729   4  -1.0500   9.780720001587   6.125396000212  16.619939997289 # ob
  369 730   4  -1.0500   9.274950000652   8.322646000144   4.141879996608 # ob
  370  29   3  -0.9500   7.898290001423  11.867916000117  14.102639999584 # oh
  371  29   5   0.4250   8.667410001522  12.321015999830  13.539639998800 # ho
  372  30   3  -0.9500  10.546990002231   6.800965999276   8.232579999748 # oh
  373  30   5   0.4250  11.104974000697   6.212225999693   8.925439997555 # ho
  374  91   6  -0.8476  10.074820000692   6.183206000236  53.040039998955 # o*
  375  91   7   0.4238   9.908620000563   6.554575999702  52.077040000849 # h*
  376  91   7   0.4238   9.154390000596   5.805606000259  53.273839997012 # h*
  377  92   6  -0.8476   2.683200000392  15.479716000208  24.189739996427 # o*
  378  92   7   0.4238   3.666260001246  15.698116000301  24.461639998304 # h*
  379  92   7   0.4238   2.239130000785  16.378615999743  24.237839996849 # h*
  380  93   6  -0.8476   8.716460001083   7.363146000829  10.994939998858 # o*
  381  93   7   0.4238   9.672920000655   7.175655999427  10.692040000852 # h*
  382  93   7   0.4238   8.471149999792   8.360466000363  10.888539996816 # h*
  383  94   6  -0.8476   9.023020000846  11.354815999109   6.599280000344 # o*
  384  94   7   0.4238   8.594120001029  10.446816000502   6.821159996545 # h*
  385  94   7   0.4238   9.628660000874  11.534115999483   7.432689996527 # h*
  386  95   6  -0.8476   6.140660001680   8.874805999606   9.144639998797 # o*
  387  95   7   0.4238   5.699970000735   9.254865999148   8.310259996980 # h*
  388  95   7   0.4238   6.992980000085   9.322995999573   9.501439997252 # h*
  389  96   6  -0.8476   6.817316581470   5.725026000058  12.330440000855 # o*
  390  96   7   0.4238   7.310516581452   4.911385999715  11.936439997052 # h*
  391  96   7   0.4238   7.545116580326   6.385995999341  12.663840000155 # h*
  392  97   6  -0.8476   8.117250001835   9.992555999495  10.482139996783 # o*
  393  70   7   0.4238   2.533916580651  10.375915999090   9.722839999079 # h*
  394  70   7   0.4238   2.718616580988   8.824426000790   9.321439997347 # h*
  395  98   6  -0.8476  11.912492000800   5.333646000155   9.917239996756 # o*
  396  98   7   0.4238  12.837152999769   5.114906000486  10.228439996716 # h*
  397  98   7   0.4238  11.301797000217   5.152036000304  10.745139999575 # h*
  398  99   6  -0.8476   4.363716580239  11.176015999647  10.698540000309 # o*
  399  99   7   0.4238   4.837870000459  11.672216000781   9.908439999969 # h*
  400  99   7   0.4238   5.186780000155  11.005116000424  11.338840000697 # h*
  401  31   1   2.1000   7.532360000450  13.395516000074   0.540819996350 # st
  402  20   1   2.1000   4.479900000114  18.240815999556  20.244439997621 # st
  403 731   1   2.1000   2.954870000334  14.780816000022  15.471839998680 # st
  404 732   1   2.1000   2.306740000100  16.652516000382   5.319730001487 # st
  405  35   1   2.1000   2.256360001834  17.014415999318  13.579639996312 # st
  406  36   1   2.1000   5.875970001438  12.583115999829   7.177159998825 # st
  407  33   1   2.1000   5.087460000862  16.969715999453   0.682570000093 # st
  408  34   1   2.1000   6.299250001673  15.645315999460  20.239040001233 # st
  409 733   1   2.1000   0.275000001701  18.272215999775  15.590340001162 # st
  410 734   1   2.1000   4.084629999238  14.182016000810   5.264689997049 # st
  411 735   2   1.0500   7.527480000713  13.798015999601   3.930739997357 # cah
  412 736   2   1.0500   3.926709999787  18.183016000781  16.586839997322 # cah
  413 737   2   1.0500   3.185650000581  15.443216000756  18.871539996785 # cah
  414 738   2   1.0500   1.984300001066  16.961616000340   2.145029999099 # cah
  415 739   2   1.0500   4.118970001889  13.692415999781   2.122479997268 # cah
  416 740   2   1.0500   1.053600001090  18.385715999833  18.839939997974 # cah
  417 741   2   1.0500   6.183580000525  14.953816000464  16.782339998068 # cah
  418 742   2   1.0500   5.595840001829  17.063415999196   3.844249997555 # cah
  419 743   2   1.0500   3.006150001979  14.573115999308  11.051139996638 # cah
  420  31   3  -0.9500   7.091070001747  14.156016000000  54.690539999398 # oh
  421  32   3  -0.9500   8.396680000324  12.798716000781  21.381039998473 # oh
  422 744   4  -1.0500   2.665960000406  15.586315999987  14.183839999973 # ob
  423 745   4  -1.0500   5.853320001143  11.207716000039   6.387920001591 # ob
  424 746   4  -1.0500   8.605450001079  12.265716000021   0.344389996443 # ob
  425 747   4  -1.0500   5.262109999987  16.843116000484  20.510439997173 # ob
  426 748   4  -1.0500   3.763529999982  13.303516000076  15.218940000339 # ob
  427 749   4  -1.0500   3.250320001158  15.441916000622   5.621349997840 # ob
  428 750   4  -1.0500   8.181720001148  14.519016000196   1.381820000381 # ob
  429 751   4  -1.0500   9.882950001167  12.884615999723  19.221039999609 # ob
  430 752   4  -1.0500   3.702820001132  15.643015999367  16.450039996284 # ob
  431 753   4  -1.0500   7.085920000744  11.387016000413   4.198810000059 # ob
  432 754   4  -1.0500   6.223760001248  12.798516000044   1.169509996453 # ob
  433 755   4  -1.0500   3.334740000528  17.896116000668  19.167739996290 # ob
  434 756   4  -1.0500   1.609716580605  14.343316000050  16.048640000104 # ob
  435 757   4  -1.0500   1.052266580285  16.113615999302   4.629799998831 # ob
  436 758   4  -1.0500   5.679860000256  12.315115999510   8.632939999791 # ob
  437 759   4  -1.0500   2.109540001773  17.111015999503  12.042839999094 # ob
  438  33   3  -0.9500   5.389880000982  16.063716000765  54.850639997294 # oh
  439  34   3  -0.9500   6.463060001010  14.774116000480  21.581739996563 # oh
  440 760   4  -1.0500   0.936300001483  17.433015999498  14.312539998101 # ob
  441 761   4  -1.0500   4.691750000116  13.562916000371   6.568850000658 # ob
  442 762   4  -1.0500   4.366850002198  16.301615999136   1.833440001282 # ob
  443 763   4  -1.0500   5.674610001496  14.780416000411  19.132239996694 # ob
  444 764   4  -1.0500  -0.426693419146  17.279815999371  16.543939999797 # ob
  445 765   4  -1.0500   3.163316580494  13.182215999215   4.502919998108 # ob
  446 766   4  -1.0500  10.686000001246  11.130516000559   1.171989997920 # ob
  447 767   4  -1.0500   7.637060002130  16.164915999272  19.778139998067 # ob
  448 768   4  -1.0500   5.649350000423  12.556516000534  16.659740001310 # ob
  449 769   4  -1.0500   5.278190000312  14.604115999915   4.335059999563 # ob
  450  35   3  -0.9500   3.415110000338  17.945516000157  14.063839996335 # oh
  451  35   5   0.4250   4.110330001500  18.348216000421  13.372339996467 # ho
  452  36   3  -0.9500   7.287530001395  13.384015999609   6.862709996361 # oh
  453  36   5   0.4250   7.969989999829  12.604816000627   6.681379999206 # ho
  454 100   6  -0.8476   4.010920000121  12.882915999978  53.348739996988 # o*
  455 100   7   0.4238   4.691760002083  13.240415999465  52.690439999385 # h*
  456 100   7   0.4238   3.248720000847  13.502515999465  53.114139997204 # h*
  457 101   6  -0.8476  13.933896384750   0.217007372414  22.959339999911 # o*
  458 101   7   0.4238  14.681440001221   0.244730999915  22.249339996891 # h*
  459 101   7   0.4238  14.365250000557   0.588012999968  23.835940000283 # h*
  460 102   6  -0.8476   6.261340001112  14.888415999761  14.202139998529 # o*
  461 102   7   0.4238   7.068360000567  14.364716000673  14.483439999878 # h*
  462 102   7   0.4238   6.452339999638  15.870116000785  14.501439997092 # h*
  463 103   6  -0.8476   4.946790001543  17.581015999090   8.091429998689 # o*
  464 103   7   0.4238   5.926959999914  17.896216000105   8.139160001713 # h*
  465 103   7   0.4238   4.474840001503  17.934315999866   8.933939998553 # h*
  466 104   6  -0.8476   3.378530002264  14.932515999278   8.588040000724 # o*
  467 104   7   0.4238   3.635240000866  14.228315999120   7.895899997254 # h*
  468 104   7   0.4238   3.978720000310  15.706416000151   8.356080000532 # h*
  469 105   6  -0.8476   3.200116579425  12.662716000703  12.584039998624 # o*
  470 105   7   0.4238   3.810816580969  12.691115999179  13.397239996778 # h*
  471 105   7   0.4238   3.459616580714  11.882315999161  11.978039998017 # h*
  472 106   6  -0.8476   5.257449999554  15.836016000862  11.727640001604 # o*
  473  79   7   0.4238   0.117236580034  15.579916000620  10.967240000831 # h*
  474  79   7   0.4238   0.433446581177  14.830116000074  12.321240000428 # h*
  475 107   6  -0.8476   7.103430000493  13.276515999307  10.741840001474 # o*
  476 107   7   0.4238   7.023020002306  12.425715999127  11.310539999987 # h*
  477 107   7   0.4238   6.390750001835  13.108415999224  10.007739999870 # h*
  478 108   6  -0.8476  -0.040993419100  17.302015999216  10.597239998866 # o*
  479 108   7   0.4238   0.830299999574  17.278616000537  11.150739997881 # h*
  480 108   7   0.4238   0.165999999733  17.902116000425   9.744940001674 # h*
  481  37   1   2.1000   2.101816581566   0.842865999051   0.347039996264 # st
  482  44   1   2.1000  -0.863923419045   5.990035999884  19.951240000428 # st
  483 770   1   2.1000  17.883010001411   2.462935999901  15.610840000303 # st
  484 771   1   2.1000  17.402000001161   4.167776000278   5.028839996302 # st
  485  41   1   2.1000  17.052140001142   4.461816000809  13.275239997150 # st
  486  42   1   2.1000  20.560796384969   0.106607373534   7.207249996251 # st
  487  39   1   2.1000  -0.356063418321   4.745105999447   0.659449996268 # st
  488  40   1   2.1000   0.757056580717   3.315696000598  20.205639999924 # st
  489 772   1   2.1000  15.533280000886   6.117976000252  15.362740001220 # st
  490 773   1   2.1000  19.064099999665   1.622596000826   4.869100001127 # st
  491 774   2   1.0500   1.932316580258   1.341486000348   3.464989999337 # cah
  492 775   2   1.0500  -1.756363418529   5.594055999795  16.814739998606 # cah
  493 776   2   1.0500  18.177200000557   3.018106000490  19.310539996400 # cah
  494 777   2   1.0500  17.057779999749   4.251386000374   1.777969998068 # cah
  495 778   2   1.0500  19.337570000784   1.124168999206   1.649929998450 # cah
  496 779   2   1.0500  16.205830002079   6.146665999518  18.965740001640 # cah
  497 780   2   1.0500   0.487706579682   2.756456000751  16.662640001324 # cah
  498 781   2   1.0500   0.062326580317   4.509255999781   3.909239997446 # cah
  499 782   2   1.0500  17.199830000435   2.020546000817  10.710839999794 # cah
  500  37   3  -0.9500   1.694316581279   1.511106000070  54.502339999836 # oh
  501  38   3  -0.9500   3.035516581226   0.452090000368  21.091440000723 # oh
  502 783   4  -1.0500  17.497090000324   3.403066000392  14.390139999048 # ob
  503 784   4  -1.0500   8.950150000378  17.652516000851   6.317379996313 # ob
  504 785   4  -1.0500  -9.193850419963  18.206415999460   0.000000000000 # ob
  505 786   4  -1.0500  -0.020343420285   4.685556000276  20.255039996906 # ob
  506 787   4  -1.0500  18.734079999288   1.155778000726  15.144540000749 # ob
  507 788   4  -1.0500  18.224630000216   2.899726000703   5.354179999163 # ob
  508 789   4  -1.0500   2.956416581355   1.863035999429   1.223879996599 # ob
  509 790   4  -1.0500   4.194916581881   0.532896999272  18.756440000254 # ob
  510 791   4  -1.0500  -2.033513418923   3.317285999657  16.648140001254 # ob
  511 792   4  -1.0500 -10.573373419784  17.511715999849   4.015079997723 # ob
  512 793   4  -1.0500   0.868116581126   0.414344999261   1.159699998666 # ob
  513 794   4  -1.0500  -2.145023419724   5.518666000744  19.202339997413 # ob
  514 795   4  -1.0500  16.592099999662   1.852446000734  16.238840001207 # ob
  515 796   4  -1.0500  16.177040000830   3.739345999361   4.113139996891 # ob
  516 797   4  -1.0500   7.471880001078  18.196215999128   8.292429998120 # ob
  517 798   4  -1.0500  16.399350000723   3.827065999980  12.085739996619 # ob
  518  39   3  -0.9500   0.477456581274   4.178265999536  54.826539998710 # oh
  519  40   3  -0.9500   0.874386580450   2.642695999921  21.744740000025 # oh
  520 799   4  -1.0500  16.086990000229   5.492425999795  14.025239997681 # ob
  521 800   4  -1.0500  19.626269999600   0.956943000501   6.192959996597 # ob
  522 801   4  -1.0500  -1.203743419870   3.598155999995   1.120380000124 # ob
  523 802   4  -1.0500  -0.110343419899   2.355195999460  19.270739997932 # ob
  524 803   4  -1.0500  14.490100000939   5.187635999234  16.021739998252 # ob
  525 804   4  -1.0500  18.058090001079   0.755901999244   4.113409997543 # ob
  526 805   4  -1.0500  -7.121663419267  17.458716000133   1.265630001011 # ob
  527 806   4  -1.0500   2.149916579891   3.634786000766  19.579939996351 # ob
  528 807   4  -1.0500  -0.013693420044   0.281572100255  16.532239997444 # ob
  529 808   4  -1.0500  -0.442903418365   2.100395999351   4.010519998429 # ob
  530  41   3  -0.9500  -2.273463420177   5.340375999715  12.896040000311 # oh
  531  41   5   0.4250  -2.535253418857   6.274476000432  12.452839998570 # ho
  532  42   3  -0.9500   1.015776580695   1.045861999270   7.815219997709 # oh
  533  42   5   0.4250   1.952016580898   0.603674999247   7.979670001178 # ho
  534 109   6  -0.8476   6.244270001312  13.949816000158  51.868639997935 # o*
  535 109   7   0.4238   6.518720000986  14.290016000160  52.801339999342 # h*
  536 109   7   0.4238   6.245960000636  14.627816000632  51.116340000074 # h*
  537 110   6  -0.8476  13.730240001113   7.067025999711  23.327640001676 # o*
  538 110   7   0.4238  13.430730001010   6.307465999710  23.931239997102 # h*
  539 110   7   0.4238  14.102050000246   7.753175999948  23.977939998666 # h*
  540 111   6  -0.8476   0.143316581315   3.950436000179  13.109440001525 # o*
  541 111   7   0.4238  -0.577343418484   4.636106000137  13.165839998349 # h*
  542 111   7   0.4238   0.989296579593   4.462495999962  13.120639997941 # h*
  543 112   6  -0.8476  -1.386543418636   4.763815999751   8.438829997673 # o*
  544 112   7   0.4238  -0.364483419953   4.738546000607   8.297069999253 # h*
  545 112   7   0.4238  -1.616403418319   3.777955999417   8.231469996450 # h*
  546 113   6  -0.8476  17.713690000717   1.999386000332   8.328100001623 # o*
  547 113   7   0.4238  17.098470001235   2.077535999122   7.553210001011 # h*
  548 113   7   0.4238  18.131040000116   1.104707999646   8.032659997373 # h*
  549 114   6  -0.8476  17.542250001055   0.693944000663  12.789839997313 # o*
  550 114   7   0.4238  18.054079999451   1.070939000599  13.610540001246 # h*
  551 114   7   0.4238   5.920443617044  18.634708627169  12.366440000836 # h*
  552 115   6  -0.8476  -1.126273420704   2.458716000557  11.346939998056 # o*
  553  88   7   0.4238  13.517480001091   2.689596000442  10.248339998726 # h*
  554  88   7   0.4238  13.060240000356   1.241235999286  10.069339999591 # h*
  555 116   6  -0.8476   2.690213965608   0.155807372285  10.937939999350 # o*
  556 116   7   0.4238  -9.290602418946  18.519916000730   9.983239997647 # h*
  557 116   7   0.4238 -10.345063419136  18.289316000386  11.221539998029 # h*
  558 117   6  -0.8476  14.410609999463   4.176826000563  10.368439999110 # o*
  559 117   7   0.4238  15.129090001221   4.145045999503  11.140039996298 # h*
  560 117   7   0.4238  14.850010000517   4.798416000585   9.690839996628 # h*
  561  43   1   2.1000  -2.073863420178   7.231396000112   0.651849999295 # st
  562  50   1   2.1000  -4.921963419802  11.991616000508  19.631439997172 # st
  563 809   1   2.1000  13.773300000477   8.682385999689  15.451140000495 # st
  564 810   1   2.1000  13.168429999785  10.508116000068   5.080939999807 # st
  565  47   1   2.1000  12.955227999750  10.808916000176  13.308740000757 # st
  566  48   1   2.1000  16.323250000268   6.050286000703   7.289659996684 # st
  567  45   1   2.1000  -4.287743419571  10.851916000297   0.621639999112 # st
  568  46   1   2.1000  -3.256693419716   9.440576000138  19.836339997388 # st
  569 811   1   2.1000  11.316690001926  12.135715999699  15.594640000034 # st
  570 812   1   2.1000  15.032780001109   7.949665999122   5.089599998929 # st
  571 813   2   1.0500  -2.182193419026   7.623886000660   3.689359997234 # cah
  572 814   2   1.0500  -5.811433419877  12.094616000060  16.525039998558 # cah
  573 815   2   1.0500  13.982380001135   9.152315999857  18.725339996275 # cah
  574 816   2   1.0500  13.114500001959  10.766715999277   1.796289997083 # cah
  575 817   2   1.0500  15.122210001105   7.552156000008   1.769579999597 # cah
  576 818   2   1.0500  12.184987199818  12.291516000093  18.886039996854 # cah
  577 819   2   1.0500  -3.492253420216   8.844806000822  16.537139998999 # cah
  578 820   2   1.0500  -4.114853418641  10.592015999090   3.635630000691 # cah
  579 821   2   1.0500  13.899940000462   9.463805999960  10.211139998930 # cah
  580  43   3  -0.9500  -2.557873419080   7.855976000627  54.765139998033 # oh
  581  44   3  -0.9500  -1.275833420250   6.772945999778  21.256339997876 # oh
  582 822   4  -1.0500  13.337440001848   9.484345999463  14.081239996418 # ob
  583 823   4  -1.0500  16.818410000140   4.902536000166   6.308729997420 # ob
  584 824   4  -1.0500  -1.186793419477   5.979246000452   0.321009997748 # ob
  585 825   4  -1.0500  -4.124963419129  10.718116000874  20.089639999368 # ob
  586 826   4  -1.0500  14.833730001977   7.542115999147  15.137139997267 # ob
  587 827   4  -1.0500  14.280290001875   9.395065999802   5.430029998761 # ob
  588 828   4  -1.0500  -1.316713418935   8.343155999629   1.457129998674 # ob
  589 829   4  -1.0500  -0.059423419142   6.920725999863  19.062140001528 # ob
  590 830   4  -1.0500  -6.174063418459   9.599485999232  16.384740000374 # ob
  591 831   4  -1.0500  -2.332663418870   5.116035999899   4.124869999934 # ob
  592 832   4  -1.0500  -3.279843419892   6.746596000007   1.493059997047 # ob
  593 833   4  -1.0500  -6.128043419211  11.578616000475  18.795039998907 # ob
  594 834   4  -1.0500  12.502679999557   8.035976000786  16.143739997879 # ob
  595 835   4  -1.0500  11.928231001667   9.863095999487   4.350189997453 # ob
  596 836   4  -1.0500  15.229570000930   5.545605999615   8.274079998415 # ob
  597 837   4  -1.0500  12.644213001592  10.670115999093  11.830040000563 # ob
  598  45   3  -0.9500  -3.795483420546  10.288616000578  54.635939999519 # oh
  599  46   3  -0.9500  -3.023043418613   8.823526000268  21.210340001293 # oh
  600 838   4  -1.0500  11.919762999722  11.573016000329  14.252240000493 # ob
  601 839   4  -1.0500  15.691450000594   7.169166000007   6.366049998729 # ob
  602 840   4  -1.0500  -5.075293420097   9.827436000522   1.401819999137 # ob
  603 841   4  -1.0500  -4.063503419699   8.473855999736  18.920239999890 # ob
  604 842   4  -1.0500  10.469540001244  11.112316000552  16.344739997311 # ob
  605 843   4  -1.0500  13.901830001364   7.112575999449   4.473310000609 # ob
  606 844   4  -1.0500   0.746426580478   5.184085999657   1.695639999473 # ob
  607 845   4  -1.0500  -1.917043420320   9.823956000365  19.175039997474 # ob
  608 846   4  -1.0500  -3.992643420485   6.374746000263  16.416039997844 # ob
  609 847   4  -1.0500  -4.486343420599   8.216286000504   4.185469998885 # ob
  610  47   3  -0.9500  -6.380293419987  11.730615999905  13.503839997863 # oh
  611  47   5   0.4250  -6.249023419810  12.722916000872  13.176239998590 # ho
  612  48   3  -0.9500  -3.111343420099   6.609355999830   8.031899996565 # oh
  613  48   5   0.4250  -2.274793418610   5.984895999384   8.255729998710 # ho
  614 118   6  -0.8476  16.857280000860   4.394615999060  54.632439996822 # o*
  615 118   7   0.4238  17.048990000396   5.018206000864  53.827439998325 # h*
  616 118   7   0.4238  15.926330000202   4.592436000249  54.953839997980 # h*
  617 119   6  -0.8476  12.618245000366  11.839016000729  21.264139999445 # o*
  618 119   7   0.4238  -7.110933420543  11.818516000628  21.575939996536 # h*
  619 119   7   0.4238  12.285297002159  10.902715999356  21.173140001498 # h*
  620 120   6  -0.8476  -4.666853419665   9.787556000349  12.249040001422 # o*
  621 120   7   0.4238  -3.928233418133  10.414215999587  11.890139999128 # h*
  622 120   7   0.4238  -4.954463418409  10.261615999809  13.076839996391 # h*
  623 121   6  -0.8476  -5.097543418382  13.347715999030   9.293540000276 # o*
  624 121   7   0.4238  -5.998383419129  13.111516000403   8.884339996975 # h*
  625 121   7   0.4238  -4.392693419347  12.701015999337   8.953840000563 # h*
  626 122   6  -0.8476  12.138632101629   9.030155999739   8.554440000372 # o*
  627 122   7   0.4238  11.599446000955   8.178865999896   8.338720001367 # h*
  628 122   7   0.4238  11.516795000322   9.863365999644   8.464639996686 # h*
  629 123   6  -0.8476  14.337879999596   7.091326000776  10.442539997359 # o*
  630 123   7   0.4238  14.467220000820   6.520006000749  11.261439998795 # h*
  631 123   7   0.4238  14.608990000446   6.471565999954   9.683339996401 # h*
  632 124   6  -0.8476  -5.360143420026  10.254315999918   8.384620001204 # o*
  633  97   7   0.4238   7.512460000624  10.522715999849  11.149539998067 # h*
  634  97   7   0.4238   8.994729999879  10.546416000565  10.451939996830 # h*
  635 125   6  -0.8476  -3.232303418725   7.295926000311  11.557740000598 # o*
  636 125   7   0.4238  -3.784713419264   8.029265999996  11.974839996661 # h*
  637 125   7   0.4238  -3.242463420679   7.557176000438  10.580640000510 # h*
  638 126   6  -0.8476  10.500310001336  11.133415999137  10.628740000932 # o*
  639 126   7   0.4238  11.364254000158  10.945816000777  11.188239999018 # h*
  640 126   7   0.4238  10.890800000837  11.311816000852   9.682840001568 # h*
  641  49   1   2.1000  -5.995793419238  13.454316000673   0.417739999666 # st
  642  38   1   2.1000  -8.911107419474  18.324915999316  19.752440001581 # st
  643 848   1   2.1000   9.717650000214  14.724416000817  15.595039998121 # st
  644 849   1   2.1000   9.288480000275  16.749615999615   5.074589998244 # st
  645  53   1   2.1000   9.309630001079  17.035016000720  13.704139997866 # st
  646  54   1   2.1000  12.091336629546  12.366216000607   7.358629999197 # st
  647  51   1   2.1000  -8.313555418727  17.032915999500   0.399420000651 # st
  648  52   1   2.1000  -7.316213419615  15.620515999347  20.223040000008 # st
  649 850   1   2.1000   7.384930000938  18.488916000123  15.576839996311 # st
  650 851   1   2.1000  10.933129999896  14.120216000333   5.097499997244 # st
  651 852   2   1.0500  -6.453623420412  13.875715999993   3.574709999940 # cah
  652 853   2   1.0500  -9.669793418807  18.481916000407  16.599439998149 # cah
  653 854   2   1.0500   9.919140001077  15.356115999254  18.829739996776 # cah
  654 855   2   1.0500   8.808810001080  16.819515999204   1.551629999319 # cah
  655 856   2   1.0500  10.933650001428  13.673915999599   1.344709997102 # cah
  656 857   2   1.0500  20.148666383672   0.045507372842  18.886139999152 # cah
  657 858   2   1.0500  -7.595213420812  14.994816000666  16.723639998361 # cah
  658 859   2   1.0500  -8.241274419362  16.961015999992   3.407770000327 # cah
  659 860   2   1.0500   8.987570000137  14.735815999982  10.954039997321 # cah
  660  49   3  -0.9500  -6.331473419081  14.008016000408  54.524640001475 # oh
  661  50   3  -0.9500  -5.458543419979  12.709116000313  21.048739996689 # oh
  662 861   4  -1.0500   9.327450001419  15.671415999706  14.432240000398 # ob
  663 862   4  -1.0500  12.802149999524  11.288716000484   6.430749997507 # ob
  664 863   4  -1.0500  -5.102843418045  12.078215999234   0.356259997151 # ob
  665 864   4  -1.0500  -8.024440419972  17.077915999540  20.218539996539 # ob
  666 865   4  -1.0500  10.384990001270  13.334115999208  15.167339997220 # ob
  667 866   4  -1.0500  10.101970000095  15.464516000079   5.492450000668 # ob
  668 867   4  -1.0500  -5.241633420762  14.489816000634   1.344519998288 # ob
  669 868   4  -1.0500  -4.081013419369  13.062216000351  18.951539997360 # ob
  670 869   4  -1.0500  -9.904763419620  15.361315999789  16.559639999681 # ob
  671 870   4  -1.0500  -6.878983418738  11.488415999658   4.075279998586 # ob
  672 871   4  -1.0500  -7.318803418443  13.120915999650   1.155059997533 # ob
  673 872   4  -1.0500 -10.141323419512  17.944816000372  18.978040001125 # ob
  674 873   4  -1.0500   8.400010000042  14.414215999599  16.309539999057 # ob
  675 874   4  -1.0500   7.925920000980  16.368216000537   4.437320000857 # ob
  676 875   4  -1.0500  11.095024000800  11.516915999435   8.196650001376 # ob
  677 876   4  -1.0500   9.409760001373  16.886816000390  12.203039999287 # ob
  678  51   3  -0.9500  -7.669153419634  16.265215999121  54.587239996414 # oh
  679  52   3  -0.9500  -7.422773419953  15.025916000710  21.797839998748 # oh
  680 877   4  -1.0500   8.038820001160  17.839115999251  14.260539996895 # ob
  681 878   4  -1.0500  11.439581000224  13.413515999345   6.340320001554 # ob
  682 879   4  -1.0500  -9.151282418933  15.987815999555   1.318939999008 # ob
  683 880   4  -1.0500  -7.881808418863  14.656016000235  19.188839998114 # ob
  684 881   4  -1.0500   6.384920000416  17.377415999515  16.164539998362 # ob
  685 882   4  -1.0500   9.897770001625  13.294216000266   4.167539997726 # ob
  686 883   4  -1.0500  -3.027543420441  11.175216000425   1.504679997562 # ob
  687 884   4  -1.0500  -5.824403420013  15.900316000306  20.059139998073 # ob
  688 885   4  -1.0500  -8.191603420614  12.658116000517  16.457040001678 # ob
  689 886   4  -1.0500  -8.532258019641  14.669916000230   4.229530000857 # ob
  690  53   3  -0.9500 -10.016333418628  17.841015999733  14.191539999244 # oh
  691  53   5   0.4250  -9.090353418181  17.681215999501  13.736440001658 # ho
  692  54   3  -0.9500  -7.555133418791  13.086915999164   8.395240000949 # oh
  693  54   5   0.4250  -7.935475419761  13.436915999887   9.290839999306 # ho
  694 127   6  -0.8476   8.972949999330  15.890316000711  53.914040000655 # o*
  695 127   7   0.4238   8.461029999967  16.728415999729  53.641139998006 # h*
  696 127   7   0.4238   8.340530000933  15.186116000553  54.339139997331 # h*
  697 128   6  -0.8476   7.426280001442  18.468115999848  21.648640001479 # o*
  698 128   7   0.4238   7.131980000833  18.327716000320  22.617939999998 # h*
  699 128   7   0.4238  19.163760000531   0.603219000473  21.247239999747 # h*
  700 129   6  -0.8476  -8.036101418458  15.676415999504  13.714239996765 # o*
  701 129   7   0.4238  -7.553633420230  16.449916000766  14.131739996469 # h*
  702 129   7   0.4238  -7.339803418686  15.159815999570  13.256639997253 # h*
  703 130   6  -0.8476  -9.159466420195  17.817416000317   8.514239998264 # o*
  704 130   7   0.4238  -9.292080419831  16.877715999455   8.240820000324 # h*
  705 130   7   0.4238  -8.161597420829  17.925216000793   8.280379998828 # h*
  706 131   6  -0.8476   8.546330001937  15.349415999712   8.420019998502 # o*
  707 131   7   0.4238   8.302840001970  16.296315999165   8.160509998177 # h*
  708 131   7   0.4238   8.136070000987  14.671216000364   7.752949999249 # h*
  709 132   6  -0.8476   9.726940001958  12.894215999706  12.559639998699 # o*
  710 132   7   0.4238  10.306030000654  12.797516000085  13.351740000580 # h*
  711 132   7   0.4238  10.053770001512  12.101015999428  11.999339998885 # h*
  712 133   6  -0.8476  -9.024279418983  14.613115999551  10.877140001357 # o*
  713 106   7   0.4238   5.694020001435  15.419615999476  12.575440000880 # h*
  714 106   7   0.4238   5.883630000749  16.517816000437  11.305540001687 # h*
  715 134   6  -0.8476  -6.308783418515  14.000915999391  11.796139998868 # o*
  716 134   7   0.4238  -5.932473419933  13.251116000709  11.251840000280 # h*
  717 134   7   0.4238  -6.448953418795  14.771015999301  11.134940001252 # h*
  718 135   6  -0.8476   6.965310001564  17.576915999815  10.804239997369 # o*
  719 135   7   0.4238   7.798429999815  17.574216000111  11.348540001510 # h*
  720 135   7   0.4238   7.117970001683  17.664015999453   9.826239998809 # h*
  721   2   5   0.4250  10.212116580372   0.460238000627  21.974439998254 # ho
  722   4   5   0.4250   8.388916579939   1.836646000257  21.930639996704 # ho
  723   8   5   0.4250   6.415116581977   7.457715999214  21.452440001305 # ho
  724  10   5   0.4250   4.532516580975   7.937046000491  21.279940001627 # ho
  725  14   5   0.4250   1.983716580139  12.886216000030  22.243539996863 # ho
  726  16   5   0.4250  -0.712283418083  14.115815999021  21.880439997995 # ho
  727  20   5   0.4250  15.844950000628   1.243535999379  21.654039997867 # ho
  728  22   5   0.4250  15.030410001136   3.167145999444  22.451639998435 # ho
  729  26   5   0.4250  12.688827000444   6.676176000737  22.155740000272 # ho
  730  28   5   0.4250  11.339785000093   7.788476000567  21.338539999036 # ho
  731  32   5   0.4250   9.246450000733  13.192715999721  21.879739998566 # ho
  732  34   5   0.4250   7.081490000411  13.925916000567  21.743540000211 # ho
  733  38   5   0.4250  -9.250823419108  18.584116000737  22.021039997520 # ho
  734  40   5   0.4250   1.096036580398   1.649535999696  21.906839999462 # ho
  735  44   5   0.4250  -0.499053419703   6.993456000475  21.918439999517 # ho
  736  46   5   0.4250  -2.223943419354   8.098486000433  21.290639997657 # ho
  737  50   5   0.4250  -4.704433419036  12.985816000094  21.697139999989 # ho
  738  52   5   0.4250  -6.799623418315  14.176015999190  21.823839996575 # ho
  739   1   5   0.4250   8.019016579981   2.620366000621  54.979840001359 # ho
  740   3   5   0.4250   7.102916581393   4.630656000079  54.096940000574 # ho
  741   7   5   0.4250   4.329116580402   9.194895999733  55.108739998531 # ho
  742   9   5   0.4250   3.569316579782  11.248016000456  54.426339996792 # ho
  743  13   5   0.4250  -0.125253418657  15.133715999323  54.867639999290 # ho
  744  15   5   0.4250  -1.009953420344  17.094316000366  54.013140001513 # ho
  745  19   5   0.4250  14.869240000887   2.702305999126  54.761239997248 # ho
  746  21   5   0.4250  13.813550001215   4.978805999107  53.990939996619 # ho
  747  25   5   0.4250  10.681170001053   7.212545999106  54.106539999088 # ho
  748  27   5   0.4250  10.022230000912   9.286835999697  54.541540001173 # ho
  749  31   5   0.4250   6.393030000572  14.957315999391  54.820539999638 # ho
  750  33   5   0.4250   4.824659999749  16.318516000874  53.993439998546 # ho
  751  37   5   0.4250   1.318036580235   2.478066000611  54.466739997943 # ho
  752  39   5   0.4250   0.357396580338   4.578875999829  53.873739996249 # ho
  753  43   5   0.4250  -3.146263418936   8.729605999155  54.767039997276 # ho
  754  45   5   0.4250  -3.858603420471  11.028616000403  53.892340001699 # ho
  755  49   5   0.4250  -6.941523419295  14.885716000056  54.527139997849 # ho
  756  51   5   0.4250  -7.599803419500  16.910916000718  53.751139999491 # ho
  757 136   7   0.4238   9.099316580572   0.889634000615  46.471439998489 # h*
  758 136   7   0.4238   9.118616580119   2.107875999346  47.448239997236 # h*
  759 136   6  -0.8476   8.479816580251   1.391645999657  47.131339999546 # o*
  760 137   7   0.4238   1.532116581397   7.724916000311  27.465740000257 # h*
  761 137   7   0.4238   2.331616580769   6.691956000582  28.425740001604 # h*
  762 137   6  -0.8476   2.081116579806   6.843066000737  27.448739998261 # o*
  763 138   7   0.4238   6.535616581906   1.835935999223  38.744839999558 # h*
  764 138   7   0.4238   7.031116581459   1.079736999993  37.428139996502 # h*
  765 138   6  -0.8476   7.183316580729   1.121741999847  38.427939996316 # o*
  766 139   7   0.4238  -0.812553418637   1.812255999139  39.461439998780 # h*
  767 139   7   0.4238  18.508960000810   1.408526000762  40.207939996614 # h*
  768 139   6  -0.8476  18.951380000862   2.183425999731  39.728839997190 # o*
  769 140   7   0.4238   5.981910001465  12.268515999162  36.599639996552 # h*
  770 140   7   0.4238   7.519070000590  12.032515999409  37.022739997240 # h*
  771 140   6  -0.8476   6.732730000851  11.550516000309  36.620539999333 # o*
  772 141   7   0.4238  -6.302463419550  13.441015999162  29.213840000403 # h*
  773 141   7   0.4238  -5.659763420021  12.737015999741  30.426139997406 # h*
  774 141   6  -0.8476  -6.490253418878  12.662716000703  29.831339998767 # o*
  775 142   7   0.4238   0.865236580279  10.398916000021  36.907939996498 # h*
  776 142   7   0.4238   1.332696580067   8.880745999328  36.892739996999 # h*
  777 142   6  -0.8476   0.543286580233   9.479525999770  37.099940000099 # o*
  778 143   7   0.4238  -0.042953420582  11.634916000243  41.538139998969 # h*
  779 143   7   0.4238  -0.378383418803  11.709016000407  43.036839997919 # h*
  780 143   6  -0.8476  -0.853493420027  11.598416000790  42.152739997320 # o*
  781 144   7   0.4238  13.044888000906   1.002166000236  44.557639999464 # h*
  782 144   7   0.4238  13.954480001114   2.019045999946  45.232040000591 # h*
  783 144   6  -0.8476  13.917980000714   1.486095999835  44.361339996992 # o*
  784 145   7   0.4238  -2.236313419779  12.810616000858  33.597439999395 # h*
  785 145   7   0.4238  -1.479293417965  13.779215999245  32.426739997804 # h*
  786 145   6  -0.8476  -1.343303419532  13.179716000248  33.255739998140 # o*
  787 146   7   0.4238  -0.452363419080  16.694516000543  45.082139998340 # h*
  788 146   7   0.4238  -0.162093420043  15.717415999706  46.370639997432 # h*
  789 146   6  -0.8476  -0.903693418167  16.216215999243  45.868440000194 # o*
  790 147   7   0.4238   7.133530000973  14.875116000113  38.237540001722 # h*
  791 147   7   0.4238   5.703960000902  15.427016000667  38.802239997153 # h*
  792 147   6  -0.8476   6.635020001700  15.744615999349  38.433739996344 # o*
  793 148   7   0.4238  10.913600000101  12.449616000581  40.178539998388 # h*
  794 148   7   0.4238  12.203541001459  12.658315999390  39.208739999484 # h*
  795 148   6  -0.8476  11.632355000301  13.132915999163  39.858939999728 # o*
  796 149   7   0.4238 -10.759483419935  17.558216000759  47.112639997350 # h*
  797 149   7   0.4238   1.989542964496   0.027307372834  46.095639996497 # h*
  798 149   6  -0.8476 -11.066093420190  18.185515999748  46.384340001327 # o*
  799 150   7   0.4238   0.717866580307   2.022195999911  27.263939999099 # h*
  800 150   7   0.4238   0.688726580375   1.288456000615  28.662139998333 # h*
  801 150   6  -0.8476   0.077566581489   1.536605999969  27.889840001716 # o*
  802 151   7   0.4238  13.275296384572   0.299007372817  26.243539997846 # h*
  803 151   7   0.4238  14.708119999295   0.453622000761  25.524739998039 # h*
  804 151   6  -0.8476   1.834600001339  18.371116000052  25.881539996494 # o*
  805 152   7   0.4238   2.556816580934  13.455316000632  50.527239999165 # h*
  806 152   7   0.4238   3.185390000713  13.934216000417  49.024440000387 # h*
  807 152   6  -0.8476   2.615516580740  13.260515999955  49.522940001436 # o*
  808 153   7   0.4238   7.112749999926  15.728816000734  27.851739997895 # h*
  809 153   7   0.4238   6.040239999714  14.523916000557  27.768540001517 # h*
  810 153   6  -0.8476   7.002710000696  14.783615999163  27.569139999987 # o*
  811 154   7   0.4238  13.907496384034   0.369807372929  33.933340000622 # h*
  812 154   7   0.4238  12.665096384572   0.190907372167  35.053240000820 # h*
  813 154   6  -0.8476   0.873800001328  18.441015999642  34.211539997360 # o*
  814 155   7   0.4238   0.103896579936  15.596816000494  25.099239997722 # h*
  815 155   7   0.4238  -0.433653420394  15.477316000678  23.597339997417 # h*
  816 155   6  -0.8476  -0.711453419608  15.839315999051  24.514940001623 # o*
  817 156   7   0.4238  -9.202385419851  17.345915999860  23.599539998002 # h*
  818 156   7   0.4238 -10.515113419650  18.306615999871  23.870740000450 # h*
  819 156   6  -0.8476 -10.027463418461  17.794715999560  23.148540000244 # o*
  820 157   7   0.4238   7.093216581709   5.747775999602  51.852139996325 # h*
  821 157   7   0.4238   7.954516579595   4.377966000574  52.122139998959 # h*
  822 157   6  -0.8476   7.666416579891   5.265686000450  52.573540000357 # o*
  823 158   7   0.4238   6.764716581052   5.942285999490  42.250439999320 # h*
  824 158   7   0.4238   7.845716579816   4.772415999775  42.078639999071 # h*
  825 158   6  -0.8476   6.932316580660   5.039665999659  41.758639996771 # o*
  826 159   7   0.4238  -5.764763419905  10.074036000218  31.994539998988 # h*
  827 159   7   0.4238  -4.391853420272   9.226596000126  32.096939997947 # h*
  828 159   6  -0.8476  -4.840873417953  10.058605999334  32.412340000033 # o*
  829 160   7   0.4238   4.932360000458  14.402915999870  47.587939998288 # h*
  830 160   7   0.4238   5.481879999884  15.004716000824  48.887240001261 # h*
  831 160   6  -0.8476   4.613640001168  14.594515999932  48.533240000521 # o*
  832 161   7   0.4238   7.562329999965  13.255215999984  27.189739998552 # h*
  833 161   7   0.4238   8.505770000549  12.723716000094  25.967540001693 # h*
  834 161   6  -0.8476   8.014370000092  12.440215999471  26.809239999600 # o*
  835 162   7   0.4238   3.394216579685   5.586326000276  21.950840000056 # h*
  836 162   7   0.4238   2.785816580712   7.002356000673  21.755640000652 # h*
  837 162   6  -0.8476   2.551416580745   6.013926000090  21.616339997687 # o*
  838 163   7   0.4238 -10.354473418883  16.654816000475  28.214239999633 # h*
  839 163   7   0.4238   9.372920000341  15.669415999788  27.387039996242 # h*
  840 163   6  -0.8476   9.815140000426  15.811715999797  28.309539996451 # o*
  841 164   7   0.4238   0.391936581605   4.262365999296  34.033640001294 # h*
  842 164   7   0.4238  -0.004173420720   5.274976000874  32.750439996292 # h*
  843 164   6  -0.8476   0.537696581354   4.487836000388  33.034939998996 # o*
  844 165   7   0.4238   3.732816580291   4.633205999696  37.340239997612 # h*
  845 165   7   0.4238   5.119116581408   5.335865999581  37.830239997663 # h*
  846 165   6  -0.8476   4.526716581087   4.541166000295  37.993639999212 # o*
  847 166   7   0.4238  14.871780001010   8.507285999891  42.837939996774 # h*
  848 166   7   0.4238  -4.714293419381   7.732735999882  41.749140000555 # h*
  849 166   6  -0.8476  15.410090000880   7.656645999183  42.624740000156 # o*
  850 167   7   0.4238   0.231776579777   9.121786000143  55.361340001082 # h*
  851 167   7   0.4238  -0.890333419298   9.259015999073  54.189839997764 # h*
  852 167   6  -0.8476   0.081526581224   9.059105999777  54.361839997057 # o*
  853 168   7   0.4238   1.685016581876  15.017515999560  51.742039998094 # h*
  854 168   7   0.4238   1.410716581226  14.252216000574  53.267639998897 # h*
  855 168   6  -0.8476   1.673016579638  14.155616000389  52.267539997741 # o*
  856 169   7   0.4238  -6.879163419688  14.916215999752  36.588440000136 # h*
  857 169   7   0.4238  -5.834403418196  14.841115999628  37.807839999279 # h*
  858 169   6  -0.8476  -6.557383418164  14.310715999135  37.315639998643 # o*
  859 170   7   0.4238  16.003760000490   0.962320999773  39.219039997427 # h*
  860 170   7   0.4238  14.770830001295   1.004562999578  40.322640000610 # h*
  861 170   6  -0.8476  15.443189999861   1.597076000294  39.815439999520 # o*
  862 171   7   0.4238  12.393607000914   4.859455999378  25.932740001526 # h*
  863 171   7   0.4238  11.791219001370   5.336225999790  24.560739999162 # h*
  864 171   6  -0.8476  12.594133001809   4.801065999639  24.924739996503 # o*
  865 172   7   0.4238  10.287070001036   5.030236000395  27.140639997359 # h*
  866 172   7   0.4238   9.268060000283   6.183866000619  27.489940001139 # h*
  867 172   6  -0.8476   9.296459999463   5.208176000600  27.317239996865 # o*
  868 173   7   0.4238   4.128416581493  10.743215999298  40.814840001246 # h*
  869 173   7   0.4238   3.561216580361  10.455315999226  42.298840001083 # h*
  870 173   6  -0.8476   3.270916581332  10.722615999760  41.360439996394 # o*
  871 174   7   0.4238  12.500452000852   1.475175999085  36.214839998728 # h*
  872 174   7   0.4238  11.763355000063   0.799092999538  37.442840001168 # h*
  873 174   6  -0.8476  11.808851000754   0.766760000455  36.419439997603 # o*
  874 175   7   0.4238  17.447640001201   0.793043999815  51.136739996916 # h*
  875 175   7   0.4238  18.471839999758   0.338975000844  52.302940000591 # h*
  876 175   6  -0.8476  18.078370000042   1.157377000350  51.854040001120 # o*
  877 176   7   0.4238  -5.165023419239  15.371315999384  28.123440000729 # h*
  878 176   7   0.4238  -5.472443418549  14.034915999877  27.352339998374 # h*
  879 176   6  -0.8476  -5.813393419003  14.585715999170  28.150839997414 # o*
  880 177   7   0.4238   1.577716581326  14.426415999850  29.053339998868 # h*
  881 177   7   0.4238   2.454969999842  15.528316000475  28.297739997352 # h*
  882 177   6  -0.8476   2.125216580162  14.561515999406  28.207339996536 # o*
  883 178   7   0.4238   2.441416580808  12.252215999636  48.273540001383 # h*
  884 178   7   0.4238   1.137986581612  11.438515999258  47.894940001674 # h*
  885 178   6  -0.8476   1.947416580835  11.886416000299  47.432539997352 # o*
  886 179   7   0.4238  15.603520001296   4.829285999874  23.832639996630 # h*
  887 179   7   0.4238  14.018430001482   4.509805999479  24.065339997171 # h*
  888 179   6  -0.8476  14.881140000500   4.116725999831  23.636840000095 # o*
  889 180   7   0.4238  14.316240000058   5.637416000124  34.691739999853 # h*
  890 180   7   0.4238  12.762749999715   5.653766000300  34.783239998185 # h*
  891 180   6  -0.8476  13.545120001916   4.999035999051  34.758740001514 # o*
  892 181   7   0.4238  -4.756813418128  10.016755999260  47.804639997604 # h*
  893 181   7   0.4238  -3.441893418765  10.926016000462  48.185239998853 # h*
  894 181   6  -0.8476  -4.390853420165  10.718516000486  48.494140001483 # o*
  895 182   7   0.4238   5.924216579911   7.849856000800  37.515040000174 # h*
  896 182   7   0.4238   5.427716581166   7.665466000577  38.960039997717 # h*
  897 182   6  -0.8476   5.112416581246   7.517855999348  38.020740000108 # o*
  898 183   7   0.4238  -0.889133419289  13.779716000157  45.186539998841 # h*
  899 183   7   0.4238  -2.015053419814  14.773315999394  45.767539996839 # h*
  900 183   6  -0.8476  -1.784183418356  13.782115999687  45.647239997411 # o*
  901 184   7   0.4238   4.007670000588  12.162116000120  27.693739998287 # h*
  902 184   7   0.4238   3.428850000845  13.679815999919  27.764440001689 # h*
  903 184   6  -0.8476   4.315090001388  13.127116000144  27.757239997251 # o*
  904 185   7   0.4238  -7.366653420482  11.569316000665  29.115139997632 # h*
  905 185   7   0.4238  11.844803001120  11.050915999686  28.791639998188 # h*
  906 185   6  -0.8476  12.794252001261  10.724216000068  28.840840001679 # o*
  907 186   7   0.4238  15.358090000553   5.309885999404  27.971440000192 # h*
  908 186   7   0.4238  14.819110001875   3.816135999845  28.334140000973 # h*
  909 186   6  -0.8476  15.531760001589   4.533845999772  28.590839997800 # o*
  910 187   7   0.4238  -1.827553418965   6.170165999497  34.170739998122 # h*
  911 187   7   0.4238  -1.442543419754   7.642015999385  33.563440000955 # h*
  912 187   6  -0.8476  -1.610343419497   6.638566000640  33.310339998018 # o*
  913 188   7   0.4238  -5.711013420055   9.779635999478  24.969439996526 # h*
  914 188   7   0.4238  -4.388783418112   9.477865999428  24.151839997202 # h*
  915 188   6  -0.8476  -5.376813417856   9.191695999118  24.229040000061 # o*
  916 189   7   0.4238  -5.675723419198  15.912916000168  47.092339997253 # h*
  917 189   7   0.4238  -6.431973418714  14.489015999549  47.340140000547 # h*
  918 189   6  -0.8476  -6.514583419796  15.408516000485  46.880340000449 # o*
  919 190   7   0.4238   6.316416580211   0.477250000690  48.865839998095 # h*
  920 190   7   0.4238   7.157216581696   0.960368999136  47.599039997958 # h*
  921 190   6  -0.8476   6.161916580270   0.849070999238  47.929839998587 # o*
  922 191   7   0.4238   7.618330000588  13.430916000130  47.203039998166 # h*
  923 191   7   0.4238   7.642670001521  14.607415999968  46.033240000601 # h*
  924 191   6  -0.8476   7.535060000165  14.416515999692  47.043139999315 # o*
  925 192   7   0.4238  14.272990001187   3.188365999963  37.097540000470 # h*
  926 192   7   0.4238  13.449339999695   3.600026000460  35.702039996653 # h*
  927 192   6  -0.8476  13.730950000536   2.827476000370  36.331640001011 # o*
  928 193   7   0.4238  -5.464573418495  10.618316000074  35.546539998972 # h*
  929 193   7   0.4238  -5.328223419210  10.205565999565  34.040239997496 # h*
  930 193   6  -0.8476  -5.613213418227   9.855225999265  34.936239999493 # o*
  931 194   7   0.4238  11.608771001341  12.911815999366  21.977339998268 # h*
  932 194   7   0.4238  10.886300000457  14.409515999976  22.016840000946 # h*
  933 194   6  -0.8476  10.782470001005  13.448416000353  22.336439999606 # o*
  934 195   7   0.4238  -8.060470420071  17.604916000544  50.710039996786 # h*
  935 195   7   0.4238  -6.759123418963  17.592016000507  51.587740000227 # h*
  936 195   6  -0.8476  -7.769982419896  17.650916000543  51.711039996414 # o*
  937 196   7   0.4238  14.713616383690   0.057807372530  43.566239998350 # h*
  938 196   7   0.4238   3.815070000438  17.759615999678  43.236839996580 # h*
  939 196   6  -0.8476   2.788180001048  17.777215999338  43.179639998029 # o*
  940 197   7   0.4238   7.616360000162   8.881895999374  37.656039997786 # h*
  941 197   7   0.4238   7.147859999839   9.450136000719  36.278639999034 # h*
  942 197   6  -0.8476   7.266120000282   8.576935999956  36.745339996676 # o*
  943 198   7   0.4238  -2.574843420750  10.091686000528  22.481940000687 # h*
  944 198   7   0.4238  -1.478143418354  10.385715999811  23.717439997801 # h*
  945 198   6  -0.8476  -2.316113419623  10.714216000473  23.267940001199 # o*
  946 199   7   0.4238   3.846420001233  12.874616000128  23.903840000417 # h*
  947 199   7   0.4238   2.614616580194  13.832715999872  23.921539996290 # h*
  948 199   6  -0.8476   2.914816579847  12.934215999949  23.519839998768 # o*
  949 200   7   0.4238  15.854100001865   0.860992999452  32.036940001680 # h*
  950 200   7   0.4238  15.427880000405   2.309975999913  31.594439999368 # h*
  951 200   6  -0.8476  15.846040001332   1.466985999920  31.196939998420 # o*
  952 201   7   0.4238   1.946916580400   1.034449000532  50.354139996803 # h*
  953 201   7   0.4238   1.068086581105   0.927361999414  48.981240001520 # h*
  954 201   6  -0.8476   1.905016580072   1.346765999687  49.383139998085 # o*
  955 202   7   0.4238  15.715730000860   2.535315999688  49.536940001120 # h*
  956 202   7   0.4238  14.341380000692   2.450546000161  50.368739999171 # h*
  957 202   6  -0.8476  15.120840001278   1.878955999977  50.037239999114 # o*
  958 203   7   0.4238   8.448516581004   1.122277999288  53.279239998952 # h*
  959 203   7   0.4238  -4.206803419911  18.280316000751  52.749440000434 # h*
  960 203   6  -0.8476   8.307616581227   0.578831999544  52.401040000679 # o*
  961 204   7   0.4238   5.245380001173  15.270015999576  44.660939996896 # h*
  962 204   7   0.4238   4.288630001370  15.768916000414  45.922039999302 # h*
  963 204   6  -0.8476   4.445670001382  15.029016000026  45.220940000920 # o*
  964 205   7   0.4238  -2.498983418583   7.226066000123  35.674639999969 # h*
  965 205   7   0.4238  -3.221813419241   5.810255999232  35.898739997213 # h*
  966 205   6  -0.8476  -2.304203418081   6.257115999048  35.866839997060 # o*
  967 206   7   0.4238   5.771149999808  17.341216000236  33.602439997695 # h*
  968 206   7   0.4238   5.814109999715  16.628716000229  32.035639999568 # h*
  969 206   6  -0.8476   6.253830000494  17.226815999655  32.710639997825 # o*
  970 207   7   0.4238  -1.725153420375  18.344216000584  33.173440000234 # h*
  971 207   7   0.4238  -3.283693418346  18.336815999393  32.911739999554 # h*
  972 207   6  -0.8476  -2.586703420106  18.038215999941  33.610839996395 # o*
  973 208   7   0.4238  -2.749773419389  10.705216000838  41.993739996940 # h*
  974 208   7   0.4238  -3.267753419049  10.253015999785  40.483840001575 # h*
  975 208   6  -0.8476  -3.233893419878   9.996176000355  41.499039999930 # o*
  976 209   7   0.4238  11.184555001882   7.404045999730  24.661139996580 # h*
  977 209   7   0.4238   9.882580000577   6.608215999168  25.233440000089 # h*
  978 209   6  -0.8476  10.644270000942   6.545825999590  24.573339999988 # o*
  979 210   7   0.4238  -9.251909418186  15.993815999312  45.437839999279 # h*
  980 210   7   0.4238  10.628790001277  14.517916000800  45.219940000150 # h*
  981 210   6  -0.8476  -9.549720418412  15.300515999271  44.790340000005 # o*
  982 211   7   0.4238   2.671916581145   2.024435999969  24.725840000911 # h*
  983 211   7   0.4238   1.164646581201   2.384755999231  24.562439999362 # h*
  984 211   6  -0.8476   1.764016580266   1.611736000110  24.740739999068 # o*
  985 212   7   0.4238   2.557040000838  17.240015999865  47.878240001020 # h*
  986 212   7   0.4238   1.460300001364  16.051415999214  47.844939996456 # h*
  987 212   6  -0.8476   1.652000001017  17.003515999201  48.202740001235 # o*
  988 213   7   0.4238   0.799100001888  17.785115999576  40.564139997939 # h*
  989 213   7   0.4238   1.924400000489  18.008416000030  41.625039997088 # h*
  990 213   6  -0.8476   1.545500000574  18.455315999249  40.796839998480 # o*
  991 214   7   0.4238  10.265716580811   1.568045999589  35.672639998427 # h*
  992 214   7   0.4238   8.705716581303   1.948666000077  35.376339996624 # h*
  993 214   6  -0.8476   9.657916579323   2.330736000786  35.331739998899 # o*
  994 215   7   0.4238  13.604760000721   8.294776000733  36.850539998903 # h*
  995 215   7   0.4238  12.387883001068   8.143116000879  35.785039999540 # h*
  996 215   6  -0.8476  12.639949001291   8.622645999166  36.649939997559 # o*
  997 216   7   0.4238   7.708616581979   3.937065999249  22.890639998050 # h*
  998 216   7   0.4238   6.621916581417   5.080585999193  23.141239999060 # h*
  999 216   6  -0.8476   7.546016581421   4.770475999891  23.489439999771 # o*
 1000 217   7   0.4238   0.957336580596   8.356136000333  23.449140000919 # h*
 1001 217   7   0.4238   0.371176580718   7.041375999726  24.147140000243 # h*
 1002 217   6  -0.8476   0.324016580973   7.579226000196  23.268239996988 # o*
 1003 218   7   0.4238 -10.567173418877  16.671016000564  22.178039996358 # h*
 1004 218   7   0.4238   9.017460000798  16.148715999184  21.198539996641 # h*
 1005 218   6  -0.8476   9.970350000921  15.953815999070  21.464639998491 # o*
 1006 219   7   0.4238   6.858116580166   0.374522999619  22.818339996746 # h*
 1007 219   7   0.4238   5.745316581105   1.121525999349  21.843439997243 # h*
 1008 219   6  -0.8476   6.475716581716   0.410859999412  21.869339998325 # o*
 1009 220   7   0.4238  -2.202543419759  16.306915999108  42.184939998814 # h*
 1010 220   7   0.4238  -2.118383419504  14.672615999935  42.066939996717 # h*
 1011 220   6  -0.8476  -1.557053418976  15.545216000349  42.083439998328 # o*
 1012 221   7   0.4238  -6.221323420254  13.050016000101  49.049140001654 # h*
 1013 221   7   0.4238  -5.235413420318  12.194816000472  48.116839998334 # h*
 1014 221   6  -0.8476  -5.875633418815  12.972615999883  48.086439999337 # o*
 1015 222   7   0.4238   5.071316581003   9.198805999519  47.535439996696 # h*
 1016 222   7   0.4238   5.214040001511  10.609415999876  48.158639998343 # h*
 1017 222   6  -0.8476   5.670589999865  10.020346000102  47.466939999431 # o*
 1018 223   7   0.4238  13.191350001829   5.424175999300  46.287640000097 # h*
 1019 223   7   0.4238  14.079780000717   5.455995999762  44.887939999707 # h*
 1020 223   6  -0.8476  13.413090001689   4.903265999969  45.438339999665 # o*
 1021 224   7   0.4238  12.201962001569   2.669445999302  54.842239998594 # h*
 1022 224   7   0.4238  10.641999999838   2.524955999885  54.496239998467 # h*
 1023 224   6  -0.8476  11.527750001848   2.052935999746  54.429539998147 # o*
 1024 225   7   0.4238  -0.095323419897  11.126616000158  50.340439998461 # h*
 1025 225   7   0.4238   0.269996581945  12.464715999410  49.644440000678 # h*
 1026 225   6  -0.8476  -0.018503418580  11.533115999523  49.381139996544 # o*
 1027 226   7   0.4238  12.410796383264   0.138107373189  23.086039996498 # h*
 1028 226   7   0.4238  -1.112213419895  17.889415999263  23.556939996266 # h*
 1029 226   6  -0.8476  11.368732965254   0.130307372387  23.135639998076 # o*
 1030 227   7   0.4238  -0.146053420508   9.975856000358  30.967939999620 # h*
 1031 227   7   0.4238  -1.020303419212   8.698895999337  31.242639999213 # h*
 1032 227   6  -0.8476  -0.812023420044   9.373216000780  30.522039996908 # o*
 1033 228   7   0.4238  14.729479999767   6.665556000161  39.780440000309 # h*
 1034 228   7   0.4238  15.350530000963   5.293096000215  39.178639996276 # h*
 1035 228   6  -0.8476  14.813850001017   5.655406000010  39.937839997234 # o*
 1036 229   7   0.4238   9.545516581006   3.579096000731  28.306239998350 # h*
 1037 229   7   0.4238   9.217716580298   3.248646000799  29.909940000484 # h*
 1038 229   6  -0.8476   9.525816580134   2.834455999454  29.010640000386 # o*
 1039 230   7   0.4238  -0.458723418079  17.920815999481  50.025139998673 # h*
 1040 230   7   0.4238   0.713300000598  18.363816000162  49.021540000373 # h*
 1041 230   6  -0.8476  12.217496383727   0.095807372853  49.656639997864 # o*
 1042 231   7   0.4238   8.904920001008  15.163916000708  47.412039998211 # h*
 1043 231   7   0.4238  10.181240001332  14.572115999349  48.089440001649 # h*
 1044 231   6  -0.8476   9.892459999914  15.400316000072  47.599839999685 # o*
 1045 232   7   0.4238  -8.400492420002  14.472716000023  26.343440000431 # h*
 1046 232   7   0.4238  -7.226243420328  15.048416000730  27.170839997312 # h*
 1047 232   6  -0.8476  -7.992461419788  15.371816000295  26.553039997606 # o*
 1048 233   7   0.4238  -3.688433418114  10.755815999160  33.621739997022 # h*
 1049 233   7   0.4238  -3.551223419295  11.160916000818  35.180939998177 # h*
 1050 233   6  -0.8476  -3.042903419371  11.156716000243  34.275039996324 # o*
 1051 234   7   0.4238   7.934610001605   7.293425999480  35.492939999864 # h*
 1052 234   7   0.4238   8.032980000301   8.068076000789  34.021339996257 # h*
 1053 234   6  -0.8476   8.254910001715   7.220435999960  34.544539998573 # o*
 1054 235   7   0.4238  -0.010013418849   8.978846000383  28.829339998368 # h*
 1055 235   7   0.4238  -0.091733420535   9.491016000851  27.331839999233 # h*
 1056 235   6  -0.8476   0.509536579827   8.936576000065  27.946239998540 # o*
 1057 236   7   0.4238   1.466316580816   4.607906000535  36.168540000804 # h*
 1058 236   7   0.4238   2.885016580033   4.797375999360  35.321039997316 # h*
 1059 236   6  -0.8476   2.413216580610   4.975096000058  36.229339998798 # o*
 1060 237   7   0.4238   4.168516581661   1.719315999216  46.843640001039 # h*
 1061 237   7   0.4238   3.356816581057   1.930436000052  48.226640000775 # h*
 1062 237   6  -0.8476   3.670716579214   2.413896000621  47.398840000254 # o*
 1063 238   7   0.4238  -5.056573418550  17.497416000242  50.390639997170 # h*
 1064 238   7   0.4238   7.516882964819   0.257307372830  51.216939996535 # h*
 1065 238   6  -0.8476  -5.337653419899  18.489516000472  50.516940001222 # o*
 1066 239   7   0.4238   1.031776579527   8.618716000611  42.677440000792 # h*
 1067 239   7   0.4238  -0.229063419803   8.643696000829  43.680840000049 # h*
 1068 239   6  -0.8476   0.756096580420   8.940016000820  43.600039997747 # o*
 1069 240   7   0.4238  16.525010001214   0.485413000026  29.601839999582 # h*
 1070 240   7   0.4238  17.508170001227   0.345760999566  28.388639998554 # h*
 1071 240   6  -0.8476   4.779280001083  18.432415999618  29.033039998770 # o*
 1072 241   7   0.4238   4.032410001968  18.460215999609  34.285939996950 # h*
 1073 241   7   0.4238  16.137530000791   1.484525999545  34.036540001308 # h*
 1074 241   6  -0.8476  15.688140000603   0.577976999979  33.848040000404 # o*
 1075 242   7   0.4238   0.584406579766   0.810980000042  38.204440001755 # h*
 1076 242   7   0.4238   1.644416580760   1.223515999557  39.189339997859 # h*
 1077 242   6  -0.8476   0.679796579413   0.985724000503  39.207639996415 # o*
 1078 243   7   0.4238  11.355330001501   6.132245999842  41.697039997050 # h*
 1079 243   7   0.4238  10.806690000351   6.806786000791  43.023639999962 # h*
 1080 243   6  -0.8476  11.046470000509   7.033406000067  42.062439998801 # o*
 1081 244   7   0.4238  12.247875000621   4.215466000637  41.520840001184 # h*
 1082 244   7   0.4238  13.029208000712   5.001535999881  40.291339997588 # h*
 1083 244   6  -0.8476  12.090131321216   4.767226000488  40.661140000510 # o*
 1084 245   7   0.4238  -4.027453419361  16.856616000869  48.317339997380 # h*
 1085 245   7   0.4238  -3.742773419939  17.228815999574  46.846839996842 # h*
 1086 245   6  -0.8476  -4.217983419569  16.521215999927  47.404440001238 # o*
 1087 246   7   0.4238  12.683168000613  10.431115999462  31.805839999041 # h*
 1088 246   7   0.4238  13.266970000840   9.864106000694  30.424239998163 # h*
 1089 246   6  -0.8476  13.319300000051   9.699366000700  31.406139997508 # o*
 1090 247   7   0.4238  14.222810000964   2.789205999890  47.490839998972 # h*
 1091 247   7   0.4238  13.387380000764   3.497895999549  46.283739999313 # h*
 1092 247   6  -0.8476  13.429940001727   2.662865999830  46.868240000008 # o*
 1093 248   7   0.4238  10.523170001300  11.800716000232  31.930939997725 # h*
 1094 248   7   0.4238  11.642675000868  12.842516000124  32.279339997481 # h*
 1095 248   6  -0.8476  11.501932001518  11.834816000154  32.222240001228 # o*
 1096 249   7   0.4238   7.087260001603  10.113195999973  32.460940000840 # h*
 1097 249   7   0.4238   8.212370000619   8.929045999420  32.277939998623 # h*
 1098 249   6  -0.8476   7.428960001712   9.212975999672  32.861839996635 # o*
 1099 250   7   0.4238   9.047770000930   5.728176000024  22.450339996323 # h*
 1100 250   7   0.4238  10.507420000025   5.619405999606  21.705840000030 # h*
 1101 250   6  -0.8476   9.516300001747   5.856735999510  21.555739998736 # o*
 1102 251   7   0.4238   6.193716579516   3.625156000765  40.515940000771 # h*
 1103 251   7   0.4238   5.242716579632   3.733696000428  39.250239998151 # h*
 1104 251   6  -0.8476   5.760716581501   3.039856000074  39.823940000518 # o*
 1105 252   7   0.4238  10.116040001346  12.162215999557  29.480340000340 # h*
 1106 252   7   0.4238   9.643910002031  12.205615999289  27.953939997811 # h*
 1107 252   6  -0.8476  10.461870001046  12.124515999408  28.533339997907 # o*
 1108 253   7   0.4238  11.062499999813   9.579275999920  36.569840000238 # h*
 1109 253   7   0.4238   9.644460000234   9.828545999303  37.338339998369 # h*
 1110 253   6  -0.8476  10.148149999919   9.996716000668  36.451440000054 # o*
 1111 254   7   0.4238   1.092599999837  17.056516000780  43.356739997921 # h*
 1112 254   7   0.4238  -0.305863418370  16.538415999975  42.895739998009 # h*
 1113 254   6  -0.8476   0.110216580839  17.317316000646  43.434440001165 # o*
 1114 255   7   0.4238  18.348700000745   2.289475999812  34.812840001008 # h*
 1115 255   7   0.4238  19.595500001242   1.583176000299  34.047640000978 # h*
 1116 255   6  -0.8476  19.298250000618   1.951536000501  34.951239999948 # o*
 1117 256   7   0.4238  -3.797153419300  14.879416000125  37.648339998515 # h*
 1118 256   7   0.4238  -2.536813420236  14.861516000292  36.555439996914 # h*
 1119 256   6  -0.8476  -3.192753419541  14.276915999386  37.060439997420 # o*
 1120 257   7   0.4238  -2.308163419465   5.211155999846  23.698240000772 # h*
 1121 257   7   0.4238  -0.804023419728   4.629095999173  23.629239997569 # h*
 1122 257   6  -0.8476  -1.767793418910   4.372576000550  23.882539999549 # o*
 1123 258   7   0.4238  -4.685883420064  13.197516000645  46.105240000563 # h*
 1124 258   7   0.4238  -3.392913419398  12.928015999454  45.248839997991 # h*
 1125 258   6  -0.8476  -4.338653420506  12.654816000464  45.320639998909 # o*
 1126 259   7   0.4238  -1.284543419119  18.161616000157  30.604439997112 # h*
 1127 259   7   0.4238  -0.272353419564  17.438615999643  29.463839998729 # h*
 1128 259   6  -0.8476  -1.015683418975  17.332015999864  30.125240000942 # o*
 1129 260   7   0.4238   2.638716579951   7.876645999584  53.039739997613 # h*
 1130 260   7   0.4238   1.131166581267   8.184895999670  53.520339998193 # h*
 1131 260   6  -0.8476   1.688716580307   7.620886000781  52.858640000191 # o*
 1132 261   7   0.4238  11.620178001572   7.696035999692  29.052039996755 # h*
 1133 261   7   0.4238  11.859210001229   6.854655999392  30.378039996984 # h*
 1134 261   6  -0.8476  12.291699000352   7.079886000345  29.486039998070 # o*
 1135 262   7   0.4238  18.998670000969   1.985105999495  27.937939996585 # h*
 1136 262   7   0.4238  17.576590001606   2.879915999139  27.981439996794 # h*
 1137 262   6  -0.8476  18.005230000649   2.026276000417  27.643439997280 # o*
 1138 263   7   0.4238   9.301820000849   3.996136000004  39.294540000087 # h*
 1139 263   7   0.4238  10.808890000921   4.656525999571  39.531840000841 # h*
 1140 263   6  -0.8476   9.936610000341   4.760855999274  39.046039997364 # o*
 1141 264   7   0.4238   3.842390001446  16.680715999985  35.504039999534 # h*
 1142 264   7   0.4238   5.382730000284  17.228616000700  35.822139997038 # h*
 1143 264   6  -0.8476   4.666440000986  17.099515999037  35.079439997690 # o*
 1144 265   7   0.4238   1.435716579261  15.420716000736  40.707139997092 # h*
 1145 265   7   0.4238   2.474760000612  15.151716000457  41.829439996919 # h*
 1146 265   6  -0.8476   1.443616580766  15.189215999869  41.679239998879 # o*
 1147 266   7   0.4238  -0.971483419562   5.686635999509  52.647439999562 # h*
 1148 266   7   0.4238   0.468146580961   6.295935999227  52.528039998607 # h*
 1149 266   6  -0.8476  -0.032443420660   5.400746000604  52.422139996950 # o*
 1150 267   7   0.4238   5.793916579798   9.559715999744  29.452340000972 # h*
 1151 267   7   0.4238   5.612010000342  10.222615999526  30.935539999082 # h*
 1152 267   6  -0.8476   5.126316581762   9.832665999211  30.144939998356 # o*
 1153 268   7   0.4238  -1.328473420471  11.708416000059  48.248239997432 # h*
 1154 268   7   0.4238  -1.754053418242  12.278015999709  46.733839998598 # h*
 1155 268   6  -0.8476  -1.883103419655  11.513416000508  47.406539999525 # o*
 1156 269   7   0.4238   6.922316579609   1.807936000358  43.171340001627 # h*
 1157 269   7   0.4238   6.258116580880   1.031923000556  41.829539999217 # h*
 1158 269   6  -0.8476   7.063016581285   1.178544000031  42.421739999183 # o*
 1159 270   7   0.4238   5.690416581546   2.047915999316  32.236940000341 # h*
 1160 270   7   0.4238   6.690716580013   3.179636000484  32.042539997112 # h*
 1161 270   6  -0.8476   5.870516581645   2.951475999072  32.601840001707 # o*
 1162 271   7   0.4238   5.205416580558   2.387925999829  28.822739996614 # h*
 1163 271   7   0.4238   6.619916581012   2.214636000460  28.161439996699 # h*
 1164 271   6  -0.8476   5.628116580326   2.057046000269  27.979440000805 # o*
 1165 272   7   0.4238  -7.693818419460  18.614316000259  39.896940001251 # h*
 1166 272   7   0.4238  -6.681253418616  17.674015999048  40.826940001687 # h*
 1167 272   6  -0.8476  -7.138623418770  18.593015999072  40.752439999798 # o*
 1168 273   7   0.4238   6.795220001609  14.473815999419  33.887739996574 # h*
 1169 273   7   0.4238   5.437120001254  14.493516000298  32.971839998119 # h*
 1170 273   6  -0.8476   5.948100001810  13.905315999166  33.611540001377 # o*
 1171 274   7   0.4238   8.006640000081  17.993116000464  45.486740001428 # h*
 1172 274   7   0.4238  20.325626383561   0.454407373600  44.228640001334 # h*
 1173 274   6  -0.8476   7.653130001582  18.196515999302  44.551039997709 # o*
 1174 275   7   0.4238   3.524050001026  17.660216000352  28.449640001144 # h*
 1175 275   7   0.4238   2.220740000454  17.659916000178  27.425839999492 # h*
 1176 275   6  -0.8476   2.670410002398  17.140215999065  28.188639999893 # o*
 1177 276   7   0.4238   5.175916579960   5.278836000010  50.672040000816 # h*
 1178 276   7   0.4238   5.389016580263   6.743926000320  51.167939997640 # h*
 1179 276   6  -0.8476   5.919816579996   5.961515999475  50.761539997607 # o*
 1180 277   7   0.4238   1.247416580260  10.610316000398  44.248839999133 # h*
 1181 277   7   0.4238   1.734816581513  11.758716000070  45.457940000333 # h*
 1182 277   6  -0.8476   1.201006580377  11.592615999907  44.609640000671 # o*
 1183 278   7   0.4238  -5.178333418038  17.749415999346  35.581640000480 # h*
 1184 278   7   0.4238  -3.640363419510  17.616715999320  35.404540000589 # h*
 1185 278   6  -0.8476  -4.295583420169  17.753216000310  36.142039997039 # o*
 1186 279   7   0.4238   6.368889999907  12.719115999908  49.585740000971 # h*
 1187 279   7   0.4238   4.829030000611  12.620215999630  49.366140001641 # h*
 1188 279   6  -0.8476   5.643410000930  12.009915999953  49.464839998859 # o*
 1189 280   7   0.4238   1.054536580826   4.386365999861  51.630639997752 # h*
 1190 280   7   0.4238   1.170336580529   3.099075999053  50.788240000416 # h*
 1191 280   6  -0.8476   1.533516581697   3.476305999437  51.628039999080 # o*
 1192 281   7   0.4238  14.404680002190   9.319915999027  22.368739997846 # h*
 1193 281   7   0.4238  13.524760001487   8.527545999852  21.199739996456 # h*
 1194 281   6  -0.8476  13.789760000829   9.444975999586  21.555840001034 # o*
 1195 282   7   0.4238   4.504216580411   2.141266000098  54.063840000607 # h*
 1196 282   7   0.4238   5.781016580410   2.679805999106  54.673839998744 # h*
 1197 282   6  -0.8476   5.212416579582   1.883396000691  54.796339998756 # o*
 1198 283   7   0.4238   4.544316580383   3.928285999120  33.462039997214 # h*
 1199 283   7   0.4238   3.763516580652   5.382355999243  33.914240000339 # h*
 1200 283   6  -0.8476   3.721316581379   4.372415999215  33.869840001657 # o*
 1201 284   7   0.4238  12.601558000125   1.950125999683  51.304639996381 # h*
 1202 284   7   0.4238  11.761860999750   3.356456000660  50.942239996942 # h*
 1203 284   6  -0.8476  12.630404001790   2.961075999055  51.336639998832 # o*
 1204 285   7   0.4238  12.580869000062  10.969416000194  46.643039999695 # h*
 1205 285   7   0.4238  -7.253663419917  12.352515999485  46.988840000778 # h*
 1206 285   6  -0.8476  12.473545001176  11.991916000682  46.791539997534 # o*
 1207 286   7   0.4238  -0.942203419364  17.172815999980  51.672639996804 # h*
 1208 286   7   0.4238  -0.108463419942  16.099816000606  50.987840000990 # h*
 1209 286   6  -0.8476  -1.094463417956  16.367115999277  51.084539996666 # o*
 1210 287   7   0.4238  10.215500001228   4.858755999593  37.332739997385 # h*
 1211 287   7   0.4238  10.204690000914   3.855196000163  36.011940000054 # h*
 1212 287   6  -0.8476  10.544510000641   4.786976000154  36.395139999975 # o*
 1213 288   7   0.4238  11.246567001432  11.281116000419  35.684739998868 # h*
 1214 288   7   0.4238  11.865826000221  11.717815999305  34.230339996301 # h*
 1215 288   6  -0.8476  12.073893000478  11.626216000782  35.227739996486 # o*
 1216 289   7   0.4238   9.460110001223  10.572415999512  22.770739996710 # h*
 1217 289   7   0.4238   8.062140001767  11.023415999868  23.437139997223 # h*
 1218 289   6  -0.8476   8.701420001680  10.235115999951  23.367639999188 # o*
 1219 290   7   0.4238   3.232916579116   8.942016000739  22.718539996459 # h*
 1220 290   7   0.4238   3.292016580708   9.382036000311  24.326039997080 # h*
 1221 290   6  -0.8476   2.665016581203   9.195595999519  23.520640000495 # o*
 1222 291   7   0.4238  -6.345043418795  11.377515999866  53.142840001554 # h*
 1223 291   7   0.4238  -5.837153418449  12.992815999810  53.174440000365 # h*
 1224 291   6  -0.8476  -5.763983419317  12.115515999772  52.688639996887 # o*
 1225 292   7   0.4238  -1.645083418981   7.095275999964  44.575139996293 # h*
 1226 292   7   0.4238  -2.266133417984   5.608935999117  44.791439997521 # h*
 1227 292   6  -0.8476  -2.118263418183   6.495255999422  45.270039996560 # o*
 1228 293   7   0.4238   4.858716579774  10.032885999929  35.378940000849 # h*
 1229 293   7   0.4238   3.412516580964   9.750235999179  34.852440000432 # h*
 1230 293   6  -0.8476   4.349316580766   9.338235999105  34.827039999735 # o*
 1231 294   7   0.4238   4.732116581447   5.221455999615  42.000739996783 # h*
 1232 294   7   0.4238   4.134216581063   5.530476000769  43.472640001731 # h*
 1233 294   6  -0.8476   4.229016579973   4.798065999760  42.762740001009 # o*
 1234 295   7   0.4238   8.109190000470  13.061415999266  51.480240000669 # h*
 1235 295   7   0.4238   9.558030000670  13.263016000785  50.775339998248 # h*
 1236 295   6  -0.8476   8.820039999787  12.574116000194  50.955739996240 # o*
 1237 296   7   0.4238  -9.431200418782  15.583616000283  36.813739997195 # h*
 1238 296   7   0.4238 -10.206743418021  15.725115999207  38.223339997441 # h*
 1239 296   6  -0.8476  10.353100000923  15.384515999594  37.288640000046 # o*
 1240 297   7   0.4238   8.656490001044  10.735016000749  34.358140001509 # h*
 1241 297   7   0.4238   8.421350001513  12.162515999731  35.065739999348 # h*
 1242 297   6  -0.8476   8.739220000634  11.728715999423  34.228840000698 # o*
 1243 298   7   0.4238   5.703016581326   0.961437999695  26.751439998365 # h*
 1244 298   7   0.4238   6.640616580942   0.939089000446  25.530739997110 # h*
 1245 298   6  -0.8476   5.706316580010   0.652219000351  25.768539998250 # o*
 1246 299   7   0.4238   1.992916579786  14.967116000112  35.663540000298 # h*
 1247 299   7   0.4238   1.869700000746  16.503316000093  35.958639996735 # h*
 1248 299   6  -0.8476   2.544600001537  15.726715999515  35.907739998597 # o*
 1249 300   7   0.4238  14.572080000388   9.118636000178  40.037139997136 # h*
 1250 300   7   0.4238  -4.666853419324   8.957256000271  39.681839999837 # h*
 1251 300   6  -0.8476  -5.457633419403   8.359916000664  39.879139997527 # o*
 1252 301   7   0.4238  -7.204143419670  15.106016000632  30.445539999031 # h*
 1253 301   7   0.4238  -7.986436418473  16.561015999432  30.513540001463 # h*
 1254 301   6  -0.8476  -7.560983419209  15.810715999838  31.039040001109 # o*
 1255 302   7   0.4238  -6.990653419885  18.221215999978  45.895839996879 # h*
 1256 302   7   0.4238   4.171216579777   0.294919400383  44.901040000919 # h*
 1257 302   6  -0.8476  -7.931262419549  18.604115999927  45.833139999642 # o*
 1258 303   7   0.4238   6.110560000786  18.173715999108  41.991939999995 # h*
 1259 303   7   0.4238   6.273220000571  17.810716000775  43.573140001447 # h*
 1260 303   6  -0.8476   5.589700000938  17.860915999486  42.818540000702 # o*
 1261 304   7   0.4238  -1.425003419422  13.308016000825  39.763739999655 # h*
 1262 304   7   0.4238  -2.192353420429  13.390116000666  38.286839996405 # h*
 1263 304   6  -0.8476  -1.343123418320  13.208015999288  38.758539997900 # o*
 1264 305   7   0.4238   9.061870000194  15.905616000278  31.457740000627 # h*
 1265 305   7   0.4238   8.328600000998  16.722815999583  32.551439998402 # h*
 1266 305   6  -0.8476   9.270670000933  16.538215999238  32.229940000499 # o*
 1267 306   7   0.4238   7.511516580461   4.518925999184  30.284440000365 # h*
 1268 306   7   0.4238   8.345216581404   4.678815999469  31.602339997682 # h*
 1269 306   6  -0.8476   7.928216580362   3.952785999059  31.046139997697 # o*
 1270 307   7   0.4238  -0.013613419010   6.430916000576  39.258739999149 # h*
 1271 307   7   0.4238   1.424816581671   7.134985999417  38.915740001334 # h*
 1272 307   6  -0.8476   0.923206580645   6.552166000787  39.543739996686 # o*
 1273 308   7   0.4238   0.171736581335  12.435515999848  38.065740001473 # h*
 1274 308   7   0.4238   1.473016580245  12.055615999778  38.850539996618 # h*
 1275 308   6  -0.8476   1.138566582015  12.102715999173  37.890939998912 # o*
 1276 309   7   0.4238   0.367026580389   2.203745999728  44.226639999793 # h*
 1277 309   7   0.4238  -0.046243418733   2.360426000012  42.738239998786 # h*
 1278 309   6  -0.8476   0.216386579983   1.640556000694  43.370539998561 # o*
 1279 310   7   0.4238   2.389616580012   6.673186000243  36.635840001129 # h*
 1280 310   7   0.4238   3.518916579316   7.660016000519  37.508340001673 # h*
 1281 310   6  -0.8476   2.603516581356   7.562575999846  37.056439999890 # o*
 1282 311   7   0.4238   4.396316580981   3.388436000594  43.484739996620 # h*
 1283 311   7   0.4238   4.640416580473   2.557326000045  44.810839999146 # h*
 1284 311   6  -0.8476   4.190316580316   2.469305999252  43.929439999517 # o*
 1285 312   7   0.4238   9.244216580767   3.423356000371  50.775039996906 # h*
 1286 312   7   0.4238   8.416316580528   2.170876000519  51.295339999208 # h*
 1287 312   6  -0.8476   8.311516580188   3.164736000529  51.109140001188 # o*
 1288 313   7   0.4238  -1.920203420215   5.377045999887  47.648539997238 # h*
 1289 313   7   0.4238  -0.636033420052   4.720175999879  48.498440000354 # h*
 1290 313   6  -0.8476  -1.635603419484   4.682246000839  48.333639999948 # o*
 1291 314   7   0.4238   7.241416582154   3.210395999088  49.554239998905 # h*
 1292 314   7   0.4238   6.500816580284   2.679756000319  48.223439999419 # h*
 1293 314   6  -0.8476   6.911116580489   3.523825999076  48.635539997182 # o*
 1294 315   7   0.4238  12.888439000365   0.832157999791  39.815439999520 # h*
 1295 315   7   0.4238  11.897061001697   2.153745999891  39.677239999623 # h*
 1296 315   6  -0.8476  12.289749000800   1.372595999777  39.181939999930 # o*
 1297 316   7   0.4238   6.051070002218  12.246015999142  32.683940000569 # h*
 1298 316   7   0.4238   6.013120001937  12.217815999540  31.070339998579 # h*
 1299 316   6  -0.8476   6.242530001634  11.625415999696  31.900339999685 # o*
 1300 317   7   0.4238  -0.553593419355   3.414195999401  35.539640001428 # h*
 1301 317   7   0.4238  -0.720263418204   4.999035999051  36.019139998939 # h*
 1302 317   6  -0.8476  -0.055473418942   4.332165999448  35.639440001715 # o*
 1303 318   7   0.4238  -3.793703420614  16.522416000623  29.074440000692 # h*
 1304 318   7   0.4238  -2.820273418874  16.979015999262  30.297240000234 # h*
 1305 318   6  -0.8476  -3.688323418977  16.506516000709  30.113239997246 # o*
 1306 319   7   0.4238  18.197430000567   0.429729999188  24.225539997364 # h*
 1307 319   7   0.4238   4.825010000944  18.486115999119  23.213439998066 # h*
 1308 319   6  -0.8476   5.652600001267  18.190115999934  23.719839997429 # o*
 1309 320   7   0.4238   7.068270001393   7.498666000629  26.264039996987 # h*
 1310 320   7   0.4238   5.655416581558   7.025605999265  26.905940000829 # h*
 1311 320   6  -0.8476   6.606216579578   7.310126000480  27.160539999369 # o*
 1312 321   7   0.4238  -0.059613419717  15.282116000390  34.982739996461 # h*
 1313 321   7   0.4238  -0.181763419891  14.284115999840  33.702840000666 # h*
 1314 321   6  -0.8476   0.477016579912  14.834416000086  34.238040001125 # o*
 1315 322   7   0.4238  15.820699999972   5.617555999774  42.809239997977 # h*
 1316 322   7   0.4238  15.244020000595   5.043235999868  41.484039999476 # h*
 1317 322   6  -0.8476  15.582170000677   4.739766000073  42.403039996988 # o*
 1318 323   7   0.4238  -3.813413418756  10.954915999849  44.988240000379 # h*
 1319 323   7   0.4238  -2.637313418954  10.613515999150  46.003040000648 # h*
 1320 323   6  -0.8476  -3.201323419718  10.210115999101  45.274439997730 # o*
 1321 324   7   0.4238  10.948110001542  13.011715999603  25.902939999660 # h*
 1322 324   7   0.4238  11.466216000335  12.770215999141  27.321239999948 # h*
 1323 324   6  -0.8476  11.851931000761  12.932915999815  26.380339998884 # o*
 1324 325   7   0.4238  10.177380000522  13.465316000227  23.799639998961 # h*
 1325 325   7   0.4238   9.388729999660  14.399516000381  24.831539997971 # h*
 1326 325   6  -0.8476   9.627169999767  13.388216000184  24.685639998803 # o*
 1327 326   7   0.4238  -4.425673420006  18.368515999785  42.937139999930 # h*
 1328 326   7   0.4238  -4.946553418291  16.983915999623  43.548240001136 # h*
 1329 326   6  -0.8476  -4.082803419301  17.549515999435  43.486539999117 # o*
 1330 327   7   0.4238  14.563220000809   4.032365999300  31.349540001640 # h*
 1331 327   7   0.4238  15.702910000827   4.843726000183  30.352039999157 # h*
 1332 327   6  -0.8476  15.348409999837   4.674346000600  31.303840000847 # o*
 1333 328   7   0.4238   3.226516580568   7.876696000234  47.308639998481 # h*
 1334 328   7   0.4238   4.447516579989   6.736065999483  47.763139998936 # h*
 1335 328   6  -0.8476   3.989516581199   7.605146000338  47.942639998456 # o*
 1336 329   7   0.4238  12.980427001315   2.252295999344  27.884040001688 # h*
 1337 329   7   0.4238  14.109140000874   1.753595999243  28.988539997791 # h*
 1338 329   6  -0.8476  13.859250000052   2.496236000601  28.365439998443 # o*
 1339 330   7   0.4238 -10.245113420110  16.062416000631  50.471939999857 # h*
 1340 330   7   0.4238   9.946600001804  15.813115999368  51.909239998130 # h*
 1341 330   6  -0.8476   9.837820000605  15.449015999775  50.987340000604 # o*
 1342 331   7   0.4238  10.583089999796   7.475136000632  34.907139997056 # h*
 1343 331   7   0.4238  11.204675000466   6.086416000562  35.401539998277 # h*
 1344 331   6  -0.8476  11.438394001036   6.964095999578  34.924839998481 # o*
 1345 332   7   0.4238  14.997240000883   7.610645999184  33.177840001404 # h*
 1346 332   7   0.4238  14.475630000220   8.238326000878  34.626639997435 # h*
 1347 332   6  -0.8476  14.360140001622   7.484505999861  33.968539998876 # o*
 1348 333   7   0.4238   6.192516580035   0.950701999921  34.867940001272 # h*
 1349 333   7   0.4238   6.010116581542   2.559185999261  34.774239996802 # h*
 1350 333   6  -0.8476   6.527816581170   1.815455999755  35.233740001110 # o*
 1351 334   7   0.4238   8.272816580572   2.161685999532  41.074340001341 # h*
 1352 334   7   0.4238   9.650316579636   2.724186000028  41.633539998086 # h*
 1353 334   6  -0.8476   9.176216580615   2.511785999692  40.766539996228 # o*
 1354 335   7   0.4238  -9.266173420061  15.051116000434  39.830839998062 # h*
 1355 335   7   0.4238  -9.555427418166  16.298215999647  40.721040000031 # h*
 1356 335   6  -0.8476  -9.248348418993  16.055715999226  39.770239999112 # o*
 1357 336   7   0.4238  -8.418817418540  16.988515999809  26.696639999443 # h*
 1358 336   7   0.4238  -8.038566419894  18.386715999793  26.041839998985 # h*
 1359 336   6  -0.8476  -8.561007618170  17.991015999245  26.850640001522 # o*
 1360 337   7   0.4238   9.953910000846   8.694075999644  44.319440000237 # h*
 1361 337   7   0.4238   9.717690000351   8.142666000617  45.836239998700 # h*
 1362 337   6  -0.8476  10.356420000932   8.133565999682  45.035640001372 # o*
 1363 338   7   0.4238   7.064816579188   6.061066000751  28.707940001425 # h*
 1364 338   7   0.4238   7.726860000985   6.693765999148  30.175339997353 # h*
 1365 338   6  -0.8476   7.166816580172   5.954026000095  29.710140000867 # o*
 1366 339   7   0.4238   4.271516581464   4.706636000093  54.002139998588 # h*
 1367 339   7   0.4238   2.711216579299   4.482016000736  54.323340000702 # h*
 1368 339   6  -0.8476   3.625716580526   4.618866000687  54.755340000475 # o*
 1369 340   7   0.4238  -2.803223419220   6.484925999636  51.804639998586 # h*
 1370 340   7   0.4238  -2.544783418060   6.883605999430  53.371239997670 # h*
 1371 340   6  -0.8476  -2.776783418127   6.116475999381  52.715840000081 # o*
 1372 341   7   0.4238  -2.341343418668  14.984015999986  54.107539999859 # h*
 1373 341   7   0.4238  -2.535043420908  13.786216000825  53.069840000821 # h*
 1374 341   6  -0.8476  -3.031533419409  14.468716000185  53.589340001396 # o*
 1375 342   7   0.4238  -6.435763420496  12.167316000655  51.217939997306 # h*
 1376 342   7   0.4238  -7.972399418300  12.628215999306  50.759040001233 # h*
 1377 342   6  -0.8476  -7.009913419980  12.491115999831  50.433340001204 # o*
 1378 343   7   0.4238   8.719250000921   9.515045999896  52.906240000228 # h*
 1379 343   7   0.4238   7.664650000965   9.788665999130  51.744540000021 # h*
 1380 343   6  -0.8476   8.544479999956   9.307566000553  51.925540000697 # o*
 1381 344   7   0.4238  -0.756103418542   1.957356000154  48.659239997679 # h*
 1382 344   7   0.4238   0.033576580022   1.880676000354  47.239140000446 # h*
 1383 344   6  -0.8476  -0.572473419298   1.395296000534  47.854040000138 # o*
 1384 345   7   0.4238   5.546000001521  11.878615999497  40.344539998609 # h*
 1385 345   7   0.4238   6.316660000679  13.352515999953  40.451440001036 # h*
 1386 345   6  -0.8476   5.508560000924  12.839216000072  40.682039997738 # o*
 1387 346   7   0.4238   7.431590000244  14.312516000180  29.987139997791 # h*
 1388 346   7   0.4238   8.657340001188  15.241515999799  29.505639998738 # h*
 1389 346   6  -0.8476   8.025650000262  15.086015999579  30.275339996683 # o*
 1390 347   7   0.4238  13.995120001135   3.893295999923  42.927240000074 # h*
 1391 347   7   0.4238  13.453610000734   2.388186000601  43.086839997584 # h*
 1392 347   6  -0.8476  13.270459999915   3.273116000721  42.617839997060 # o*
 1393 348   7   0.4238  -3.223153419275  16.353016000408  51.073939997381 # h*
 1394 348   7   0.4238  -4.025383418941  15.189816000217  50.290439998796 # h*
 1395 348   6  -0.8476  -4.072553419586  16.168316000625  50.550740000618 # o*
 1396 349   7   0.4238   1.032036579789  14.605115999875  45.960639997956 # h*
 1397 349   7   0.4238   1.273936579570  13.797516000553  47.412839999938 # h*
 1398 349   6  -0.8476   1.190966581747  14.726915999784  46.963440000082 # o*
 1399 350   7   0.4238  -5.062743418725  10.946115999088  27.085940000735 # h*
 1400 350   7   0.4238  -3.896403419138  10.725315999465  28.312039998378 # h*
 1401 350   6  -0.8476  -4.484733418972  10.263516000291  27.568339998260 # o*
 1402 351   7   0.4238  -0.337843419459  10.568616000411  25.083539997839 # h*
 1403 351   7   0.4238  -0.520273420529  11.194016000781  26.627639996240 # h*
 1404 351   6  -0.8476  -0.856163419677  10.438315999915  25.980639997352 # o*
 1405 352   7   0.4238   7.739720001180   7.480166000447  24.097339999622 # h*
 1406 352   7   0.4238   8.400490001356   8.886966000455  24.670839997392 # h*
 1407 352   6  -0.8476   7.999800000929   7.983716000258  24.944839997557 # o*
 1408 353   7   0.4238  -1.999973419543   5.183325999837  28.226539999117 # h*
 1409 353   7   0.4238  17.508640001442   4.827706000199  29.231939999915 # h*
 1410 353   6  -0.8476  -2.235173420160   4.548075999959  28.996939996491 # o*
 1411 354   7   0.4238  -6.060223418830  10.961315999217  42.899740001091 # h*
 1412 354   7   0.4238  13.526870001054   9.873275999186  42.188140000170 # h*
 1413 354   6  -0.8476  -6.479073419847  10.006196000582  42.924840000446 # o*
 1414 355   7   0.4238  10.822919999894  12.515915999944  46.022140000931 # h*
 1415 355   7   0.4238   9.220010001031  12.166915999180  46.091039996283 # h*
 1416 355   6  -0.8476   9.887560001772  12.848615999318  45.732139999541 # o*
 1417 356   7   0.4238   3.285080000077  17.423316000077  52.602739999539 # h*
 1418 356   7   0.4238   4.237749999906  16.394016000609  51.891839998047 # h*
 1419 356   6  -0.8476   3.967729999554  16.713416000336  52.807240001668 # o*
 1420 357   7   0.4238   6.174916580693   7.874236000670  33.319539998445 # h*
 1421 357   7   0.4238   4.709616581122   7.838716000544  33.730339999649 # h*
 1422 357   6  -0.8476   5.327416580900   7.401366000659  33.073739996693 # o*
 1423 358   7   0.4238   7.038220000512  11.112415999988  47.386340001726 # h*
 1424 358   7   0.4238   8.253300000335  11.500816000646  48.203739996453 # h*
 1425 358   6  -0.8476   7.891910001341  11.665815999549  47.278439998528 # o*
 1426 359   7   0.4238   1.715016580352   0.784557000664  52.877639998176 # h*
 1427 359   7   0.4238  -9.629923420041  18.170915999967  52.360240001440 # h*
 1428 359   6  -0.8476   1.734682964840   0.033107371854  52.176739998838 # o*
 1429 360   7   0.4238  -4.200133419809   6.474036000767  45.177139999370 # h*
 1430 360   7   0.4238  15.622150001714   7.478545999506  44.295739999741 # h*
 1431 360   6  -0.8476  15.582470000474   6.890526000342  45.133539996863 # o*
 1432 361   7   0.4238  14.940360000408   7.447475999480  49.701539996930 # h*
 1433 361   7   0.4238  14.640170001814   8.470715999155  48.491339998214 # h*
 1434 361   6  -0.8476  14.201130000468   7.977945999392  49.275040001396 # o*
 1435 362   7   0.4238  12.720287999976   4.904796000857  51.995939997205 # h*
 1436 362   7   0.4238  11.883962000827   6.150436000465  52.710739999482 # h*
 1437 362   6  -0.8476  12.775240000438   5.654935999116  52.710439998141 # o*
 1438 363   7   0.4238   4.088310001547  14.874315999028  42.865239996714 # h*
 1439 363   7   0.4238   4.544060001813  13.795115999160  41.673839996939 # h*
 1440 363   6  -0.8476   3.848890002302  14.528815999054  41.933740000674 # o*
 1441 364   7   0.4238  16.436400000274   2.746535999961  46.293539996871 # h*
 1442 364   7   0.4238  17.217649999824   3.864756000744  47.205340001050 # h*
 1443 364   6  -0.8476  16.344400000349   3.626426000881  46.774639997836 # o*
 1444 365   7   0.4238   7.507800002243  16.191415999130  41.585739999006 # h*
 1445 365   7   0.4238   9.044040000821  16.271316000178  42.185040001112 # h*
 1446 365   6  -0.8476   8.270300000987  15.618815999602  41.993339998853 # o*
 1447 366   7   0.4238   1.256406579593   6.433256000072  26.224739998905 # h*
 1448 366   7   0.4238   0.960876579929   5.195255999931  25.185239997369 # h*
 1449 366   6  -0.8476   0.591036581145   6.111725999108  25.528339997481 # o*
 1450 367   7   0.4238   3.974109999721  14.801216000686  39.920439997151 # h*
 1451 367   7   0.4238   3.056360002053  15.221715999483  38.684240000608 # h*
 1452 367   6  -0.8476   4.019980001135  15.329015999048  39.047640000818 # o*
 1453 368   7   0.4238  12.196656001803  10.697215999299  53.444340000701 # h*
 1454 368   7   0.4238  12.699884000976   9.340636000498  54.172439997681 # h*
 1455 368   6  -0.8476  13.010868000375  10.260715999286  53.880440000302 # o*
 1456 369   7   0.4238   9.863780002356   4.027675999061  32.868340001644 # h*
 1457 369   7   0.4238  10.036416580511   2.736226000807  33.711340001664 # h*
 1458 369   6  -0.8476  10.079880001108   3.016515999566  32.751239998019 # o*
 1459 370   7   0.4238   0.935986579337  14.332316000495  43.295139998200 # h*
 1460 370   7   0.4238   0.793746579847  13.194316000029  44.291739996658 # h*
 1461 370   6  -0.8476   0.660986580560  14.190915999145  44.259540000716 # o*
 1462 371   7   0.4238  -7.775832420132  15.804716000081  23.245240001473 # h*
 1463 371   7   0.4238  -7.662613418747  15.934915999277  24.889539998249 # h*
 1464 371   6  -0.8476  -8.041022419245  16.371916000201  24.063540000225 # o*
 1465 372   7   0.4238  15.498890001107   5.574296000744  36.305040000501 # h*
 1466 372   7   0.4238  16.266000002078   4.364725999098  36.942239996279 # h*
 1467 372   6  -0.8476  16.203550000799   4.893635999968  36.060939998948 # o*
 1468 373   7   0.4238  18.176509999580   1.754696000503  25.971739998266 # h*
 1469 373   7   0.4238  18.568420000702   2.774795999598  24.815839998087 # h*
 1470 373   6  -0.8476  18.219379999258   1.838636000791  24.939339998871 # o*
 1471 374   7   0.4238  11.543110001924   9.508935999454  25.123040000517 # h*
 1472 374   7   0.4238  12.553610999270   9.437416000787  26.336839998676 # h*
 1473 374   6  -0.8476  11.699206001872   9.005115999486  25.995239999719 # o*
 1474 375   7   0.4238   8.894316580917   1.222025999934  28.249340001141 # h*
 1475 375   7   0.4238   8.340916581841   1.095047999628  26.644439999193 # h*
 1476 375   6  -0.8476   8.265716581100   0.741064999512  27.602239999954 # o*
 1477 376   7   0.4238   0.892026580834  11.190816000165  32.225239997987 # h*
 1478 376   7   0.4238   1.642116580228  10.709815999161  31.005440000757 # h*
 1479 376   6  -0.8476   1.086776581025  11.525515999459  31.269639997811 # o*
 1480 377   7   0.4238   9.648129999884  12.797116000474  43.967940001425 # h*
 1481 377   7   0.4238   9.014700000509  13.877216000864  42.898040000892 # h*
 1482 377   6  -0.8476   9.462890000442  12.989416000320  42.971940000097 # o*
 1483 378   7   0.4238   1.004076579050   0.742691000828  35.924839997338 # h*
 1484 378   7   0.4238  -0.529693420543   1.076056000278  36.015439997198 # h*
 1485 378   6  -0.8476   0.239546581645   0.711286999738  36.584640001650 # o*
 1486 379   7   0.4238  -9.560412419748  17.548515999475  42.740839997458 # h*
 1487 379   7   0.4238  -9.442464418721  16.061615999546  43.383739996518 # h*
 1488 379   6  -0.8476  -9.762503419838  16.551316000011  42.550340000566 # o*
 1489 380   7   0.4238  14.803960000534   7.803886000819  28.839439997268 # h*
 1490 380   7   0.4238  -5.231543420532   8.700086000649  27.730340000951 # h*
 1491 380   6  -0.8476  15.204090001737   7.735375999551  27.908939996446 # o*
 1492 381   7   0.4238  11.379409001670   1.686716000165  48.943239999997 # h*
 1493 381   7   0.4238  12.162275801351   2.420785999653  47.691440000316 # h*
 1494 381   6  -0.8476  11.279866999921   2.362296000476  48.203240001620 # o*
 1495 382   7   0.4238   0.828246579829   0.727902000379  30.929139996370 # h*
 1496 382   7   0.4238   2.007516580389   1.548506000045  30.298539996794 # h*
 1497 382   6  -0.8476   1.419816580823   0.740574999848  30.079439997850 # o*
 1498 383   7   0.4238   4.365516580943   2.129805999035  52.098839996550 # h*
 1499 383   7   0.4238   3.024416579675   3.047246000017  52.344240000215 # h*
 1500 383   6  -0.8476   4.022616581299   2.925446000108  52.591339998527 # o*
 1501 384   7   0.4238  11.164220000051   5.223256000660  49.883839999719 # h*
 1502 384   7   0.4238  10.873600001677   3.802215999217  49.079540000651 # h*
 1503 384   6  -0.8476  10.814830001835   4.296825999427  49.995040001018 # o*
 1504 385   7   0.4238   4.108516580785   4.155726000114  30.602739996912 # h*
 1505 385   7   0.4238   3.997816581036   2.668676000098  31.027239996458 # h*
 1506 385   6  -0.8476   3.565516581402   3.313676000046  30.373439996770 # o*
 1507 386   7   0.4238  -4.399043419351  12.173016000237  51.740139998851 # h*
 1508 386   7   0.4238  -4.138793419263  11.708215999322  50.213240001489 # h*
 1509 386   6  -0.8476  -3.711273419159  12.128815999420  51.011339996890 # o*
 1510 387   7   0.4238  -3.058423418407  13.559415999581  31.161439998824 # h*
 1511 387   7   0.4238  -4.214813418533  14.576015999750  30.714739999938 # h*
 1512 387   6  -0.8476  -4.043233419806  13.598115999690  30.970140000205 # o*
 1513 388   7   0.4238   0.297152964051   0.116707372565  26.796839997817 # h*
 1514 388   7   0.4238 -10.521043419911  18.396315999776  26.043239997843 # h*
 1515 388   6  -0.8476 -11.497763418390  18.092515999790  26.124639997276 # o*
 1516 389   7   0.4238  -6.308713419469  13.092916000784  42.519239996587 # h*
 1517 389   7   0.4238  -5.586573418672  12.660116000435  43.920340001388 # h*
 1518 389   6  -0.8476  -5.548613420210  12.522816000223  42.921440000047 # o*
 1519 390   7   0.4238  14.425050000181   9.458175999797  46.296439996885 # h*
 1520 390   7   0.4238  15.279230001003   8.217545999372  46.350839997720 # h*
 1521 390   6  -0.8476  -5.568603418968   9.032416000430  46.939439998243 # o*
 1522 391   7   0.4238  20.033506383382   0.144407373120  53.992139996434 # h*
 1523 391   7   0.4238 -12.106963419262  18.514716000196  52.554039996434 # h*
 1524 391   6  -0.8476   7.817520000223  18.193016000375  53.149739999097 # o*
 1525 392   7   0.4238   8.928000002189  12.220515999244  32.743239997407 # h*
 1526 392   7   0.4238   7.935880001228  12.335416000737  31.465139998556 # h*
 1527 392   6  -0.8476   8.909660001202  12.372715999412  31.735340000234 # o*
 1528 393   7   0.4238  -4.661163418724  16.862316000451  37.559439998855 # h*
 1529 393   7   0.4238  -4.434103419152  16.694216000369  39.138740001063 # h*
 1530 393   6  -0.8476  -4.713883419518  16.158016000857  38.310440000156 # o*
 1531 394   7   0.4238  -4.533093418951  13.081915999367  25.475739999144 # h*
 1532 394   7   0.4238  -4.832303419491  14.659415999724  25.237539999917 # h*
 1533 394   6  -0.8476  -5.211113419700  13.830616000516  25.677840001644 # o*
 1534 395   7   0.4238  18.168440000671   3.741885999593  49.396839996427 # h*
 1535 395   7   0.4238  17.819270001017   2.969575999643  50.855339998823 # h*
 1536 395   6  -0.8476  17.420620001097   3.424806000592  50.034239996802 # o*
 1537 396   7   0.4238  -8.477729419510  15.039516000532  32.140639997199 # h*
 1538 396   7   0.4238  10.772690000345  14.857015999542  32.888739998487 # h*
 1539 396   6  -0.8476  -8.968298418776  14.519616000545  32.871839998789 # o*
 1540 397   7   0.4238  -2.243793420113   3.506936000450  22.327939998608 # h*
 1541 397   7   0.4238  16.968579999531   2.913476000612  21.740940001539 # h*
 1542 397   6  -0.8476  17.990960001609   2.840926000105  21.688240000903 # o*
 1543 398   7   0.4238   6.309720000360   9.842616000019  39.992439997113 # h*
 1544 398   7   0.4238   5.096516580884  10.121126000229  38.884639997356 # h*
 1545 398   6  -0.8476   5.454150001266  10.325716000379  39.799139996953 # o*
 1546 399   7   0.4238  -6.908973419866  16.995215999351  35.071939997463 # h*
 1547 399   7   0.4238  -6.004733418858  17.376616000292  33.698040001408 # h*
 1548 399   6  -0.8476  -6.377923419435  17.728316000760  34.597439998252 # o*
 1549 400   7   0.4238   5.632770001301  13.924715999871  24.507039997756 # h*
 1550 400   7   0.4238   5.134850001192  13.231415999830  25.922239998986 # h*
 1551 400   6  -0.8476   5.311480001360  13.038515999635  24.933640001141 # o*
 1552 401   7   0.4238  -2.673483420095  12.155816000189  25.906439996804 # h*
 1553 401   7   0.4238  -3.150153419022  11.429016000574  24.539639997338 # h*
 1554 401   6  -0.8476  -3.468773420037  11.965615999698  25.332839996736 # o*
 1555 402   7   0.4238  -1.359853420306  17.503016000388  39.471440000934 # h*
 1556 402   7   0.4238  -0.913663418988  16.192315999653  40.391339996919 # h*
 1557 402   6  -0.8476  -0.576363418827  16.929315999599  39.758940000398 # o*
 1558 403   7   0.4238  -1.845863418896   5.841955999624  40.488439996235 # h*
 1559 403   7   0.4238  -3.301503419278   5.812536000556  39.633439998073 # h*
 1560 403   6  -0.8476  -2.361803420117   6.146145999837  39.646840000626 # o*
 1561 404   7   0.4238   3.477616579626   1.380526000033  43.004739998723 # h*
 1562 404   7   0.4238   3.913916581835   0.361401999393  41.878839999453 # h*
 1563 404   6  -0.8476   3.320616580019   0.429948999874  42.707140000360 # o*
 1564 405   7   0.4238  12.970231002145  10.711815999080  38.417639998373 # h*
 1565 405   7   0.4238  12.589657000848   9.307936000146  38.321840001168 # h*
 1566 405   6  -0.8476  12.687415000600   9.984585999837  39.064939998603 # o*
 1567 406   7   0.4238  12.238939002077   8.243015999253  31.910139997243 # h*
 1568 406   7   0.4238  11.866574001255   7.339095999288  33.164639997895 # h*
 1569 406   6  -0.8476  11.662685000622   7.473256000783  32.205540000573 # o*
 1570 407   7   0.4238   8.095899999840  10.813216000188  27.158539997828 # h*
 1571 407   7   0.4238   7.539030000787   9.274875999585  27.216940001745 # h*
 1572 407   6  -0.8476   8.041350000994   9.983835999401  27.763239996322 # o*
 1573 408   7   0.4238  -4.078763420296  16.174916000731  23.994539997023 # h*
 1574 408   7   0.4238  -2.535153418858  15.836716000647  24.545039999278 # h*
 1575 408   6  -0.8476  -3.519173419346  15.933615999143  24.848840001309 # o*
 1576 409   7   0.4238   7.715150001949  16.442815999750  35.543539996660 # h*
 1577 409   7   0.4238   8.330380000372  15.015116000030  35.575640001409 # h*
 1578 409   6  -0.8476   7.882090000967  15.669916000699  34.944740000491 # o*
 1579 410   7   0.4238   8.556330001796  14.518815999459  40.100640001653 # h*
 1580 410   7   0.4238   8.684790000483  12.991915999287  40.470339996723 # h*
 1581 410   6  -0.8476   8.173600000113  13.608316000022  39.848539999487 # o*
 1582 411   7   0.4238   3.724316579360   9.646526000456  26.557439998776 # h*
 1583 411   7   0.4238   5.023616579327   9.883426000731  25.597439997430 # h*
 1584 411   6  -0.8476   4.224116579484   9.296606000401  25.732739997312 # o*
 1585 412   7   0.4238  16.555360000660   1.468796000350  44.437539999080 # h*
 1586 412   7   0.4238  17.850080000534   0.525648999536  44.966139997784 # h*
 1587 412   6  -0.8476  16.894990000656   0.815238999968  45.158340000429 # o*
 1588 413   7   0.4238   5.303540000593  18.167715999351  38.010939996998 # h*
 1589 413   7   0.4238   4.466619999635  17.414016000268  39.059139998575 # h*
 1590 413   6  -0.8476   4.596480000523  18.342115999364  38.710639996522 # o*
 1591 414   7   0.4238   2.419716581381   8.398956000349  30.340339996803 # h*
 1592 414   7   0.4238   3.597816580150   9.566516000587  30.404839996538 # h*
 1593 414   6  -0.8476   2.587816580218   9.415226000326  30.402140001120 # o*
 1594 415   7   0.4238  10.450080000598   5.510685999838  45.262539996333 # h*
 1595 415   7   0.4238  11.893453000511   5.149946000333  44.593440000402 # h*
 1596 415   6  -0.8476  10.898240001687   5.261225999102  44.409239998370 # o*
 1597 416   7   0.4238   1.612099999814  17.329616000334  32.858539998534 # h*
 1598 416   7   0.4238   1.662700000897  15.882716000647  33.216240001014 # h*
 1599 416   6  -0.8476   2.129140000789  16.516416000867  32.574139998128 # o*
 1600 417   7   0.4238   1.108466581235  11.893115999841  23.769939999393 # h*
 1601 417   7   0.4238   1.349216579316  10.325716000379  23.638840001636 # h*
 1602 417   6  -0.8476   0.636906580755  10.996315999662  23.867739998138 # o*
 1603 418   7   0.4238   5.559570002008  14.389715999660  30.339439998331 # h*
 1604 418   7   0.4238   5.052689999985  13.147015999896  29.458840000428 # h*
 1605 418   6  -0.8476   5.827629999210  13.473816000814  30.057340000808 # o*
 1606 419   7   0.4238  16.566990000999   6.091056000151  24.619540001167 # h*
 1607 419   7   0.4238  -4.047143418637   7.188155999852  23.351839997006 # h*
 1608 419   6  -0.8476  -4.036833419821   6.202316000151  23.586640001386 # o*
 1609 420   7   0.4238   1.501216581354   3.692705999611  22.905439999461 # h*
 1610 420   7   0.4238   1.874916580690   5.206495999625  23.190640001594 # h*
 1611 420   6  -0.8476   1.436616580377   4.394645999078  23.627539997370 # o*
 1612 421   7   0.4238   6.712990000846  16.944316000855  37.438539996743 # h*
 1613 421   7   0.4238   7.445090001665  18.348616000032  36.889040000811 # h*
 1614 421   6  -0.8476   6.610990000098  17.753816000659  36.785339999740 # o*
 1615 422   7   0.4238  17.529250001648   3.449225999863  39.198839999628 # h*
 1616 422   7   0.4238  16.062770000990   2.965986000664  38.973339997973 # h*
 1617 422   6  -0.8476  16.699040000356   3.725955999661  38.681439997339 # o*
 1618 423   7   0.4238   1.518816580141  13.095616000489  30.979140001588 # h*
 1619 423   7   0.4238   1.882916581372  14.628216000243  31.231739998587 # h*
 1620 423   6  -0.8476   1.293086579924  14.033216000132  30.675839999943 # o*
 1621 424   7   0.4238   1.901316580818   5.952275999700  30.490739999439 # h*
 1622 424   7   0.4238   3.437416581716   6.256445999280  30.405339996923 # h*
 1623 424   6  -0.8476   2.543216580739   6.646965999927  30.117939999758 # o*
 1624 425   7   0.4238  -4.122743420957  17.364616000779  21.823739999829 # h*
 1625 425   7   0.4238  -5.060963420543  16.167716000277  21.602240001257 # h*
 1626 425   6  -0.8476  -4.250903418840  16.435915999470  22.197639997026 # o*
 1627 426   7   0.4238  -2.226433419825   9.226995999737  44.076440001753 # h*
 1628 426   7   0.4238  -2.196413419985   8.516705999770  42.676039996381 # h*
 1629 426   6  -0.8476  -1.729233419016   8.483215999581  43.571239996651 # o*
 1630 427   7   0.4238   2.112116580145  11.266916000249  27.734639999823 # h*
 1631 427   7   0.4238   2.312816580788   9.763836000863  28.097639996393 # h*
 1632 427   6  -0.8476   2.814516580323  10.516815999529  27.609139997498 # o*
 1633 428   7   0.4238   2.038316580461  11.519016000654  40.990839998069 # h*
 1634 428   7   0.4238   1.797616580713  13.127716000492  41.015739998380 # h*
 1635 428   6  -0.8476   1.459616580711  12.306915999097  40.585939999192 # o*
 1636 429   7   0.4238  16.542590000690   6.294835999830  49.346839996762 # h*
 1637 429   7   0.4238  16.228420000637   5.314866000432  50.618539998454 # h*
 1638 429   6  -0.8476  15.957889999684   6.140376000835  50.157939996629 # o*
 1639 430   7   0.4238   8.980130000613   8.786756000659  39.396839996748 # h*
 1640 430   7   0.4238   8.864770000503  10.421515999478  39.375040001047 # h*
 1641 430   6  -0.8476   8.592140001278   9.591926000433  38.869939998243 # o*
 1642 431   7   0.4238   2.826316580408   3.409415999110  28.881039998233 # h*
 1643 431   7   0.4238   1.609116581671   4.226085999350  28.303339998336 # h*
 1644 431   6  -0.8476   2.366116580649   3.630815999082  27.994839999347 # o*
 1645 432   7   0.4238  -2.096913417925  12.377715999209  29.328939996934 # h*
 1646 432   7   0.4238  -1.354773418926  13.815215999650  29.711539999725 # h*
 1647 432   6  -0.8476  -1.478953420524  13.094016000181  29.002440000730 # o*
 1648 433   7   0.4238  -5.274593419850  12.204016000844  36.763539998486 # h*
 1649 433   7   0.4238  -3.757523419060  12.694715999406  36.732440000060 # h*
 1650 433   6  -0.8476  -4.333373420322  11.819516000588  36.652040001398 # o*
 1651 434   7   0.4238  -9.597159418590  18.223816000245  29.638640001290 # h*
 1652 434   7   0.4238  -8.368735419495  17.891315999745  28.666539999503 # h*
 1653 434   6  -0.8476  -8.663359018713  17.767116000306  29.645039998449 # o*
 1654 435   7   0.4238  -0.069793419964   4.424735999778  41.381239996877 # h*
 1655 435   7   0.4238  -1.269653419008   3.478085999849  40.702839998220 # h*
 1656 435   6  -0.8476  -1.082733418204   4.267295999673  41.322639999468 # o*
 1657 436   7   0.4238   8.750730000539   8.704116000504  30.009639998473 # h*
 1658 436   7   0.4238   9.984730001069   7.871266000809  30.687539996744 # h*
 1659 436   6  -0.8476   8.989660000232   8.096706000020  30.778439997946 # o*
 1660 437   7   0.4238  -8.477570418778  13.227316000555  41.498140001458 # h*
 1661 437   7   0.4238  -8.453430418807  14.305715999337  42.785440000735 # h*
 1662 437   6  -0.8476  -7.907399419258  13.638416000106  42.248739999120 # o*
 1663 438   7   0.4238  -1.937163419857   9.434615999783  26.185339998524 # h*
 1664 438   7   0.4238  -3.453493419673   9.269945999208  26.704440001012 # h*
 1665 438   6  -0.8476  -2.714183420546   8.754596000620  26.222539998320 # o*
 1666 439   7   0.4238  16.353129999626   1.904176000334  24.932739997116 # h*
 1667 439   7   0.4238  15.142200000584   2.561085999743  24.228739998720 # h*
 1668 439   6  -0.8476  15.392730000754   1.679866000536  24.659039998293 # o*
 1669 440   7   0.4238  -1.091623418384   6.208135999803  26.463739999859 # h*
 1670 440   7   0.4238  -2.373173418704   7.101356000388  26.606639996714 # h*
 1671 440   6  -0.8476  -2.019613418455   6.150665999356  26.843539999381 # o*
 1672 441   7   0.4238   1.951016580664   8.702396000127  45.058039999757 # h*
 1673 441   7   0.4238   3.264416581009   9.273406000595  45.624239996343 # h*
 1674 441   6  -0.8476   2.635816581070   8.490016000423  45.785140001518 # o*
 1675 442   7   0.4238  12.945690001623  11.633115999198  36.636239999216 # h*
 1676 442   7   0.4238  -7.389773419584  12.925715999361  37.568339997940 # h*
 1677 442   6  -0.8476  -7.367613419880  11.897415999853  37.560139998284 # o*
 1678 443   7   0.4238   4.533416579898   5.718756000145  24.195439999709 # h*
 1679 443   7   0.4238   4.231816580461   4.192925999352  24.038339998573 # h*
 1680 443   6  -0.8476   4.480716581118   5.003415999730  23.478840000487 # o*
 1681 444   7   0.4238   4.903460001067  17.488416000607  47.341039999019 # h*
 1682 444   7   0.4238   4.126700000733  17.982216000347  46.069940000011 # h*
 1683 444   6  -0.8476   4.230830001457  17.153415999276  46.662039997680 # o*
 1684 445   7   0.4238   9.745100000857   4.045756000863  43.846239997586 # h*
 1685 445   7   0.4238   9.611016579285   2.471466000506  43.825939997489 # h*
 1686 445   6  -0.8476   9.087716580698   3.316165999628  43.570039996837 # o*
 1687 446   7   0.4238   7.711209999834  15.357315999951  43.634139998484 # h*
 1688 446   7   0.4238   7.433220000226  16.376116000776  44.852639999155 # h*
 1689 446   6  -0.8476   7.293160000335  15.445316000111  44.559140000620 # o*
 1690 447   7   0.4238   9.006960000652   6.659515999138  49.739039998068 # h*
 1691 447   7   0.4238   9.245990001265   7.824855999950  50.856140000550 # h*
 1692 447   6  -0.8476   9.660290000593   7.008435999234  50.453439996705 # o*
 1693 448   7   0.4238   8.371060002032   7.497295999212  47.811739999744 # h*
 1694 448   7   0.4238   8.910319999754   8.976696000377  47.836640000055 # h*
 1695 448   6  -0.8476   8.708710001518   8.216836000202  47.184839996356 # o*
 1696 449   7   0.4238  -3.319593419784   6.795826000639  32.425839999332 # h*
 1697 449   7   0.4238  16.084530000868   6.110496000257  31.815139996213 # h*
 1698 449   6  -0.8476  -4.275743420095   6.997056000702  32.177139997565 # o*
 1699 450   7   0.4238  16.114850000700   0.333961999610  50.027839999643 # h*
 1700 450   7   0.4238   5.255290000121  17.880616000365  49.810139999557 # h*
 1701 450   6  -0.8476   4.334910001846  18.077015999486  50.238340000844 # o*
 1702 451   7   0.4238  16.245730000599   1.939696000459  41.873340000767 # h*
 1703 451   7   0.4238  16.219090000350   3.284365999799  42.717040000216 # h*
 1704 451   6  -0.8476  16.607070000801   2.335275999074  42.735440001070 # o*
 1705 452   7   0.4238  -3.343703417858  10.868015999085  30.278739997082 # h*
 1706 452   7   0.4238  -2.013573420369  10.170966000594  29.600839998811 # h*
 1707 452   6  -0.8476  -2.812213419666  10.795215999054  29.433240000689 # o*
 1708 453   7   0.4238  18.568540000326   1.974616000237  53.736539997123 # h*
 1709 453   7   0.4238  18.831590001003   2.451786000260  55.353939997600 # h*
 1710 453   6  -0.8476  18.906260000335   1.694186000775  54.657839997518 # o*
 1711 454   7   0.4238  11.139949001842   9.604295999540  22.816140001714 # h*
 1712 454   7   0.4238  12.593260999348  10.182776000619  23.130139999390 # h*
 1713 454   6  -0.8476  11.652024000366  10.147686000122  23.525539996498 # o*
 1714 455   7   0.4238  -1.352233418964   9.277575999290  49.771439998606 # h*
 1715 455   7   0.4238  -1.594053418939   7.738915999743  49.549940000033 # h*
 1716 455   6  -0.8476  -1.263873419038   8.390065999536  50.245239998388 # o*
 1717 456   7   0.4238  12.789449000540   7.011815999955  48.482240000085 # h*
 1718 456   7   0.4238  11.239447001506   6.784525999047  48.424939999236 # h*
 1719 456   6  -0.8476  12.103185101203   6.381595999892  48.067339999054 # o*
 1720 457   7   0.4238   4.899516579924   6.226236000374  31.838939999008 # h*
 1721 457   7   0.4238   5.608316579927   5.884315999995  30.467539999327 # h*
 1722 457   6  -0.8476   4.816116580995   5.609756000835  31.057739997753 # o*
 1723 458   7   0.4238  18.539040001639   2.844046000053  30.129340000770 # h*
 1724 458   7   0.4238  17.495750000762   2.039285999274  30.976240001574 # h*
 1725 458   6  -0.8476  18.515640000869   2.201355999582  30.921640001695 # o*
 1726 459   7   0.4238  10.430140001247   9.856195999207  49.377940000741 # h*
 1727 459   7   0.4238   9.121480001025  10.531516000610  49.995240000061 # h*
 1728 459   6  -0.8476   9.529470001645  10.278515999683  49.079340001607 # o*
 1729 460   7   0.4238   2.555316580242   4.336375999408  41.639440000412 # h*
 1730 460   7   0.4238   1.567216579975   5.312305999567  40.828439997291 # h*
 1731 460   6  -0.8476   1.580716580951   4.600895999570  41.565439998908 # o*
 1732 461   7   0.4238   9.258879999335   6.091016000748  33.617639997194 # h*
 1733 461   7   0.4238  10.466720000665   6.283935999713  32.536139996605 # h*
 1734 461   6  -0.8476   9.796230001509   5.612976000220  32.874639996505 # o*
 1735 462   7   0.4238  11.109316581155   1.614126000256  24.035139997217 # h*
 1736 462   7   0.4238  11.239271999605   3.154496000795  24.150040000257 # h*
 1737 462   6  -0.8476  10.767379999511   2.396366000381  24.609439996715 # o*
 1738 463   7   0.4238   0.630896579281  14.581116000848  38.612839997777 # h*
 1739 463   7   0.4238   1.159456581161  16.066315999169  38.773739997399 # h*
 1740 463   6  -0.8476   1.498316579954  15.120916000587  38.756839997701 # o*
 1741 464   7   0.4238  -1.855753420721  16.868216000771  34.881440000571 # h*
 1742 464   7   0.4238  -0.947283419453  17.239815999128  36.212040001013 # h*
 1743 464   6  -0.8476  -1.223423420026  16.484215999563  35.603039998094 # o*
 1744 465   7   0.4238   7.600416579967   4.104236000654  25.000639997250 # h*
 1745 465   7   0.4238   8.422716580584   3.959145999025  26.448039999975 # h*
 1746 465   6  -0.8476   7.672016581484   3.542405999926  25.873240000092 # o*
 1747 466   7   0.4238  14.681070001318   8.119885999193  53.203639999547 # h*
 1748 466   7   0.4238  13.903600000371   6.779896000707  53.272340001408 # h*
 1749 466   6  -0.8476  14.546160001201   7.339076000518  53.822139998682 # o*
 1750 467   7   0.4238   6.685616581324   7.374125999750  41.474039997322 # h*
 1751 467   7   0.4238   7.745420000625   7.320336000197  40.184440000714 # h*
 1752 467   6  -0.8476   6.776616579748   7.527976000876  40.478139998292 # o*
 1753 468   7   0.4238   7.156916580361   6.378035999067  49.184539998282 # h*
 1754 468   7   0.4238   7.604616581764   5.248045999525  48.382240000755 # h*
 1755 468   6  -0.8476   7.975216580813   6.185575999749  48.601140000655 # o*
 1756 469   7   0.4238  10.430070000919  10.877116000021  41.087039998913 # h*
 1757 469   7   0.4238   9.479660000870  12.069515999773  41.669440001322 # h*
 1758 469   6  -0.8476   9.617370000285  11.464116000456  40.861839998600 # o*
 1759 470   7   0.4238   9.011859999816  16.625416000176  25.628639998154 # h*
 1760 470   7   0.4238   7.749640001916  15.774015999648  25.042340000513 # h*
 1761 470   6  -0.8476   8.705460001673  15.650215999820  25.423640001192 # o*
 1762 471   7   0.4238   4.171016580430   2.072865999516  38.693239996439 # h*
 1763 471   7   0.4238   3.138516581494   1.997855999444  37.467039996497 # h*
 1764 471   6  -0.8476   3.285216580254   1.684115999898  38.413339999501 # o*
 1765 472   7   0.4238   8.350912964127   0.146007373428  39.318839997714 # h*
 1766 472   7   0.4238   9.360016579545   0.500790000072  40.343440001093 # h*
 1767 472   6  -0.8476  -3.153263420787  18.322016000738  39.870939997871 # o*
 1768 473   7   0.4238  18.068030000443   3.477605999570  44.062640001113 # h*
 1769 473   7   0.4238  -1.859563419447   4.030065999206  42.771339998753 # h*
 1770 473   6  -0.8476  -2.050073419739   4.226526000226  43.777040000893 # o*
 1771 474   7   0.4238   7.667470000289   8.727586000466  45.787939999234 # h*
 1772 474   7   0.4238   6.589599999644   9.799786000618  45.627939998084 # h*
 1773 474   6  -0.8476   7.231700001521   9.259756000124  45.042840000258 # o*
 1774 475   7   0.4238   5.452669999708  13.577816000326  35.292239996221 # h*
 1775 475   7   0.4238   4.635280001845  14.458515999853  36.251339999095 # h*
 1776 475   6  -0.8476   5.014540001771  13.525315999659  36.190540001101 # o*
 1777 476   7   0.4238   3.452416580611  12.191715999293  35.876139999786 # h*
 1778 476   7   0.4238   1.958916581736  11.911115999112  36.419539999901 # h*
 1779 476   6  -0.8476   2.551516581541  11.854815999344  35.561840000768 # o*
 1780 477   7   0.4238   1.303086580689  11.476616000881  34.515939996521 # h*
 1781 477   7   0.4238  -0.131503420452  12.027316000738  33.931640000422 # h*
 1782 477   6  -0.8476   0.476136580909  11.213216000748  33.967539998105 # o*
 1783 478   7   0.4238   4.153216580466  10.937016000016  44.528440000282 # h*
 1784 478   7   0.4238   5.265616579891   9.976066000480  43.915839997920 # h*
 1785 478   6  -0.8476   4.281516581708  10.005485999549  44.074539996957 # o*
 1786 479   7   0.4238  10.052616580410   1.302146000489  30.168040001721 # h*
 1787 479   7   0.4238   9.997016581104   1.752276000340  31.601939999595 # h*
 1788 479   6  -0.8476  10.307716580147   0.940863999302  31.055440000422 # o*
 1789 480   7   0.4238   7.040440001550  17.066915999986  49.158639997200 # h*
 1790 480   7   0.4238   7.154450000681  18.557416000142  48.486939997044 # h*
 1791 480   6  -0.8476   6.530650001711  17.806615999637  48.718739999113 # o*
 1792 481   7   0.4238  -8.778677418299  14.780615999284  54.281040000308 # h*
 1793 481   7   0.4238  10.280870001235  14.867116000438  54.156939996841 # h*
 1794 481   6  -0.8476  11.075820001861  14.202715999785  54.260839996956 # o*
 1795 482   7   0.4238   7.206716581845   2.584835999247  45.675039997736 # h*
 1796 482   7   0.4238   7.566216581230   3.367726000371  44.234339999064 # h*
 1797 482   6  -0.8476   6.863816580822   3.200025999900  44.954239996387 # o*
 1798 483   7   0.4238  -1.256633419599  16.906616000706  26.275439997999 # h*
 1799 483   7   0.4238  -2.239693420053  17.223815999777  27.467839998544 # h*
 1800 483   6  -0.8476  -1.345503419515  17.518715999565  27.057239996385 # o*
 1801 484   7   0.4238  -3.237613419691  17.955016000704  44.800239999861 # h*
 1802 484   7   0.4238  -1.956143419487  17.451915999291  45.743839996342 # h*
 1803 484   6  -0.8476  -2.680923418799  18.168916000048  45.662239997866 # o*
 1804 485   7   0.4238  -0.449923418102   4.620315999044  29.986439998362 # h*
 1805 485   7   0.4238   0.377986580490   4.048145999145  31.273039998210 # h*
 1806 485   6  -0.8476   0.466646580945   4.353016000374  30.306839998749 # o*
 1807 486   7   0.4238  -0.308123420095  14.580315999762  31.013539998115 # h*
 1808 486   7   0.4238  -1.367473420129  15.713016000257  30.978140000817 # h*
 1809 486   6  -0.8476  -1.287183419836  14.707815999253  31.114039997831 # o*
 1810 487   7   0.4238   9.146916580232   1.491215999702  24.437140001633 # h*
 1811 487   7   0.4238   7.872616581118   2.121516000433  25.040940001655 # h*
 1812 487   6  -0.8476   8.253916581470   1.196865999612  24.829439999684 # o*
 1813 488   7   0.4238   3.728511964449   0.218507373285  32.426140000673 # h*
 1814 488   7   0.4238   4.204129964577   0.238007373426  30.883339998831 # h*
 1815 488   6  -0.8476   4.265216579845   0.754520000802  31.754639999561 # o*
 1816 489   7   0.4238  11.870119000362   9.624546000117  40.430140000168 # h*
 1817 489   7   0.4238  11.113280000666   8.590575999180  41.531639999512 # h*
 1818 489   6  -0.8476  11.435711002066   9.567595999350  41.366440001018 # o*
 1819 490   7   0.4238   5.958416579610   6.808186000362  44.095139998396 # h*
 1820 490   7   0.4238   6.979319999962   7.972656000669  44.060039996888 # h*
 1821 490   6  -0.8476   6.712816580230   7.185585999602  43.467740000176 # o*
 1822 491   7   0.4238  11.212336001050  12.757116000231  52.774140001701 # h*
 1823 491   7   0.4238  10.411530001385  11.923315999363  51.479939999327 # h*
 1824 491   6  -0.8476  11.202809001396  11.968615999577  52.121639998574 # o*
 1825 492   7   0.4238  10.209180000042  11.887815999870  48.888739996864 # h*
 1826 492   7   0.4238  11.739924001184  12.350115999955  48.450640001274 # h*
 1827 492   6  -0.8476  10.943950001477  12.583215999266  49.031740001570 # o*
 1828 493   7   0.4238  12.315395000091  10.286616000659  50.516039997196 # h*
 1829 493   7   0.4238  12.887819000848   9.097385999642  49.615940000924 # h*
 1830 493   6  -0.8476  12.020194701894   9.536525999324  49.918239996246 # o*
 1831 494   7   0.4238 -10.234283419722  17.237515999035  33.032840000709 # h*
 1832 494   7   0.4238   2.289212963302   0.018907373547  33.724840000963 # h*
 1833 494   6  -0.8476  -9.479690420172  17.762215999945  33.519139999019 # o*
 1834 495   7   0.4238  11.147598000166   1.573105999421  26.458839998303 # h*
 1835 495   7   0.4238  11.491216580985   0.181442199891  27.037640001269 # h*
 1836 495   6  -0.8476  11.905095000498   1.123503000310  26.990540001618 # o*
 1837 496   7   0.4238  19.843006383887   0.211707372442  32.473639998412 # h*
 1838 496   7   0.4238  19.591050001957   1.646635999255  31.796939999955 # h*
 1839 496   6  -0.8476  -0.415173419637   1.142785999270  32.404440001718 # o*
 1840 497   7   0.4238   2.117716581404   2.987766000266  46.872339999836 # h*
 1841 497   7   0.4238   1.048006581376   3.319415999031  45.681240001403 # h*
 1842 497   6  -0.8476   1.118206579969   3.035135999818  46.648939996468 # o*
 1843 498   7   0.4238  11.151116579228   0.505001000716  43.520940001197 # h*
 1844 498   7   0.4238  10.209316580046   0.614234999788  44.807639997791 # h*
 1845 498   6  -0.8476  10.742816581894   1.177624999559  44.147139999603 # o*
 1846 499   7   0.4238  14.791620001473   1.018527000480  51.479139997600 # h*
 1847 499   7   0.4238  14.691090000037   0.832590999608  53.114939998931 # h*
 1848 499   6  -0.8476  14.316300000766   0.463840000358  52.203939996479 # o*
 1849 500   7   0.4238  -3.572953418642   5.943955999217  26.593439998757 # h*
 1850 500   7   0.4238  15.775870000654   6.850255999943  26.771239998077 # h*
 1851 500   6  -0.8476  16.181270001546   6.064865999852  26.219639998306 # o*
 1852 501   7   0.4238  13.261120000086   3.537646000268  32.898339997001 # h*
 1853 501   7   0.4238  12.574869000400   2.177266000503  32.270340001650 # h*
 1854 501   6  -0.8476  13.395600001116   2.752085999456  32.264139997982 # o*
 1855 502   7   0.4238   7.573679999877  14.809315999798  48.722739996643 # h*
 1856 502   7   0.4238   8.163050001369  15.422215999743  50.150239997358 # h*
 1857 502   6  -0.8476   7.330460001052  15.253016000265  49.615539997284 # o*
 1858 503   7   0.4238   5.204316581212   8.965535999488  51.817939998841 # h*
 1859 503   7   0.4238   4.954616579147   8.093516000653  53.214139996534 # h*
 1860 503   6  -0.8476   4.841416580912   8.075386000064  52.203539998392 # o*
 1861 504   7   0.4238  16.236700001404   3.710506000008  34.914839996327 # h*
 1862 504   7   0.4238  16.636960000589   3.536096000610  33.347839999156 # h*
 1863 504   6  -0.8476  16.606580001754   3.022265999799  34.215439998144 # o*
 1864 505   7   0.4238   0.923666580510   1.689076000293  33.600739997496 # h*
 1865 505   7   0.4238   2.223716580815   2.773035999819  33.855639997377 # h*
 1866 505   6  -0.8476   1.809316581711   1.841685999456  34.073839997849 # o*
 1867 506   7   0.4238  10.132390001059   7.289395999625  40.711539998262 # h*
 1868 506   7   0.4238   9.288410001375   6.566365999093  39.389139997476 # h*
 1869 506   6  -0.8476   9.394570001012   7.405456000549  39.985539999569 # o*
 1870 507   7   0.4238   3.598016581380   7.261115999355  44.908040000761 # h*
 1871 507   7   0.4238   4.282316580505   6.099095999228  45.712939996960 # h*
 1872 507   6  -0.8476   4.261116580704   6.525976000488  44.768739997796 # o*
 1873 508   7   0.4238   1.065916581006  12.989315999020  27.437240000504 # h*
 1874 508   7   0.4238  -0.158263418897  12.368216000526  28.303639999678 # h*
 1875 508   6  -0.8476   0.449436581550  12.171415999929  27.498939996970 # o*
 1876 509   7   0.4238   3.960416581230   3.190515999969  25.964340000337 # h*
 1877 509   7   0.4238   4.579716580954   2.005695999648  24.947539998527 # h*
 1878 509   6  -0.8476   4.047116581170   2.855475999235  25.008939999204 # o*
 1879 510   7   0.4238   1.270706580973   3.746035999518  48.297339998625 # h*
 1880 510   7   0.4238   1.792116580924   4.821545999107  49.535339997666 # h*
 1881 510   6  -0.8476   1.021666580719   4.402256000391  49.015439999003 # o*
 1882 511   7   0.4238   8.262329999508  18.541816000402  40.440139996770 # h*
 1883 511   7   0.4238  20.246049999661   0.196148400740  42.029139999791 # h*
 1884 511   6  -0.8476   7.698210001377  18.267315999414  41.257440000304 # o*
 1885 512   7   0.4238  -7.753548419417  18.082816000369  48.543839999806 # h*
 1886 512   7   0.4238  -7.671734418807  16.391915999390  48.426440000392 # h*
 1887 512   6  -0.8476  -8.107703419793  17.208416000773  48.859940001321 # o*
 1888 513   7   0.4238  -7.221873418398  15.925915999641  43.495939998588 # h*
 1889 513   7   0.4238  -6.463443419900  15.832116000461  44.929739999716 # h*
 1890 513   6  -0.8476  -6.370653418921  16.182115999321  43.960339998899 # o*
 1891 514   7   0.4238  12.568428001005   4.474726000230  27.855940000021 # h*
 1892 514   7   0.4238  12.330405001540   6.042335999814  28.000139998989 # h*
 1893 514   6  -0.8476  12.181196601390   5.256885999688  27.354840000300 # o*
 1894 515   7   0.4238  -7.199693419229  11.774615999985  26.032539996260 # h*
 1895 515   7   0.4238  -7.015343419116  10.734615999274  27.205439998435 # h*
 1896 515   6  -0.8476  -6.830823419223  10.837115999779  26.221639999847 # o*
 1897 516   7   0.4238  -3.773943418370  12.935315999345  42.165039996804 # h*
 1898 516   7   0.4238  -2.168583419021  12.713016000714  41.964339998714 # h*
 1899 516   6  -0.8476  -2.903133419792  13.426216000507  41.919339997350 # o*
 1900 517   7   0.4238  -6.348213418821  16.308016000368  32.063940000278 # h*
 1901 517   7   0.4238  -4.906223418890  16.727916000681  31.625039997408 # h*
 1902 517   6  -0.8476  -5.472313419822  16.616015999066  32.448840000399 # o*
 1903 518   7   0.4238  -0.633123419137   9.466995999328  51.331640000531 # h*
 1904 518   7   0.4238   0.690486579945   9.832736000494  52.102839999632 # h*
 1905 518   6  -0.8476  -0.045773419382  10.302315999836  51.585340000598 # o*
 1906 519   7   0.4238  12.140441000812   8.907035999064  45.389140001726 # h*
 1907 519   7   0.4238  13.176090000257   9.805296000711  44.589039999232 # h*
 1908 519   6  -0.8476  12.921495999941   9.530666000269  45.545640000179 # o*
 1909 520   7   0.4238   3.548710000577  16.382915999755  31.802139997300 # h*
 1910 520   7   0.4238   4.286559999862  16.903716000264  30.422139999876 # h*
 1911 520   6  -0.8476   4.311270001215  16.188015999641  31.145340000853 # o*
 1912 521   7   0.4238   9.287000001419  14.196815999465  37.191439998431 # h*
 1913 521   7   0.4238   8.553940001167  13.195415999426  38.061840000688 # h*
 1914 521   6  -0.8476   8.633880000878  13.411115999815  37.098040000855 # o*
 1915 522   7   0.4238   6.001869999203  15.187716000861  23.023739997348 # h*
 1916 522   7   0.4238   5.721910000955  16.551015999837  23.709739998530 # h*
 1917 522   6  -0.8476   5.708490001833  15.536515999024  23.938039997901 # o*
 1918 523   7   0.4238  10.759329999570   8.602606000575  27.409539996925 # h*
 1919 523   7   0.4238   9.446000000036   9.093016000210  28.269140000853 # h*
 1920 523   6  -0.8476  10.258080000856   8.458736000275  28.279040000709 # o*
 1921 524   7   0.4238   3.254616580371  12.313316000328  46.398239998713 # h*
 1922 524   7   0.4238   4.045910000297  13.263816000008  45.297439998798 # h*
 1923 524   6  -0.8476   3.849116579468  12.276916000313  45.574839999362 # o*
 1924 525   7   0.4238   5.584616580921   4.440975999269  47.584339998845 # h*
 1925 525   7   0.4238   4.163516580247   3.873576000275  47.487239999529 # h*
 1926 525   6  -0.8476   4.653816580292   4.767635999484  47.351439999261 # o*
 1927 526   7   0.4238   2.378916580344   6.616186000689  51.011740000530 # h*
 1928 526   7   0.4238   3.013416581526   6.880446000080  49.555139997378 # h*
 1929 526   6  -0.8476   2.741216579938   6.159886000361  50.185940001550 # o*
 1930 527   7   0.4238  -8.704306219191  16.698315999644  34.652439996218 # h*
 1931 527   7   0.4238  -8.391540418525  15.254415999835  34.591040001093 # h*
 1932 527   6  -0.8476  -8.427313418577  15.970315999333  35.301439996648 # o*
 1933 528   7   0.4238  -0.440013419990   9.569165999641  34.454639998142 # h*
 1934 528   7   0.4238  -1.980983418536   9.832775999896  34.349839999554 # h*
 1935 528   6  -0.8476  -1.284133419290   9.141725999298  34.090239997161 # o*
 1936 529   7   0.4238  -0.201263419151   4.691105999772  44.232539996566 # h*
 1937 529   7   0.4238   1.168186581965   4.335015999240  43.369739996834 # h*
 1938 529   6  -0.8476   0.718616579490   4.288816000367  44.273540000400 # o*
 1939 530   7   0.4238  -4.629643419400  17.310116000192  27.349239999316 # h*
 1940 530   7   0.4238  -3.810033419868  16.199716000844  26.627840000837 # h*
 1941 530   6  -0.8476  -4.085873419397  16.487316000741  27.566639998060 # o*
 1942 531   7   0.4238  -1.003343419152   8.760506000325  38.007139998511 # h*
 1943 531   7   0.4238  -2.108673419036   7.858575999031  38.803840000607 # h*
 1944 531   6  -0.8476  -2.008863419021   8.677586000629  38.214439998356 # o*
 1945 532   7   0.4238   1.888400000140  16.556015999634  49.987939998878 # h*
 1946 532   7   0.4238   1.719200001662  17.372115999543  51.406839996296 # h*
 1947 532   6  -0.8476   1.603200001605  16.488515999575  50.966540000122 # o*
 1948 533   7   0.4238  -2.488983419262   7.312246000469  46.696639998803 # h*
 1949 533   7   0.4238  -3.737913419562   8.234525999913  47.307139997325 # h*
 1950 533   6  -0.8476  -2.953703418572   7.665905999590  47.554039996594 # o*
 1951 536   8  -1.0411  -4.941632409072  10.919940586039  38.132152749217 # oc
 1952 536   8  -1.0411  -3.902401923793   9.119940586313  38.132152749217 # oc
 1953 535   8  -1.0411  14.711720527270   9.119940586313  38.132152749217 # oc
 1954 536   9   1.1233  -4.941632409285   9.719940586222  38.132152749217 # co

Bonds

    1   1    20   739 # oh-ho
    2   1    21   721 # oh-ho
    3   1    38   740 # oh-ho
    4   1    39   722 # oh-ho
    5   1    50    51 # oh-ho
    6   1    52    53 # oh-ho
    7   1   100   741 # oh-ho
    8   1   101   723 # oh-ho
    9   1   118   742 # oh-ho
   10   1   119   724 # oh-ho
   11   1   130   131 # oh-ho
   12   1   132   133 # oh-ho
   13   1   180   743 # oh-ho
   14   1   181   725 # oh-ho
   15   1   198   744 # oh-ho
   16   1   199   726 # oh-ho
   17   1   210   211 # oh-ho
   18   1   212   213 # oh-ho
   19   1   260   745 # oh-ho
   20   1   261   727 # oh-ho
   21   1   278   746 # oh-ho
   22   1   279   728 # oh-ho
   23   1   290   291 # oh-ho
   24   1   292   293 # oh-ho
   25   1   340   747 # oh-ho
   26   1   341   729 # oh-ho
   27   1   358   748 # oh-ho
   28   1   359   730 # oh-ho
   29   1   370   371 # oh-ho
   30   1   372   373 # oh-ho
   31   1   420   749 # oh-ho
   32   1   421   731 # oh-ho
   33   1   438   750 # oh-ho
   34   1   439   732 # oh-ho
   35   1   450   451 # oh-ho
   36   1   452   453 # oh-ho
   37   1   500   751 # oh-ho
   38   1   501   733 # oh-ho
   39   1   518   752 # oh-ho
   40   1   519   734 # oh-ho
   41   1   530   531 # oh-ho
   42   1   532   533 # oh-ho
   43   1   580   753 # oh-ho
   44   1   581   735 # oh-ho
   45   1   598   754 # oh-ho
   46   1   599   736 # oh-ho
   47   1   610   611 # oh-ho
   48   1   612   613 # oh-ho
   49   1   660   755 # oh-ho
   50   1   661   737 # oh-ho
   51   1   678   756 # oh-ho
   52   1   679   738 # oh-ho
   53   1   690   691 # oh-ho
   54   1   692   693 # oh-ho
   55   2    54    55 # o*-h*
   56   2    54    56 # o*-h*
   57   2    57    58 # o*-h*
   58   2    57    59 # o*-h*
   59   2    60    61 # o*-h*
   60   2    60    62 # o*-h*
   61   2    63    64 # o*-h*
   62   2    63    65 # o*-h*
   63   2    66    67 # o*-h*
   64   2    66    68 # o*-h*
   65   2    69    70 # o*-h*
   66   2    69    71 # o*-h*
   67   2    72   313 # o*-h*
   68   2    72   314 # o*-h*
   69   2    75    76 # o*-h*
   70   2    75    77 # o*-h*
   71   2    78    79 # o*-h*
   72   2    78    80 # o*-h*
   73   2   134   135 # o*-h*
   74   2   134   136 # o*-h*
   75   2   137   138 # o*-h*
   76   2   137   139 # o*-h*
   77   2   140   141 # o*-h*
   78   2   140   142 # o*-h*
   79   2   143   144 # o*-h*
   80   2   143   145 # o*-h*
   81   2   146   147 # o*-h*
   82   2   146   148 # o*-h*
   83   2   149   150 # o*-h*
   84   2   149   151 # o*-h*
   85   2   152   393 # o*-h*
   86   2   152   394 # o*-h*
   87   2   155   156 # o*-h*
   88   2   155   157 # o*-h*
   89   2   158   159 # o*-h*
   90   2   158   160 # o*-h*
   91   2   214   215 # o*-h*
   92   2   214   216 # o*-h*
   93   2   217   218 # o*-h*
   94   2   217   219 # o*-h*
   95   2   220   221 # o*-h*
   96   2   220   222 # o*-h*
   97   2   223   224 # o*-h*
   98   2   223   225 # o*-h*
   99   2   226   227 # o*-h*
  100   2   226   228 # o*-h*
  101   2   229   230 # o*-h*
  102   2   229   231 # o*-h*
  103   2   232   473 # o*-h*
  104   2   232   474 # o*-h*
  105   2   235   236 # o*-h*
  106   2   235   237 # o*-h*
  107   2   238   239 # o*-h*
  108   2   238   240 # o*-h*
  109   2   294   295 # o*-h*
  110   2   294   296 # o*-h*
  111   2   297   298 # o*-h*
  112   2   297   299 # o*-h*
  113   2   300   301 # o*-h*
  114   2   300   302 # o*-h*
  115   2   303   304 # o*-h*
  116   2   303   305 # o*-h*
  117   2   306   307 # o*-h*
  118   2   306   308 # o*-h*
  119   2   309   310 # o*-h*
  120   2   309   311 # o*-h*
  121   2   312   553 # o*-h*
  122   2   312   554 # o*-h*
  123   2   315   316 # o*-h*
  124   2   315   317 # o*-h*
  125   2   318   319 # o*-h*
  126   2   318   320 # o*-h*
  127   2   374   375 # o*-h*
  128   2   374   376 # o*-h*
  129   2   377   378 # o*-h*
  130   2   377   379 # o*-h*
  131   2   380   381 # o*-h*
  132   2   380   382 # o*-h*
  133   2   383   384 # o*-h*
  134   2   383   385 # o*-h*
  135   2   386   387 # o*-h*
  136   2   386   388 # o*-h*
  137   2   389   390 # o*-h*
  138   2   389   391 # o*-h*
  139   2   392   633 # o*-h*
  140   2   392   634 # o*-h*
  141   2   395   396 # o*-h*
  142   2   395   397 # o*-h*
  143   2   398   399 # o*-h*
  144   2   398   400 # o*-h*
  145   2   454   455 # o*-h*
  146   2   454   456 # o*-h*
  147   2   457   458 # o*-h*
  148   2   457   459 # o*-h*
  149   2   460   461 # o*-h*
  150   2   460   462 # o*-h*
  151   2   463   464 # o*-h*
  152   2   463   465 # o*-h*
  153   2   466   467 # o*-h*
  154   2   466   468 # o*-h*
  155   2   469   470 # o*-h*
  156   2   469   471 # o*-h*
  157   2   472   713 # o*-h*
  158   2   472   714 # o*-h*
  159   2   475   476 # o*-h*
  160   2   475   477 # o*-h*
  161   2   478   479 # o*-h*
  162   2   478   480 # o*-h*
  163   2   534   535 # o*-h*
  164   2   534   536 # o*-h*
  165   2   537   538 # o*-h*
  166   2   537   539 # o*-h*
  167   2   540   541 # o*-h*
  168   2   540   542 # o*-h*
  169   2   543   544 # o*-h*
  170   2   543   545 # o*-h*
  171   2   546   547 # o*-h*
  172   2   546   548 # o*-h*
  173   2   549   550 # o*-h*
  174   2   549   551 # o*-h*
  175   2   552    73 # o*-h*
  176   2   552    74 # o*-h*
  177   2   555   556 # o*-h*
  178   2   555   557 # o*-h*
  179   2   558   559 # o*-h*
  180   2   558   560 # o*-h*
  181   2   614   615 # o*-h*
  182   2   614   616 # o*-h*
  183   2   617   618 # o*-h*
  184   2   617   619 # o*-h*
  185   2   620   621 # o*-h*
  186   2   620   622 # o*-h*
  187   2   623   624 # o*-h*
  188   2   623   625 # o*-h*
  189   2   626   627 # o*-h*
  190   2   626   628 # o*-h*
  191   2   629   630 # o*-h*
  192   2   629   631 # o*-h*
  193   2   632   153 # o*-h*
  194   2   632   154 # o*-h*
  195   2   635   636 # o*-h*
  196   2   635   637 # o*-h*
  197   2   638   639 # o*-h*
  198   2   638   640 # o*-h*
  199   2   694   695 # o*-h*
  200   2   694   696 # o*-h*
  201   2   697   698 # o*-h*
  202   2   697   699 # o*-h*
  203   2   700   701 # o*-h*
  204   2   700   702 # o*-h*
  205   2   703   704 # o*-h*
  206   2   703   705 # o*-h*
  207   2   706   707 # o*-h*
  208   2   706   708 # o*-h*
  209   2   709   710 # o*-h*
  210   2   709   711 # o*-h*
  211   2   712   233 # o*-h*
  212   2   712   234 # o*-h*
  213   2   715   716 # o*-h*
  214   2   715   717 # o*-h*
  215   2   718   719 # o*-h*
  216   2   718   720 # o*-h*
  217   2   759   757 # o*-h*
  218   2   759   758 # o*-h*
  219   2   762   760 # o*-h*
  220   2   762   761 # o*-h*
  221   2   765   763 # o*-h*
  222   2   765   764 # o*-h*
  223   2   768   766 # o*-h*
  224   2   768   767 # o*-h*
  225   2   771   769 # o*-h*
  226   2   771   770 # o*-h*
  227   2   774   772 # o*-h*
  228   2   774   773 # o*-h*
  229   2   777   775 # o*-h*
  230   2   777   776 # o*-h*
  231   2   780   778 # o*-h*
  232   2   780   779 # o*-h*
  233   2   783   781 # o*-h*
  234   2   783   782 # o*-h*
  235   2   786   784 # o*-h*
  236   2   786   785 # o*-h*
  237   2   789   787 # o*-h*
  238   2   789   788 # o*-h*
  239   2   792   790 # o*-h*
  240   2   792   791 # o*-h*
  241   2   795   793 # o*-h*
  242   2   795   794 # o*-h*
  243   2   798   796 # o*-h*
  244   2   798   797 # o*-h*
  245   2   801   799 # o*-h*
  246   2   801   800 # o*-h*
  247   2   804   802 # o*-h*
  248   2   804   803 # o*-h*
  249   2   807   805 # o*-h*
  250   2   807   806 # o*-h*
  251   2   810   808 # o*-h*
  252   2   810   809 # o*-h*
  253   2   813   811 # o*-h*
  254   2   813   812 # o*-h*
  255   2   816   814 # o*-h*
  256   2   816   815 # o*-h*
  257   2   819   817 # o*-h*
  258   2   819   818 # o*-h*
  259   2   822   820 # o*-h*
  260   2   822   821 # o*-h*
  261   2   825   823 # o*-h*
  262   2   825   824 # o*-h*
  263   2   828   826 # o*-h*
  264   2   828   827 # o*-h*
  265   2   831   829 # o*-h*
  266   2   831   830 # o*-h*
  267   2   834   832 # o*-h*
  268   2   834   833 # o*-h*
  269   2   837   835 # o*-h*
  270   2   837   836 # o*-h*
  271   2   840   838 # o*-h*
  272   2   840   839 # o*-h*
  273   2   843   841 # o*-h*
  274   2   843   842 # o*-h*
  275   2   846   844 # o*-h*
  276   2   846   845 # o*-h*
  277   2   849   847 # o*-h*
  278   2   849   848 # o*-h*
  279   2   852   850 # o*-h*
  280   2   852   851 # o*-h*
  281   2   855   853 # o*-h*
  282   2   855   854 # o*-h*
  283   2   858   856 # o*-h*
  284   2   858   857 # o*-h*
  285   2   861   859 # o*-h*
  286   2   861   860 # o*-h*
  287   2   864   862 # o*-h*
  288   2   864   863 # o*-h*
  289   2   867   865 # o*-h*
  290   2   867   866 # o*-h*
  291   2   870   868 # o*-h*
  292   2   870   869 # o*-h*
  293   2   873   871 # o*-h*
  294   2   873   872 # o*-h*
  295   2   876   874 # o*-h*
  296   2   876   875 # o*-h*
  297   2   879   877 # o*-h*
  298   2   879   878 # o*-h*
  299   2   882   880 # o*-h*
  300   2   882   881 # o*-h*
  301   2   885   883 # o*-h*
  302   2   885   884 # o*-h*
  303   2   888   886 # o*-h*
  304   2   888   887 # o*-h*
  305   2   891   889 # o*-h*
  306   2   891   890 # o*-h*
  307   2   894   892 # o*-h*
  308   2   894   893 # o*-h*
  309   2   897   895 # o*-h*
  310   2   897   896 # o*-h*
  311   2   900   898 # o*-h*
  312   2   900   899 # o*-h*
  313   2   903   901 # o*-h*
  314   2   903   902 # o*-h*
  315   2   906   904 # o*-h*
  316   2   906   905 # o*-h*
  317   2   909   907 # o*-h*
  318   2   909   908 # o*-h*
  319   2   912   910 # o*-h*
  320   2   912   911 # o*-h*
  321   2   915   913 # o*-h*
  322   2   915   914 # o*-h*
  323   2   918   916 # o*-h*
  324   2   918   917 # o*-h*
  325   2   921   919 # o*-h*
  326   2   921   920 # o*-h*
  327   2   924   922 # o*-h*
  328   2   924   923 # o*-h*
  329   2   927   925 # o*-h*
  330   2   927   926 # o*-h*
  331   2   930   928 # o*-h*
  332   2   930   929 # o*-h*
  333   2   933   931 # o*-h*
  334   2   933   932 # o*-h*
  335   2   936   934 # o*-h*
  336   2   936   935 # o*-h*
  337   2   939   937 # o*-h*
  338   2   939   938 # o*-h*
  339   2   942   940 # o*-h*
  340   2   942   941 # o*-h*
  341   2   945   943 # o*-h*
  342   2   945   944 # o*-h*
  343   2   948   946 # o*-h*
  344   2   948   947 # o*-h*
  345   2   951   949 # o*-h*
  346   2   951   950 # o*-h*
  347   2   954   952 # o*-h*
  348   2   954   953 # o*-h*
  349   2   957   955 # o*-h*
  350   2   957   956 # o*-h*
  351   2   960   958 # o*-h*
  352   2   960   959 # o*-h*
  353   2   963   961 # o*-h*
  354   2   963   962 # o*-h*
  355   2   966   964 # o*-h*
  356   2   966   965 # o*-h*
  357   2   969   967 # o*-h*
  358   2   969   968 # o*-h*
  359   2   972   970 # o*-h*
  360   2   972   971 # o*-h*
  361   2   975   973 # o*-h*
  362   2   975   974 # o*-h*
  363   2   978   976 # o*-h*
  364   2   978   977 # o*-h*
  365   2   981   979 # o*-h*
  366   2   981   980 # o*-h*
  367   2   984   982 # o*-h*
  368   2   984   983 # o*-h*
  369   2   987   985 # o*-h*
  370   2   987   986 # o*-h*
  371   2   990   988 # o*-h*
  372   2   990   989 # o*-h*
  373   2   993   991 # o*-h*
  374   2   993   992 # o*-h*
  375   2   996   994 # o*-h*
  376   2   996   995 # o*-h*
  377   2   999   997 # o*-h*
  378   2   999   998 # o*-h*
  379   2  1002  1000 # o*-h*
  380   2  1002  1001 # o*-h*
  381   2  1005  1003 # o*-h*
  382   2  1005  1004 # o*-h*
  383   2  1008  1006 # o*-h*
  384   2  1008  1007 # o*-h*
  385   2  1011  1009 # o*-h*
  386   2  1011  1010 # o*-h*
  387   2  1014  1012 # o*-h*
  388   2  1014  1013 # o*-h*
  389   2  1017  1015 # o*-h*
  390   2  1017  1016 # o*-h*
  391   2  1020  1018 # o*-h*
  392   2  1020  1019 # o*-h*
  393   2  1023  1021 # o*-h*
  394   2  1023  1022 # o*-h*
  395   2  1026  1024 # o*-h*
  396   2  1026  1025 # o*-h*
  397   2  1029  1027 # o*-h*
  398   2  1029  1028 # o*-h*
  399   2  1032  1030 # o*-h*
  400   2  1032  1031 # o*-h*
  401   2  1035  1033 # o*-h*
  402   2  1035  1034 # o*-h*
  403   2  1038  1036 # o*-h*
  404   2  1038  1037 # o*-h*
  405   2  1041  1039 # o*-h*
  406   2  1041  1040 # o*-h*
  407   2  1044  1042 # o*-h*
  408   2  1044  1043 # o*-h*
  409   2  1047  1045 # o*-h*
  410   2  1047  1046 # o*-h*
  411   2  1050  1048 # o*-h*
  412   2  1050  1049 # o*-h*
  413   2  1053  1051 # o*-h*
  414   2  1053  1052 # o*-h*
  415   2  1056  1054 # o*-h*
  416   2  1056  1055 # o*-h*
  417   2  1059  1057 # o*-h*
  418   2  1059  1058 # o*-h*
  419   2  1062  1060 # o*-h*
  420   2  1062  1061 # o*-h*
  421   2  1065  1063 # o*-h*
  422   2  1065  1064 # o*-h*
  423   2  1068  1066 # o*-h*
  424   2  1068  1067 # o*-h*
  425   2  1071  1069 # o*-h*
  426   2  1071  1070 # o*-h*
  427   2  1074  1072 # o*-h*
  428   2  1074  1073 # o*-h*
  429   2  1077  1075 # o*-h*
  430   2  1077  1076 # o*-h*
  431   2  1080  1078 # o*-h*
  432   2  1080  1079 # o*-h*
  433   2  1083  1081 # o*-h*
  434   2  1083  1082 # o*-h*
  435   2  1086  1084 # o*-h*
  436   2  1086  1085 # o*-h*
  437   2  1089  1087 # o*-h*
  438   2  1089  1088 # o*-h*
  439   2  1092  1090 # o*-h*
  440   2  1092  1091 # o*-h*
  441   2  1095  1093 # o*-h*
  442   2  1095  1094 # o*-h*
  443   2  1098  1096 # o*-h*
  444   2  1098  1097 # o*-h*
  445   2  1101  1099 # o*-h*
  446   2  1101  1100 # o*-h*
  447   2  1104  1102 # o*-h*
  448   2  1104  1103 # o*-h*
  449   2  1107  1105 # o*-h*
  450   2  1107  1106 # o*-h*
  451   2  1110  1108 # o*-h*
  452   2  1110  1109 # o*-h*
  453   2  1113  1111 # o*-h*
  454   2  1113  1112 # o*-h*
  455   2  1116  1114 # o*-h*
  456   2  1116  1115 # o*-h*
  457   2  1119  1117 # o*-h*
  458   2  1119  1118 # o*-h*
  459   2  1122  1120 # o*-h*
  460   2  1122  1121 # o*-h*
  461   2  1125  1123 # o*-h*
  462   2  1125  1124 # o*-h*
  463   2  1128  1126 # o*-h*
  464   2  1128  1127 # o*-h*
  465   2  1131  1129 # o*-h*
  466   2  1131  1130 # o*-h*
  467   2  1134  1132 # o*-h*
  468   2  1134  1133 # o*-h*
  469   2  1137  1135 # o*-h*
  470   2  1137  1136 # o*-h*
  471   2  1140  1138 # o*-h*
  472   2  1140  1139 # o*-h*
  473   2  1143  1141 # o*-h*
  474   2  1143  1142 # o*-h*
  475   2  1146  1144 # o*-h*
  476   2  1146  1145 # o*-h*
  477   2  1149  1147 # o*-h*
  478   2  1149  1148 # o*-h*
  479   2  1152  1150 # o*-h*
  480   2  1152  1151 # o*-h*
  481   2  1155  1153 # o*-h*
  482   2  1155  1154 # o*-h*
  483   2  1158  1156 # o*-h*
  484   2  1158  1157 # o*-h*
  485   2  1161  1159 # o*-h*
  486   2  1161  1160 # o*-h*
  487   2  1164  1162 # o*-h*
  488   2  1164  1163 # o*-h*
  489   2  1167  1165 # o*-h*
  490   2  1167  1166 # o*-h*
  491   2  1170  1168 # o*-h*
  492   2  1170  1169 # o*-h*
  493   2  1173  1171 # o*-h*
  494   2  1173  1172 # o*-h*
  495   2  1176  1174 # o*-h*
  496   2  1176  1175 # o*-h*
  497   2  1179  1177 # o*-h*
  498   2  1179  1178 # o*-h*
  499   2  1182  1180 # o*-h*
  500   2  1182  1181 # o*-h*
  501   2  1185  1183 # o*-h*
  502   2  1185  1184 # o*-h*
  503   2  1188  1186 # o*-h*
  504   2  1188  1187 # o*-h*
  505   2  1191  1189 # o*-h*
  506   2  1191  1190 # o*-h*
  507   2  1194  1192 # o*-h*
  508   2  1194  1193 # o*-h*
  509   2  1197  1195 # o*-h*
  510   2  1197  1196 # o*-h*
  511   2  1200  1198 # o*-h*
  512   2  1200  1199 # o*-h*
  513   2  1203  1201 # o*-h*
  514   2  1203  1202 # o*-h*
  515   2  1206  1204 # o*-h*
  516   2  1206  1205 # o*-h*
  517   2  1209  1207 # o*-h*
  518   2  1209  1208 # o*-h*
  519   2  1212  1210 # o*-h*
  520   2  1212  1211 # o*-h*
  521   2  1215  1213 # o*-h*
  522   2  1215  1214 # o*-h*
  523   2  1218  1216 # o*-h*
  524   2  1218  1217 # o*-h*
  525   2  1221  1219 # o*-h*
  526   2  1221  1220 # o*-h*
  527   2  1224  1222 # o*-h*
  528   2  1224  1223 # o*-h*
  529   2  1227  1225 # o*-h*
  530   2  1227  1226 # o*-h*
  531   2  1230  1228 # o*-h*
  532   2  1230  1229 # o*-h*
  533   2  1233  1231 # o*-h*
  534   2  1233  1232 # o*-h*
  535   2  1236  1234 # o*-h*
  536   2  1236  1235 # o*-h*
  537   2  1239  1237 # o*-h*
  538   2  1239  1238 # o*-h*
  539   2  1242  1240 # o*-h*
  540   2  1242  1241 # o*-h*
  541   2  1245  1243 # o*-h*
  542   2  1245  1244 # o*-h*
  543   2  1248  1246 # o*-h*
  544   2  1248  1247 # o*-h*
  545   2  1251  1249 # o*-h*
  546   2  1251  1250 # o*-h*
  547   2  1254  1252 # o*-h*
  548   2  1254  1253 # o*-h*
  549   2  1257  1255 # o*-h*
  550   2  1257  1256 # o*-h*
  551   2  1260  1258 # o*-h*
  552   2  1260  1259 # o*-h*
  553   2  1263  1261 # o*-h*
  554   2  1263  1262 # o*-h*
  555   2  1266  1264 # o*-h*
  556   2  1266  1265 # o*-h*
  557   2  1269  1267 # o*-h*
  558   2  1269  1268 # o*-h*
  559   2  1272  1270 # o*-h*
  560   2  1272  1271 # o*-h*
  561   2  1275  1273 # o*-h*
  562   2  1275  1274 # o*-h*
  563   2  1278  1276 # o*-h*
  564   2  1278  1277 # o*-h*
  565   2  1281  1279 # o*-h*
  566   2  1281  1280 # o*-h*
  567   2  1284  1282 # o*-h*
  568   2  1284  1283 # o*-h*
  569   2  1287  1285 # o*-h*
  570   2  1287  1286 # o*-h*
  571   2  1290  1288 # o*-h*
  572   2  1290  1289 # o*-h*
  573   2  1293  1291 # o*-h*
  574   2  1293  1292 # o*-h*
  575   2  1296  1294 # o*-h*
  576   2  1296  1295 # o*-h*
  577   2  1299  1297 # o*-h*
  578   2  1299  1298 # o*-h*
  579   2  1302  1300 # o*-h*
  580   2  1302  1301 # o*-h*
  581   2  1305  1303 # o*-h*
  582   2  1305  1304 # o*-h*
  583   2  1308  1306 # o*-h*
  584   2  1308  1307 # o*-h*
  585   2  1311  1309 # o*-h*
  586   2  1311  1310 # o*-h*
  587   2  1314  1312 # o*-h*
  588   2  1314  1313 # o*-h*
  589   2  1317  1315 # o*-h*
  590   2  1317  1316 # o*-h*
  591   2  1320  1318 # o*-h*
  592   2  1320  1319 # o*-h*
  593   2  1323  1321 # o*-h*
  594   2  1323  1322 # o*-h*
  595   2  1326  1324 # o*-h*
  596   2  1326  1325 # o*-h*
  597   2  1329  1327 # o*-h*
  598   2  1329  1328 # o*-h*
  599   2  1332  1330 # o*-h*
  600   2  1332  1331 # o*-h*
  601   2  1335  1333 # o*-h*
  602   2  1335  1334 # o*-h*
  603   2  1338  1336 # o*-h*
  604   2  1338  1337 # o*-h*
  605   2  1341  1339 # o*-h*
  606   2  1341  1340 # o*-h*
  607   2  1344  1342 # o*-h*
  608   2  1344  1343 # o*-h*
  609   2  1347  1345 # o*-h*
  610   2  1347  1346 # o*-h*
  611   2  1350  1348 # o*-h*
  612   2  1350  1349 # o*-h*
  613   2  1353  1351 # o*-h*
  614   2  1353  1352 # o*-h*
  615   2  1356  1354 # o*-h*
  616   2  1356  1355 # o*-h*
  617   2  1359  1357 # o*-h*
  618   2  1359  1358 # o*-h*
  619   2  1362  1360 # o*-h*
  620   2  1362  1361 # o*-h*
  621   2  1365  1363 # o*-h*
  622   2  1365  1364 # o*-h*
  623   2  1368  1366 # o*-h*
  624   2  1368  1367 # o*-h*
  625   2  1371  1369 # o*-h*
  626   2  1371  1370 # o*-h*
  627   2  1374  1372 # o*-h*
  628   2  1374  1373 # o*-h*
  629   2  1377  1375 # o*-h*
  630   2  1377  1376 # o*-h*
  631   2  1380  1378 # o*-h*
  632   2  1380  1379 # o*-h*
  633   2  1383  1381 # o*-h*
  634   2  1383  1382 # o*-h*
  635   2  1386  1384 # o*-h*
  636   2  1386  1385 # o*-h*
  637   2  1389  1387 # o*-h*
  638   2  1389  1388 # o*-h*
  639   2  1392  1390 # o*-h*
  640   2  1392  1391 # o*-h*
  641   2  1395  1393 # o*-h*
  642   2  1395  1394 # o*-h*
  643   2  1398  1396 # o*-h*
  644   2  1398  1397 # o*-h*
  645   2  1401  1399 # o*-h*
  646   2  1401  1400 # o*-h*
  647   2  1404  1402 # o*-h*
  648   2  1404  1403 # o*-h*
  649   2  1407  1405 # o*-h*
  650   2  1407  1406 # o*-h*
  651   2  1410  1408 # o*-h*
  652   2  1410  1409 # o*-h*
  653   2  1413  1411 # o*-h*
  654   2  1413  1412 # o*-h*
  655   2  1416  1414 # o*-h*
  656   2  1416  1415 # o*-h*
  657   2  1419  1417 # o*-h*
  658   2  1419  1418 # o*-h*
  659   2  1422  1420 # o*-h*
  660   2  1422  1421 # o*-h*
  661   2  1425  1423 # o*-h*
  662   2  1425  1424 # o*-h*
  663   2  1428  1426 # o*-h*
  664   2  1428  1427 # o*-h*
  665   2  1431  1429 # o*-h*
  666   2  1431  1430 # o*-h*
  667   2  1434  1432 # o*-h*
  668   2  1434  1433 # o*-h*
  669   2  1437  1435 # o*-h*
  670   2  1437  1436 # o*-h*
  671   2  1440  1438 # o*-h*
  672   2  1440  1439 # o*-h*
  673   2  1443  1441 # o*-h*
  674   2  1443  1442 # o*-h*
  675   2  1446  1444 # o*-h*
  676   2  1446  1445 # o*-h*
  677   2  1449  1447 # o*-h*
  678   2  1449  1448 # o*-h*
  679   2  1452  1450 # o*-h*
  680   2  1452  1451 # o*-h*
  681   2  1455  1453 # o*-h*
  682   2  1455  1454 # o*-h*
  683   2  1458  1456 # o*-h*
  684   2  1458  1457 # o*-h*
  685   2  1461  1459 # o*-h*
  686   2  1461  1460 # o*-h*
  687   2  1464  1462 # o*-h*
  688   2  1464  1463 # o*-h*
  689   2  1467  1465 # o*-h*
  690   2  1467  1466 # o*-h*
  691   2  1470  1468 # o*-h*
  692   2  1470  1469 # o*-h*
  693   2  1473  1471 # o*-h*
  694   2  1473  1472 # o*-h*
  695   2  1476  1474 # o*-h*
  696   2  1476  1475 # o*-h*
  697   2  1479  1477 # o*-h*
  698   2  1479  1478 # o*-h*
  699   2  1482  1480 # o*-h*
  700   2  1482  1481 # o*-h*
  701   2  1485  1483 # o*-h*
  702   2  1485  1484 # o*-h*
  703   2  1488  1486 # o*-h*
  704   2  1488  1487 # o*-h*
  705   2  1491  1489 # o*-h*
  706   2  1491  1490 # o*-h*
  707   2  1494  1492 # o*-h*
  708   2  1494  1493 # o*-h*
  709   2  1497  1495 # o*-h*
  710   2  1497  1496 # o*-h*
  711   2  1500  1498 # o*-h*
  712   2  1500  1499 # o*-h*
  713   2  1503  1501 # o*-h*
  714   2  1503  1502 # o*-h*
  715   2  1506  1504 # o*-h*
  716   2  1506  1505 # o*-h*
  717   2  1509  1507 # o*-h*
  718   2  1509  1508 # o*-h*
  719   2  1512  1510 # o*-h*
  720   2  1512  1511 # o*-h*
  721   2  1515  1513 # o*-h*
  722   2  1515  1514 # o*-h*
  723   2  1518  1516 # o*-h*
  724   2  1518  1517 # o*-h*
  725   2  1521  1519 # o*-h*
  726   2  1521  1520 # o*-h*
  727   2  1524  1522 # o*-h*
  728   2  1524  1523 # o*-h*
  729   2  1527  1525 # o*-h*
  730   2  1527  1526 # o*-h*
  731   2  1530  1528 # o*-h*
  732   2  1530  1529 # o*-h*
  733   2  1533  1531 # o*-h*
  734   2  1533  1532 # o*-h*
  735   2  1536  1534 # o*-h*
  736   2  1536  1535 # o*-h*
  737   2  1539  1537 # o*-h*
  738   2  1539  1538 # o*-h*
  739   2  1542  1540 # o*-h*
  740   2  1542  1541 # o*-h*
  741   2  1545  1543 # o*-h*
  742   2  1545  1544 # o*-h*
  743   2  1548  1546 # o*-h*
  744   2  1548  1547 # o*-h*
  745   2  1551  1549 # o*-h*
  746   2  1551  1550 # o*-h*
  747   2  1554  1552 # o*-h*
  748   2  1554  1553 # o*-h*
  749   2  1557  1555 # o*-h*
  750   2  1557  1556 # o*-h*
  751   2  1560  1558 # o*-h*
  752   2  1560  1559 # o*-h*
  753   2  1563  1561 # o*-h*
  754   2  1563  1562 # o*-h*
  755   2  1566  1564 # o*-h*
  756   2  1566  1565 # o*-h*
  757   2  1569  1567 # o*-h*
  758   2  1569  1568 # o*-h*
  759   2  1572  1570 # o*-h*
  760   2  1572  1571 # o*-h*
  761   2  1575  1573 # o*-h*
  762   2  1575  1574 # o*-h*
  763   2  1578  1576 # o*-h*
  764   2  1578  1577 # o*-h*
  765   2  1581  1579 # o*-h*
  766   2  1581  1580 # o*-h*
  767   2  1584  1582 # o*-h*
  768   2  1584  1583 # o*-h*
  769   2  1587  1585 # o*-h*
  770   2  1587  1586 # o*-h*
  771   2  1590  1588 # o*-h*
  772   2  1590  1589 # o*-h*
  773   2  1593  1591 # o*-h*
  774   2  1593  1592 # o*-h*
  775   2  1596  1594 # o*-h*
  776   2  1596  1595 # o*-h*
  777   2  1599  1597 # o*-h*
  778   2  1599  1598 # o*-h*
  779   2  1602  1600 # o*-h*
  780   2  1602  1601 # o*-h*
  781   2  1605  1603 # o*-h*
  782   2  1605  1604 # o*-h*
  783   2  1608  1606 # o*-h*
  784   2  1608  1607 # o*-h*
  785   2  1611  1609 # o*-h*
  786   2  1611  1610 # o*-h*
  787   2  1614  1612 # o*-h*
  788   2  1614  1613 # o*-h*
  789   2  1617  1615 # o*-h*
  790   2  1617  1616 # o*-h*
  791   2  1620  1618 # o*-h*
  792   2  1620  1619 # o*-h*
  793   2  1623  1621 # o*-h*
  794   2  1623  1622 # o*-h*
  795   2  1626  1624 # o*-h*
  796   2  1626  1625 # o*-h*
  797   2  1629  1627 # o*-h*
  798   2  1629  1628 # o*-h*
  799   2  1632  1630 # o*-h*
  800   2  1632  1631 # o*-h*
  801   2  1635  1633 # o*-h*
  802   2  1635  1634 # o*-h*
  803   2  1638  1636 # o*-h*
  804   2  1638  1637 # o*-h*
  805   2  1641  1639 # o*-h*
  806   2  1641  1640 # o*-h*
  807   2  1644  1642 # o*-h*
  808   2  1644  1643 # o*-h*
  809   2  1647  1645 # o*-h*
  810   2  1647  1646 # o*-h*
  811   2  1650  1648 # o*-h*
  812   2  1650  1649 # o*-h*
  813   2  1653  1651 # o*-h*
  814   2  1653  1652 # o*-h*
  815   2  1656  1654 # o*-h*
  816   2  1656  1655 # o*-h*
  817   2  1659  1657 # o*-h*
  818   2  1659  1658 # o*-h*
  819   2  1662  1660 # o*-h*
  820   2  1662  1661 # o*-h*
  821   2  1665  1663 # o*-h*
  822   2  1665  1664 # o*-h*
  823   2  1668  1666 # o*-h*
  824   2  1668  1667 # o*-h*
  825   2  1671  1669 # o*-h*
  826   2  1671  1670 # o*-h*
  827   2  1674  1672 # o*-h*
  828   2  1674  1673 # o*-h*
  829   2  1677  1675 # o*-h*
  830   2  1677  1676 # o*-h*
  831   2  1680  1678 # o*-h*
  832   2  1680  1679 # o*-h*
  833   2  1683  1681 # o*-h*
  834   2  1683  1682 # o*-h*
  835   2  1686  1684 # o*-h*
  836   2  1686  1685 # o*-h*
  837   2  1689  1687 # o*-h*
  838   2  1689  1688 # o*-h*
  839   2  1692  1690 # o*-h*
  840   2  1692  1691 # o*-h*
  841   2  1695  1693 # o*-h*
  842   2  1695  1694 # o*-h*
  843   2  1698  1696 # o*-h*
  844   2  1698  1697 # o*-h*
  845   2  1701  1699 # o*-h*
  846   2  1701  1700 # o*-h*
  847   2  1704  1702 # o*-h*
  848   2  1704  1703 # o*-h*
  849   2  1707  1705 # o*-h*
  850   2  1707  1706 # o*-h*
  851   2  1710  1708 # o*-h*
  852   2  1710  1709 # o*-h*
  853   2  1713  1711 # o*-h*
  854   2  1713  1712 # o*-h*
  855   2  1716  1714 # o*-h*
  856   2  1716  1715 # o*-h*
  857   2  1719  1717 # o*-h*
  858   2  1719  1718 # o*-h*
  859   2  1722  1720 # o*-h*
  860   2  1722  1721 # o*-h*
  861   2  1725  1723 # o*-h*
  862   2  1725  1724 # o*-h*
  863   2  1728  1726 # o*-h*
  864   2  1728  1727 # o*-h*
  865   2  1731  1729 # o*-h*
  866   2  1731  1730 # o*-h*
  867   2  1734  1732 # o*-h*
  868   2  1734  1733 # o*-h*
  869   2  1737  1735 # o*-h*
  870   2  1737  1736 # o*-h*
  871   2  1740  1738 # o*-h*
  872   2  1740  1739 # o*-h*
  873   2  1743  1741 # o*-h*
  874   2  1743  1742 # o*-h*
  875   2  1746  1744 # o*-h*
  876   2  1746  1745 # o*-h*
  877   2  1749  1747 # o*-h*
  878   2  1749  1748 # o*-h*
  879   2  1752  1750 # o*-h*
  880   2  1752  1751 # o*-h*
  881   2  1755  1753 # o*-h*
  882   2  1755  1754 # o*-h*
  883   2  1758  1756 # o*-h*
  884   2  1758  1757 # o*-h*
  885   2  1761  1759 # o*-h*
  886   2  1761  1760 # o*-h*
  887   2  1764  1762 # o*-h*
  888   2  1764  1763 # o*-h*
  889   2  1767  1765 # o*-h*
  890   2  1767  1766 # o*-h*
  891   2  1770  1768 # o*-h*
  892   2  1770  1769 # o*-h*
  893   2  1773  1771 # o*-h*
  894   2  1773  1772 # o*-h*
  895   2  1776  1774 # o*-h*
  896   2  1776  1775 # o*-h*
  897   2  1779  1777 # o*-h*
  898   2  1779  1778 # o*-h*
  899   2  1782  1780 # o*-h*
  900   2  1782  1781 # o*-h*
  901   2  1785  1783 # o*-h*
  902   2  1785  1784 # o*-h*
  903   2  1788  1786 # o*-h*
  904   2  1788  1787 # o*-h*
  905   2  1791  1789 # o*-h*
  906   2  1791  1790 # o*-h*
  907   2  1794  1792 # o*-h*
  908   2  1794  1793 # o*-h*
  909   2  1797  1795 # o*-h*
  910   2  1797  1796 # o*-h*
  911   2  1800  1798 # o*-h*
  912   2  1800  1799 # o*-h*
  913   2  1803  1801 # o*-h*
  914   2  1803  1802 # o*-h*
  915   2  1806  1804 # o*-h*
  916   2  1806  1805 # o*-h*
  917   2  1809  1807 # o*-h*
  918   2  1809  1808 # o*-h*
  919   2  1812  1810 # o*-h*
  920   2  1812  1811 # o*-h*
  921   2  1815  1813 # o*-h*
  922   2  1815  1814 # o*-h*
  923   2  1818  1816 # o*-h*
  924   2  1818  1817 # o*-h*
  925   2  1821  1819 # o*-h*
  926   2  1821  1820 # o*-h*
  927   2  1824  1822 # o*-h*
  928   2  1824  1823 # o*-h*
  929   2  1827  1825 # o*-h*
  930   2  1827  1826 # o*-h*
  931   2  1830  1828 # o*-h*
  932   2  1830  1829 # o*-h*
  933   2  1833  1831 # o*-h*
  934   2  1833  1832 # o*-h*
  935   2  1836  1834 # o*-h*
  936   2  1836  1835 # o*-h*
  937   2  1839  1837 # o*-h*
  938   2  1839  1838 # o*-h*
  939   2  1842  1840 # o*-h*
  940   2  1842  1841 # o*-h*
  941   2  1845  1843 # o*-h*
  942   2  1845  1844 # o*-h*
  943   2  1848  1846 # o*-h*
  944   2  1848  1847 # o*-h*
  945   2  1851  1849 # o*-h*
  946   2  1851  1850 # o*-h*
  947   2  1854  1852 # o*-h*
  948   2  1854  1853 # o*-h*
  949   2  1857  1855 # o*-h*
  950   2  1857  1856 # o*-h*
  951   2  1860  1858 # o*-h*
  952   2  1860  1859 # o*-h*
  953   2  1863  1861 # o*-h*
  954   2  1863  1862 # o*-h*
  955   2  1866  1864 # o*-h*
  956   2  1866  1865 # o*-h*
  957   2  1869  1867 # o*-h*
  958   2  1869  1868 # o*-h*
  959   2  1872  1870 # o*-h*
  960   2  1872  1871 # o*-h*
  961   2  1875  1873 # o*-h*
  962   2  1875  1874 # o*-h*
  963   2  1878  1876 # o*-h*
  964   2  1878  1877 # o*-h*
  965   2  1881  1879 # o*-h*
  966   2  1881  1880 # o*-h*
  967   2  1884  1882 # o*-h*
  968   2  1884  1883 # o*-h*
  969   2  1887  1885 # o*-h*
  970   2  1887  1886 # o*-h*
  971   2  1890  1888 # o*-h*
  972   2  1890  1889 # o*-h*
  973   2  1893  1891 # o*-h*
  974   2  1893  1892 # o*-h*
  975   2  1896  1894 # o*-h*
  976   2  1896  1895 # o*-h*
  977   2  1899  1897 # o*-h*
  978   2  1899  1898 # o*-h*
  979   2  1902  1900 # o*-h*
  980   2  1902  1901 # o*-h*
  981   2  1905  1903 # o*-h*
  982   2  1905  1904 # o*-h*
  983   2  1908  1906 # o*-h*
  984   2  1908  1907 # o*-h*
  985   2  1911  1909 # o*-h*
  986   2  1911  1910 # o*-h*
  987   2  1914  1912 # o*-h*
  988   2  1914  1913 # o*-h*
  989   2  1917  1915 # o*-h*
  990   2  1917  1916 # o*-h*
  991   2  1920  1918 # o*-h*
  992   2  1920  1919 # o*-h*
  993   2  1923  1921 # o*-h*
  994   2  1923  1922 # o*-h*
  995   2  1926  1924 # o*-h*
  996   2  1926  1925 # o*-h*
  997   2  1929  1927 # o*-h*
  998   2  1929  1928 # o*-h*
  999   2  1932  1930 # o*-h*
 1000   2  1932  1931 # o*-h*
 1001   2  1935  1933 # o*-h*
 1002   2  1935  1934 # o*-h*
 1003   2  1938  1936 # o*-h*
 1004   2  1938  1937 # o*-h*
 1005   2  1941  1939 # o*-h*
 1006   2  1941  1940 # o*-h*
 1007   2  1944  1942 # o*-h*
 1008   2  1944  1943 # o*-h*
 1009   2  1947  1945 # o*-h*
 1010   2  1947  1946 # o*-h*
 1011   2  1950  1948 # o*-h*
 1012   2  1950  1949 # o*-h*
 1013   3  1954  1951 # co-oc
 1014   3  1954  1952 # co-oc
 1015   3  1954  1953 # co-oc

Angles

    1   1     1    20   739 # st-oh-ho
    2   1   162    21   721 # st-oh-ho
    3   1     7    38   740 # st-oh-ho
    4   1     8    39   722 # st-oh-ho
    5   1     5    50    51 # st-oh-ho
    6   1     6    52    53 # st-oh-ho
    7   1    81   100   741 # st-oh-ho
    8   1     2   101   723 # st-oh-ho
    9   1    87   118   742 # st-oh-ho
   10   1    88   119   724 # st-oh-ho
   11   1    85   130   131 # st-oh-ho
   12   1    86   132   133 # st-oh-ho
   13   1   161   180   743 # st-oh-ho
   14   1    82   181   725 # st-oh-ho
   15   1   167   198   744 # st-oh-ho
   16   1   168   199   726 # st-oh-ho
   17   1   165   210   211 # st-oh-ho
   18   1   166   212   213 # st-oh-ho
   19   1   241   260   745 # st-oh-ho
   20   1   402   261   727 # st-oh-ho
   21   1   247   278   746 # st-oh-ho
   22   1   248   279   728 # st-oh-ho
   23   1   245   290   291 # st-oh-ho
   24   1   246   292   293 # st-oh-ho
   25   1   321   340   747 # st-oh-ho
   26   1   242   341   729 # st-oh-ho
   27   1   327   358   748 # st-oh-ho
   28   1   328   359   730 # st-oh-ho
   29   1   325   370   371 # st-oh-ho
   30   1   326   372   373 # st-oh-ho
   31   1   401   420   749 # st-oh-ho
   32   1   322   421   731 # st-oh-ho
   33   1   407   438   750 # st-oh-ho
   34   1   408   439   732 # st-oh-ho
   35   1   405   450   451 # st-oh-ho
   36   1   406   452   453 # st-oh-ho
   37   1   481   500   751 # st-oh-ho
   38   1   642   501   733 # st-oh-ho
   39   1   487   518   752 # st-oh-ho
   40   1   488   519   734 # st-oh-ho
   41   1   485   530   531 # st-oh-ho
   42   1   486   532   533 # st-oh-ho
   43   1   561   580   753 # st-oh-ho
   44   1   482   581   735 # st-oh-ho
   45   1   567   598   754 # st-oh-ho
   46   1   568   599   736 # st-oh-ho
   47   1   565   610   611 # st-oh-ho
   48   1   566   612   613 # st-oh-ho
   49   1   641   660   755 # st-oh-ho
   50   1   562   661   737 # st-oh-ho
   51   1   647   678   756 # st-oh-ho
   52   1   648   679   738 # st-oh-ho
   53   1   645   690   691 # st-oh-ho
   54   1   646   692   693 # st-oh-ho
   55   2    55    54    56 # h*-o*-h*
   56   2    58    57    59 # h*-o*-h*
   57   2    62    60    61 # h*-o*-h*
   58   2    65    63    64 # h*-o*-h*
   59   2    67    66    68 # h*-o*-h*
   60   2    71    69    70 # h*-o*-h*
   61   2   313    72   314 # h*-o*-h*
   62   2    76    75    77 # h*-o*-h*
   63   2    79    78    80 # h*-o*-h*
   64   2   136   134   135 # h*-o*-h*
   65   2   139   137   138 # h*-o*-h*
   66   2   142   140   141 # h*-o*-h*
   67   2   145   143   144 # h*-o*-h*
   68   2   147   146   148 # h*-o*-h*
   69   2   151   149   150 # h*-o*-h*
   70   2   393   152   394 # h*-o*-h*
   71   2   156   155   157 # h*-o*-h*
   72   2   160   158   159 # h*-o*-h*
   73   2   215   214   216 # h*-o*-h*
   74   2   218   217   219 # h*-o*-h*
   75   2   222   220   221 # h*-o*-h*
   76   2   225   223   224 # h*-o*-h*
   77   2   228   226   227 # h*-o*-h*
   78   2   230   229   231 # h*-o*-h*
   79   2   473   232   474 # h*-o*-h*
   80   2   236   235   237 # h*-o*-h*
   81   2   239   238   240 # h*-o*-h*
   82   2   295   294   296 # h*-o*-h*
   83   2   298   297   299 # h*-o*-h*
   84   2   302   300   301 # h*-o*-h*
   85   2   305   303   304 # h*-o*-h*
   86   2   307   306   308 # h*-o*-h*
   87   2   310   309   311 # h*-o*-h*
   88   2   554   312   553 # h*-o*-h*
   89   2   317   315   316 # h*-o*-h*
   90   2   319   318   320 # h*-o*-h*
   91   2   376   374   375 # h*-o*-h*
   92   2   379   377   378 # h*-o*-h*
   93   2   381   380   382 # h*-o*-h*
   94   2   384   383   385 # h*-o*-h*
   95   2   387   386   388 # h*-o*-h*
   96   2   390   389   391 # h*-o*-h*
   97   2   634   392   633 # h*-o*-h*
   98   2   396   395   397 # h*-o*-h*
   99   2   399   398   400 # h*-o*-h*
  100   2   456   454   455 # h*-o*-h*
  101   2   458   457   459 # h*-o*-h*
  102   2   461   460   462 # h*-o*-h*
  103   2   465   463   464 # h*-o*-h*
  104   2   468   466   467 # h*-o*-h*
  105   2   470   469   471 # h*-o*-h*
  106   2   714   472   713 # h*-o*-h*
  107   2   476   475   477 # h*-o*-h*
  108   2   479   478   480 # h*-o*-h*
  109   2   536   534   535 # h*-o*-h*
  110   2   538   537   539 # h*-o*-h*
  111   2   542   540   541 # h*-o*-h*
  112   2   544   543   545 # h*-o*-h*
  113   2   547   546   548 # h*-o*-h*
  114   2   551   549   550 # h*-o*-h*
  115   2    73   552    74 # h*-o*-h*
  116   2   557   555   556 # h*-o*-h*
  117   2   560   558   559 # h*-o*-h*
  118   2   616   614   615 # h*-o*-h*
  119   2   619   617   618 # h*-o*-h*
  120   2   622   620   621 # h*-o*-h*
  121   2   625   623   624 # h*-o*-h*
  122   2   627   626   628 # h*-o*-h*
  123   2   630   629   631 # h*-o*-h*
  124   2   153   632   154 # h*-o*-h*
  125   2   636   635   637 # h*-o*-h*
  126   2   640   638   639 # h*-o*-h*
  127   2   695   694   696 # h*-o*-h*
  128   2   699   697   698 # h*-o*-h*
  129   2   702   700   701 # h*-o*-h*
  130   2   704   703   705 # h*-o*-h*
  131   2   707   706   708 # h*-o*-h*
  132   2   710   709   711 # h*-o*-h*
  133   2   234   712   233 # h*-o*-h*
  134   2   716   715   717 # h*-o*-h*
  135   2   720   718   719 # h*-o*-h*
  136   2   758   759   757 # h*-o*-h*
  137   2   761   762   760 # h*-o*-h*
  138   2   764   765   763 # h*-o*-h*
  139   2   767   768   766 # h*-o*-h*
  140   2   770   771   769 # h*-o*-h*
  141   2   772   774   773 # h*-o*-h*
  142   2   775   777   776 # h*-o*-h*
  143   2   779   780   778 # h*-o*-h*
  144   2   781   783   782 # h*-o*-h*
  145   2   784   786   785 # h*-o*-h*
  146   2   787   789   788 # h*-o*-h*
  147   2   790   792   791 # h*-o*-h*
  148   2   794   795   793 # h*-o*-h*
  149   2   797   798   796 # h*-o*-h*
  150   2   800   801   799 # h*-o*-h*
  151   2   802   804   803 # h*-o*-h*
  152   2   806   807   805 # h*-o*-h*
  153   2   808   810   809 # h*-o*-h*
  154   2   812   813   811 # h*-o*-h*
  155   2   815   816   814 # h*-o*-h*
  156   2   818   819   817 # h*-o*-h*
  157   2   821   822   820 # h*-o*-h*
  158   2   824   825   823 # h*-o*-h*
  159   2   827   828   826 # h*-o*-h*
  160   2   829   831   830 # h*-o*-h*
  161   2   832   834   833 # h*-o*-h*
  162   2   835   837   836 # h*-o*-h*
  163   2   838   840   839 # h*-o*-h*
  164   2   842   843   841 # h*-o*-h*
  165   2   845   846   844 # h*-o*-h*
  166   2   847   849   848 # h*-o*-h*
  167   2   851   852   850 # h*-o*-h*
  168   2   853   855   854 # h*-o*-h*
  169   2   856   858   857 # h*-o*-h*
  170   2   860   861   859 # h*-o*-h*
  171   2   862   864   863 # h*-o*-h*
  172   2   866   867   865 # h*-o*-h*
  173   2   868   870   869 # h*-o*-h*
  174   2   871   873   872 # h*-o*-h*
  175   2   875   876   874 # h*-o*-h*
  176   2   877   879   878 # h*-o*-h*
  177   2   880   882   881 # h*-o*-h*
  178   2   884   885   883 # h*-o*-h*
  179   2   886   888   887 # h*-o*-h*
  180   2   889   891   890 # h*-o*-h*
  181   2   893   894   892 # h*-o*-h*
  182   2   896   897   895 # h*-o*-h*
  183   2   898   900   899 # h*-o*-h*
  184   2   901   903   902 # h*-o*-h*
  185   2   905   906   904 # h*-o*-h*
  186   2   907   909   908 # h*-o*-h*
  187   2   910   912   911 # h*-o*-h*
  188   2   913   915   914 # h*-o*-h*
  189   2   916   918   917 # h*-o*-h*
  190   2   919   921   920 # h*-o*-h*
  191   2   922   924   923 # h*-o*-h*
  192   2   925   927   926 # h*-o*-h*
  193   2   928   930   929 # h*-o*-h*
  194   2   932   933   931 # h*-o*-h*
  195   2   935   936   934 # h*-o*-h*
  196   2   938   939   937 # h*-o*-h*
  197   2   941   942   940 # h*-o*-h*
  198   2   944   945   943 # h*-o*-h*
  199   2   946   948   947 # h*-o*-h*
  200   2   950   951   949 # h*-o*-h*
  201   2   953   954   952 # h*-o*-h*
  202   2   955   957   956 # h*-o*-h*
  203   2   959   960   958 # h*-o*-h*
  204   2   961   963   962 # h*-o*-h*
  205   2   964   966   965 # h*-o*-h*
  206   2   968   969   967 # h*-o*-h*
  207   2   970   972   971 # h*-o*-h*
  208   2   973   975   974 # h*-o*-h*
  209   2   977   978   976 # h*-o*-h*
  210   2   979   981   980 # h*-o*-h*
  211   2   983   984   982 # h*-o*-h*
  212   2   985   987   986 # h*-o*-h*
  213   2   989   990   988 # h*-o*-h*
  214   2   992   993   991 # h*-o*-h*
  215   2   995   996   994 # h*-o*-h*
  216   2   998   999   997 # h*-o*-h*
  217   2  1000  1002  1001 # h*-o*-h*
  218   2  1004  1005  1003 # h*-o*-h*
  219   2  1007  1008  1006 # h*-o*-h*
  220   2  1009  1011  1010 # h*-o*-h*
  221   2  1013  1014  1012 # h*-o*-h*
  222   2  1016  1017  1015 # h*-o*-h*
  223   2  1018  1020  1019 # h*-o*-h*
  224   2  1021  1023  1022 # h*-o*-h*
  225   2  1025  1026  1024 # h*-o*-h*
  226   2  1028  1029  1027 # h*-o*-h*
  227   2  1030  1032  1031 # h*-o*-h*
  228   2  1034  1035  1033 # h*-o*-h*
  229   2  1036  1038  1037 # h*-o*-h*
  230   2  1039  1041  1040 # h*-o*-h*
  231   2  1043  1044  1042 # h*-o*-h*
  232   2  1045  1047  1046 # h*-o*-h*
  233   2  1048  1050  1049 # h*-o*-h*
  234   2  1051  1053  1052 # h*-o*-h*
  235   2  1055  1056  1054 # h*-o*-h*
  236   2  1057  1059  1058 # h*-o*-h*
  237   2  1061  1062  1060 # h*-o*-h*
  238   2  1064  1065  1063 # h*-o*-h*
  239   2  1066  1068  1067 # h*-o*-h*
  240   2  1070  1071  1069 # h*-o*-h*
  241   2  1073  1074  1072 # h*-o*-h*
  242   2  1076  1077  1075 # h*-o*-h*
  243   2  1079  1080  1078 # h*-o*-h*
  244   2  1081  1083  1082 # h*-o*-h*
  245   2  1084  1086  1085 # h*-o*-h*
  246   2  1088  1089  1087 # h*-o*-h*
  247   2  1090  1092  1091 # h*-o*-h*
  248   2  1094  1095  1093 # h*-o*-h*
  249   2  1097  1098  1096 # h*-o*-h*
  250   2  1099  1101  1100 # h*-o*-h*
  251   2  1102  1104  1103 # h*-o*-h*
  252   2  1106  1107  1105 # h*-o*-h*
  253   2  1108  1110  1109 # h*-o*-h*
  254   2  1111  1113  1112 # h*-o*-h*
  255   2  1114  1116  1115 # h*-o*-h*
  256   2  1118  1119  1117 # h*-o*-h*
  257   2  1120  1122  1121 # h*-o*-h*
  258   2  1124  1125  1123 # h*-o*-h*
  259   2  1126  1128  1127 # h*-o*-h*
  260   2  1129  1131  1130 # h*-o*-h*
  261   2  1132  1134  1133 # h*-o*-h*
  262   2  1136  1137  1135 # h*-o*-h*
  263   2  1139  1140  1138 # h*-o*-h*
  264   2  1141  1143  1142 # h*-o*-h*
  265   2  1144  1146  1145 # h*-o*-h*
  266   2  1147  1149  1148 # h*-o*-h*
  267   2  1150  1152  1151 # h*-o*-h*
  268   2  1154  1155  1153 # h*-o*-h*
  269   2  1156  1158  1157 # h*-o*-h*
  270   2  1159  1161  1160 # h*-o*-h*
  271   2  1162  1164  1163 # h*-o*-h*
  272   2  1165  1167  1166 # h*-o*-h*
  273   2  1169  1170  1168 # h*-o*-h*
  274   2  1171  1173  1172 # h*-o*-h*
  275   2  1175  1176  1174 # h*-o*-h*
  276   2  1177  1179  1178 # h*-o*-h*
  277   2  1181  1182  1180 # h*-o*-h*
  278   2  1184  1185  1183 # h*-o*-h*
  279   2  1186  1188  1187 # h*-o*-h*
  280   2  1190  1191  1189 # h*-o*-h*
  281   2  1193  1194  1192 # h*-o*-h*
  282   2  1196  1197  1195 # h*-o*-h*
  283   2  1199  1200  1198 # h*-o*-h*
  284   2  1201  1203  1202 # h*-o*-h*
  285   2  1204  1206  1205 # h*-o*-h*
  286   2  1207  1209  1208 # h*-o*-h*
  287   2  1210  1212  1211 # h*-o*-h*
  288   2  1213  1215  1214 # h*-o*-h*
  289   2  1217  1218  1216 # h*-o*-h*
  290   2  1219  1221  1220 # h*-o*-h*
  291   2  1223  1224  1222 # h*-o*-h*
  292   2  1226  1227  1225 # h*-o*-h*
  293   2  1228  1230  1229 # h*-o*-h*
  294   2  1231  1233  1232 # h*-o*-h*
  295   2  1234  1236  1235 # h*-o*-h*
  296   2  1238  1239  1237 # h*-o*-h*
  297   2  1241  1242  1240 # h*-o*-h*
  298   2  1244  1245  1243 # h*-o*-h*
  299   2  1246  1248  1247 # h*-o*-h*
  300   2  1250  1251  1249 # h*-o*-h*
  301   2  1252  1254  1253 # h*-o*-h*
  302   2  1256  1257  1255 # h*-o*-h*
  303   2  1259  1260  1258 # h*-o*-h*
  304   2  1262  1263  1261 # h*-o*-h*
  305   2  1265  1266  1264 # h*-o*-h*
  306   2  1268  1269  1267 # h*-o*-h*
  307   2  1270  1272  1271 # h*-o*-h*
  308   2  1274  1275  1273 # h*-o*-h*
  309   2  1277  1278  1276 # h*-o*-h*
  310   2  1279  1281  1280 # h*-o*-h*
  311   2  1283  1284  1282 # h*-o*-h*
  312   2  1286  1287  1285 # h*-o*-h*
  313   2  1289  1290  1288 # h*-o*-h*
  314   2  1292  1293  1291 # h*-o*-h*
  315   2  1295  1296  1294 # h*-o*-h*
  316   2  1297  1299  1298 # h*-o*-h*
  317   2  1301  1302  1300 # h*-o*-h*
  318   2  1304  1305  1303 # h*-o*-h*
  319   2  1307  1308  1306 # h*-o*-h*
  320   2  1310  1311  1309 # h*-o*-h*
  321   2  1313  1314  1312 # h*-o*-h*
  322   2  1315  1317  1316 # h*-o*-h*
  323   2  1318  1320  1319 # h*-o*-h*
  324   2  1321  1323  1322 # h*-o*-h*
  325   2  1324  1326  1325 # h*-o*-h*
  326   2  1328  1329  1327 # h*-o*-h*
  327   2  1330  1332  1331 # h*-o*-h*
  328   2  1334  1335  1333 # h*-o*-h*
  329   2  1337  1338  1336 # h*-o*-h*
  330   2  1340  1341  1339 # h*-o*-h*
  331   2  1342  1344  1343 # h*-o*-h*
  332   2  1346  1347  1345 # h*-o*-h*
  333   2  1348  1350  1349 # h*-o*-h*
  334   2  1352  1353  1351 # h*-o*-h*
  335   2  1354  1356  1355 # h*-o*-h*
  336   2  1357  1359  1358 # h*-o*-h*
  337   2  1360  1362  1361 # h*-o*-h*
  338   2  1363  1365  1364 # h*-o*-h*
  339   2  1366  1368  1367 # h*-o*-h*
  340   2  1369  1371  1370 # h*-o*-h*
  341   2  1373  1374  1372 # h*-o*-h*
  342   2  1375  1377  1376 # h*-o*-h*
  343   2  1378  1380  1379 # h*-o*-h*
  344   2  1382  1383  1381 # h*-o*-h*
  345   2  1385  1386  1384 # h*-o*-h*
  346   2  1388  1389  1387 # h*-o*-h*
  347   2  1390  1392  1391 # h*-o*-h*
  348   2  1394  1395  1393 # h*-o*-h*
  349   2  1396  1398  1397 # h*-o*-h*
  350   2  1399  1401  1400 # h*-o*-h*
  351   2  1402  1404  1403 # h*-o*-h*
  352   2  1405  1407  1406 # h*-o*-h*
  353   2  1409  1410  1408 # h*-o*-h*
  354   2  1412  1413  1411 # h*-o*-h*
  355   2  1415  1416  1414 # h*-o*-h*
  356   2  1417  1419  1418 # h*-o*-h*
  357   2  1420  1422  1421 # h*-o*-h*
  358   2  1424  1425  1423 # h*-o*-h*
  359   2  1427  1428  1426 # h*-o*-h*
  360   2  1429  1431  1430 # h*-o*-h*
  361   2  1432  1434  1433 # h*-o*-h*
  362   2  1436  1437  1435 # h*-o*-h*
  363   2  1438  1440  1439 # h*-o*-h*
  364   2  1442  1443  1441 # h*-o*-h*
  365   2  1445  1446  1444 # h*-o*-h*
  366   2  1447  1449  1448 # h*-o*-h*
  367   2  1450  1452  1451 # h*-o*-h*
  368   2  1454  1455  1453 # h*-o*-h*
  369   2  1457  1458  1456 # h*-o*-h*
  370   2  1460  1461  1459 # h*-o*-h*
  371   2  1463  1464  1462 # h*-o*-h*
  372   2  1465  1467  1466 # h*-o*-h*
  373   2  1469  1470  1468 # h*-o*-h*
  374   2  1472  1473  1471 # h*-o*-h*
  375   2  1474  1476  1475 # h*-o*-h*
  376   2  1478  1479  1477 # h*-o*-h*
  377   2  1481  1482  1480 # h*-o*-h*
  378   2  1483  1485  1484 # h*-o*-h*
  379   2  1487  1488  1486 # h*-o*-h*
  380   2  1490  1491  1489 # h*-o*-h*
  381   2  1492  1494  1493 # h*-o*-h*
  382   2  1496  1497  1495 # h*-o*-h*
  383   2  1498  1500  1499 # h*-o*-h*
  384   2  1501  1503  1502 # h*-o*-h*
  385   2  1505  1506  1504 # h*-o*-h*
  386   2  1508  1509  1507 # h*-o*-h*
  387   2  1510  1512  1511 # h*-o*-h*
  388   2  1514  1515  1513 # h*-o*-h*
  389   2  1517  1518  1516 # h*-o*-h*
  390   2  1520  1521  1519 # h*-o*-h*
  391   2  1523  1524  1522 # h*-o*-h*
  392   2  1526  1527  1525 # h*-o*-h*
  393   2  1529  1530  1528 # h*-o*-h*
  394   2  1532  1533  1531 # h*-o*-h*
  395   2  1535  1536  1534 # h*-o*-h*
  396   2  1538  1539  1537 # h*-o*-h*
  397   2  1541  1542  1540 # h*-o*-h*
  398   2  1543  1545  1544 # h*-o*-h*
  399   2  1546  1548  1547 # h*-o*-h*
  400   2  1550  1551  1549 # h*-o*-h*
  401   2  1552  1554  1553 # h*-o*-h*
  402   2  1555  1557  1556 # h*-o*-h*
  403   2  1559  1560  1558 # h*-o*-h*
  404   2  1561  1563  1562 # h*-o*-h*
  405   2  1565  1566  1564 # h*-o*-h*
  406   2  1568  1569  1567 # h*-o*-h*
  407   2  1571  1572  1570 # h*-o*-h*
  408   2  1574  1575  1573 # h*-o*-h*
  409   2  1576  1578  1577 # h*-o*-h*
  410   2  1580  1581  1579 # h*-o*-h*
  411   2  1583  1584  1582 # h*-o*-h*
  412   2  1586  1587  1585 # h*-o*-h*
  413   2  1589  1590  1588 # h*-o*-h*
  414   2  1592  1593  1591 # h*-o*-h*
  415   2  1594  1596  1595 # h*-o*-h*
  416   2  1597  1599  1598 # h*-o*-h*
  417   2  1601  1602  1600 # h*-o*-h*
  418   2  1603  1605  1604 # h*-o*-h*
  419   2  1607  1608  1606 # h*-o*-h*
  420   2  1609  1611  1610 # h*-o*-h*
  421   2  1613  1614  1612 # h*-o*-h*
  422   2  1615  1617  1616 # h*-o*-h*
  423   2  1619  1620  1618 # h*-o*-h*
  424   2  1621  1623  1622 # h*-o*-h*
  425   2  1624  1626  1625 # h*-o*-h*
  426   2  1628  1629  1627 # h*-o*-h*
  427   2  1631  1632  1630 # h*-o*-h*
  428   2  1634  1635  1633 # h*-o*-h*
  429   2  1637  1638  1636 # h*-o*-h*
  430   2  1640  1641  1639 # h*-o*-h*
  431   2  1643  1644  1642 # h*-o*-h*
  432   2  1645  1647  1646 # h*-o*-h*
  433   2  1648  1650  1649 # h*-o*-h*
  434   2  1652  1653  1651 # h*-o*-h*
  435   2  1655  1656  1654 # h*-o*-h*
  436   2  1657  1659  1658 # h*-o*-h*
  437   2  1661  1662  1660 # h*-o*-h*
  438   2  1664  1665  1663 # h*-o*-h*
  439   2  1667  1668  1666 # h*-o*-h*
  440   2  1669  1671  1670 # h*-o*-h*
  441   2  1673  1674  1672 # h*-o*-h*
  442   2  1676  1677  1675 # h*-o*-h*
  443   2  1678  1680  1679 # h*-o*-h*
  444   2  1681  1683  1682 # h*-o*-h*
  445   2  1684  1686  1685 # h*-o*-h*
  446   2  1688  1689  1687 # h*-o*-h*
  447   2  1691  1692  1690 # h*-o*-h*
  448   2  1693  1695  1694 # h*-o*-h*
  449   2  1696  1698  1697 # h*-o*-h*
  450   2  1699  1701  1700 # h*-o*-h*
  451   2  1702  1704  1703 # h*-o*-h*
  452   2  1705  1707  1706 # h*-o*-h*
  453   2  1708  1710  1709 # h*-o*-h*
  454   2  1712  1713  1711 # h*-o*-h*
  455   2  1715  1716  1714 # h*-o*-h*
  456   2  1718  1719  1717 # h*-o*-h*
  457   2  1720  1722  1721 # h*-o*-h*
  458   2  1723  1725  1724 # h*-o*-h*
  459   2  1727  1728  1726 # h*-o*-h*
  460   2  1729  1731  1730 # h*-o*-h*
  461   2  1733  1734  1732 # h*-o*-h*
  462   2  1736  1737  1735 # h*-o*-h*
  463   2  1739  1740  1738 # h*-o*-h*
  464   2  1742  1743  1741 # h*-o*-h*
  465   2  1745  1746  1744 # h*-o*-h*
  466   2  1747  1749  1748 # h*-o*-h*
  467   2  1750  1752  1751 # h*-o*-h*
  468   2  1753  1755  1754 # h*-o*-h*
  469   2  1757  1758  1756 # h*-o*-h*
  470   2  1760  1761  1759 # h*-o*-h*
  471   2  1762  1764  1763 # h*-o*-h*
  472   2  1766  1767  1765 # h*-o*-h*
  473   2  1768  1770  1769 # h*-o*-h*
  474   2  1771  1773  1772 # h*-o*-h*
  475   2  1774  1776  1775 # h*-o*-h*
  476   2  1777  1779  1778 # h*-o*-h*
  477   2  1781  1782  1780 # h*-o*-h*
  478   2  1784  1785  1783 # h*-o*-h*
  479   2  1786  1788  1787 # h*-o*-h*
  480   2  1789  1791  1790 # h*-o*-h*
  481   2  1792  1794  1793 # h*-o*-h*
  482   2  1795  1797  1796 # h*-o*-h*
  483   2  1798  1800  1799 # h*-o*-h*
  484   2  1802  1803  1801 # h*-o*-h*
  485   2  1804  1806  1805 # h*-o*-h*
  486   2  1807  1809  1808 # h*-o*-h*
  487   2  1810  1812  1811 # h*-o*-h*
  488   2  1813  1815  1814 # h*-o*-h*
  489   2  1816  1818  1817 # h*-o*-h*
  490   2  1820  1821  1819 # h*-o*-h*
  491   2  1823  1824  1822 # h*-o*-h*
  492   2  1826  1827  1825 # h*-o*-h*
  493   2  1828  1830  1829 # h*-o*-h*
  494   2  1832  1833  1831 # h*-o*-h*
  495   2  1834  1836  1835 # h*-o*-h*
  496   2  1837  1839  1838 # h*-o*-h*
  497   2  1841  1842  1840 # h*-o*-h*
  498   2  1843  1845  1844 # h*-o*-h*
  499   2  1846  1848  1847 # h*-o*-h*
  500   2  1849  1851  1850 # h*-o*-h*
  501   2  1853  1854  1852 # h*-o*-h*
  502   2  1856  1857  1855 # h*-o*-h*
  503   2  1859  1860  1858 # h*-o*-h*
  504   2  1862  1863  1861 # h*-o*-h*
  505   2  1864  1866  1865 # h*-o*-h*
  506   2  1868  1869  1867 # h*-o*-h*
  507   2  1870  1872  1871 # h*-o*-h*
  508   2  1873  1875  1874 # h*-o*-h*
  509   2  1877  1878  1876 # h*-o*-h*
  510   2  1879  1881  1880 # h*-o*-h*
  511   2  1883  1884  1882 # h*-o*-h*
  512   2  1885  1887  1886 # h*-o*-h*
  513   2  1888  1890  1889 # h*-o*-h*
  514   2  1891  1893  1892 # h*-o*-h*
  515   2  1895  1896  1894 # h*-o*-h*
  516   2  1898  1899  1897 # h*-o*-h*
  517   2  1900  1902  1901 # h*-o*-h*
  518   2  1904  1905  1903 # h*-o*-h*
  519   2  1906  1908  1907 # h*-o*-h*
  520   2  1910  1911  1909 # h*-o*-h*
  521   2  1913  1914  1912 # h*-o*-h*
  522   2  1915  1917  1916 # h*-o*-h*
  523   2  1918  1920  1919 # h*-o*-h*
  524   2  1921  1923  1922 # h*-o*-h*
  525   2  1924  1926  1925 # h*-o*-h*
  526   2  1928  1929  1927 # h*-o*-h*
  527   2  1931  1932  1930 # h*-o*-h*
  528   2  1933  1935  1934 # h*-o*-h*
  529   2  1936  1938  1937 # h*-o*-h*
  530   2  1939  1941  1940 # h*-o*-h*
  531   2  1943  1944  1942 # h*-o*-h*
  532   2  1946  1947  1945 # h*-o*-h*
  533   2  1949  1950  1948 # h*-o*-h*
  534   3  1953  1954  1951 # oc-co-oc
  535   3  1953  1954  1952 # oc-co-oc
  536   3  1951  1954  1952 # oc-co-oc

Impropers

    1   1  1954  1951  1952  1953 # co-oc-oc-oc
