LAMMPS data file via write_data, version 2 Aug 2023, timestep = 6000, units = metal

2008 atoms
9 atom types

-0.10991848683108785 20.64713248683107 xlo xhi
0.1441123399568447 18.43858266004318 ylo yhi
0.45554770508465836 57.46805729491553 zlo zhi
7.9481120099498 0.9757120014320825 -1.8986890588253778 xy xz yz

Masses

1 40.08
2 12.01
3 1.0078
4 1.0078
5 16
6 16
7 16
8 16
9 28.086

Atoms # atomic

304 6 1.378280019611271 2.49366598875677 1.517688980855975 0 0 0
496 6 3.3385673595038075 0.935967338445282 3.7984957903964216 0 1 0
283 1 4.2712676627404775 2.290285453176782 5.110945119448186 0 0 0
1617 5 9.685478709264082 16.538875804596074 57.44279200704685 0 -1 0
1615 3 1.6206104857770178 1.300824627098588 0.492544530623455 0 0 1
602 5 7.702783330816816 0.4800948324008426 2.8565362603443143 0 0 0
459 9 5.875515718737255 0.22584197007643578 4.048613860073132 0 1 0
320 6 5.969637714896858 1.7848379598580741 4.544861619518352 0 1 0
603 3 6.390058090734457 0.1658348501452438 2.7930207204271693 0 0 0
62 5 12.982423577257322 2.145348907228576 3.106202067574982 0 0 0
1326 5 12.632523020143715 0.7711761741258976 2.4511986547824485 0 0 0
1166 3 13.495996860389402 1.5806417246268605 2.1678850067485644 0 0 1
1324 3 11.742042357602308 0.44539507418045987 1.7219288510549684 0 0 0
1022 3 12.405897545001727 2.1233724705974417 0.8632529249359894 0 0 1
1023 5 11.446226621807178 1.3601675172934575 1.086493191740444 0 0 1
1165 3 12.92191138615212 0.8112628642209136 1.0629284190672985 0 0 1
1325 3 12.095662350656216 1.8610982661185964 2.238852410042687 0 0 1
969 5 13.512189038139146 1.98716716050761 1.029157894083499 0 0 1
967 3 14.599337542470998 2.752876766899337 2.4798923296939943 0 0 0
1704 5 18.998998828556196 18.338153752587072 0.8998104757096967 0 0 1
42 6 13.674663549201862 3.053032051064986 3.418289448174766 0 0 0
64 3 13.259512443153499 2.9609867132910503 1.8794631121013585 0 0 0
1 9 18.159612445451693 2.9105364027371854 3.647453337407568 0 0 0
895 3 17.301100813985872 1.8490417167365312 0.8469350265681757 0 1 1
33 6 19.290396089843636 2.5823731313252476 2.9305967224317553 0 1 0
323 6 17.984030871250447 2.0107838085104346 2.7195421762026766 0 0 0
773 6 17.040464474723066 2.934267664733057 3.171906028432125 0 1 0
50 6 19.57744401791651 1.6039729113511598 1.819750447797962 0 1 0
334 3 21.013063849773797 1.4696283114166508 1.2739676289698796 0 0 1
287 1 20.66777573449322 2.9754539101116078 1.9218346114111287 0 0 0
896 3 20.114995247647872 0.28175906364735664 1.0271201973456228 -1 1 1
275 9 2.8413575716597785 4.757044561163875 2.2726587519319654 0 0 0
312 6 3.2414457655829043 5.714451061794744 1.4332574261641535 1 0 0
594 8 3.5371085809391407 6.075187987381642 2.986238430495567 0 0 0
1123 3 2.5617820683830472 4.676778067567804 0.9424842771693449 0 0 1
300 6 3.4636631893899983 6.3119464866253825 4.447289545829239 0 0 0
692 5 5.746987349688881 7.304105253315623 3.4168158662676955 1 0 0
693 3 4.986820190206911 6.173705200133052 3.8923513128168836 1 0 0
586 6 6.265219177325566 7.196929036201231 4.450885921321646 0 0 0
549 9 8.764926012790674 6.113616981599721 1.8982083207963656 0 0 0
631 9 7.2688026752216635 6.562350194914631 4.438813240951037 0 0 0
656 6 8.387745847378614 6.028570930427809 4.084202312726715 0 0 0
1759 3 4.917356435359295 7.478796244310192 4.287495311482354 0 0 1
664 6 6.6132340060006465 6.442068821143173 5.618292579765752 0 0 0
680 6 8.770722062714437 5.427528348175545 2.8695239563852057 0 0 0
124 6 9.322534594952625 4.931676272495724 4.16418399889509 0 0 0
672 6 5.72351026689423 8.379020735921584 4.137943347447624 1 0 0
582 6 9.993220645718564 6.154031507284604 2.052560144659629 0 0 0
54 8 10.076105113739198 4.7883228986148225 2.8642846063515117 0 0 0
1982 3 9.853333079156066 6.088758917150138 3.6405601600282353 0 0 0
9 9 14.047549387060393 3.436668567830757 4.4870666426911185 0 0 0
91 9 9.780525176483334 5.989378670467634 4.8493271396387225 0 0 0
590 6 12.401433450538255 3.2647199039664128 3.1484778654070626 0 1 0
545 9 10.979803259618022 4.49758824196214 2.1846642570620594 0 0 0
562 6 11.783367589001918 3.489499946175765 1.9358787835519355 0 0 0
579 8 10.559688725462197 5.178141998342955 1.1253585553745094 0 0 0
324 8 14.597156077525227 4.026520160766351 3.568329628144844 0 0 0
26 6 17.72817408476447 4.1497971767335535 3.747154680232806 0 0 0
30 6 18.49088496621874 3.6753310976111235 2.5262193114534552 0 0 0
63 3 16.779135852550542 4.3643574038848625 2.4751479034546926 0 0 0
5 9 16.330909976907822 4.7571035145357135 3.552272547901942 0 0 0
22 6 17.49504189435701 3.3122910180810656 1.5906458862156443 0 0 0
39 8 15.294385042695186 4.873770055357215 2.992695576321434 0 0 1
968 3 18.62799157190891 5.432675880753933 4.051700669319677 0 0 1
116 6 15.760278019138804 3.4933209829925063 3.5380016433550363 0 0 0
325 4 16.43558949302495 5.992957811136278 2.7331879600269087 0 0 0
422 5 16.801063834535437 6.690003105223783 1.062865520978979 0 0 0
423 3 17.080000001130802 6.954511449854804 2.0001403802228612 0 0 0
450 4 18.3342505886617 6.773030780623034 3.4156239724393607 0 0 0
90 4 17.18465131616123 5.48157138445686 3.9757926867674755 0 0 1
279 9 18.09551370709028 6.540548949933208 4.776943884096507 0 0 0
309 8 1.7169853943687368 3.8526934280717655 1.5947374321298127 0 0 1
694 3 3.0297710399507087 7.12025726468125 1.7641515676423576 0 0 0
720 4 4.4345985909904 9.535086788326701 1.8600163054504577 1 0 1
144 8 4.87864499210405 9.04601300699988 3.0850566011085903 0 0 0
746 6 4.57365391531637 9.188320085988572 4.545499100038952 1 0 0
652 6 7.003053762321503 10.264884120536598 3.297959174100219 0 0 0
635 9 6.1395018539895245 9.574721837497426 3.715002565795515 0 0 0
136 6 9.607213789042493 11.23298945402449 4.447830579177644 0 0 0
513 3 8.700056341752154 12.289665542523009 3.70688045545185 0 0 0
106 1 8.52273237636794 10.717399572552832 3.6496658163177917 0 0 0
1044 5 6.3672407004376685 11.505332764875893 1.3876027251727168 1 0 1
152 5 9.694643341524092 11.646789741215569 2.079695497264872 0 0 0
153 3 9.835052815904632 11.352393084826586 2.922688725950895 0 0 0
112 6 12.422283980421213 9.06096206267155 3.2203941098265254 0 0 0
154 3 10.153640314768529 10.143122271008593 3.51366195718261 0 0 0
95 9 11.493710752206745 9.741363211949732 3.2119341599799833 0 0 0
129 8 11.073964231284503 10.921085231636404 2.5377066064520983 0 0 0
132 6 10.392571122082174 12.456794736329249 4.1548342153803475 0 0 0
414 8 11.019659710588101 11.178302221967076 4.047236260710166 0 0 0
1491 5 12.053916187333801 11.747617188068643 0.8179456842619298 0 0 1
1756 3 11.63696014909608 12.096524027656228 1.6142549482401067 0 0 1
415 4 10.822196237383684 12.962954477784633 2.567013388658378 0 0 0
99 9 10.92887360517231 11.872318347794321 5.266453473541697 0 0 0
660 6 9.85496242285986 9.432780839477473 5.578132952349537 0 0 0
386 6 19.185110100801143 7.744388994202972 3.123799971198238 0 0 0
827 3 18.67280413856326 9.028520970580793 2.1832815897532 0 0 1
402 6 17.50132051193761 8.117226690114926 1.3732862932401624 0 0 0
476 6 19.43791728870381 12.629362971649725 1.9641606972241537 0 0 0
500 6 19.351902331464743 11.258341715834822 1.563312054729437 0 0 0
1555 3 17.758970040031077 9.606545072568933 0.7198904236829553 0 0 1
1426 3 22.890153587421267 8.269069828247229 2.036847240466864 0 0 1
399 8 19.838989900960613 10.267048000429538 2.2327394519361263 0 0 1
394 6 20.321730306630577 8.5509070780598 2.9811503147875116 0 0 0
361 9 21.310988668722256 8.858947742376236 3.998901047799507 0 0 0
382 6 21.80564606571553 8.803300814887109 2.650351955889091 0 0 0
390 6 21.73267476676136 8.58828360967442 5.05247091913609 0 0 0
365 9 20.137525034559047 11.758129420172802 2.6979683672213923 0 0 0
685 4 21.132427155089623 9.850841904175264 2.9823973067386467 0 0 0
1427 3 23.963584756701813 8.714511391777112 1.0838614003078968 0 0 1
1428 5 25.044239595738198 7.857038661838563 56.272857106773344 0 0 0
880 3 25.555556212721637 7.881214067593101 57.11712205684063 0 0 0
1894 3 5.698020262549463 12.03499288891743 0.8839676412097466 1 0 1
145 4 4.919488748973431 10.705631055781794 0.9483992850231597 0 0 0
214 6 7.997558484653737 13.550466813078124 2.9355206326185432 0 0 0
206 6 6.887340425393802 14.487196990285893 2.654453363526106 0 0 0
181 9 8.413701282706432 13.802583731765685 4.228739943930464 0 0 0
202 6 6.773960169001975 13.219546713638762 1.9216226400917469 0 0 0
219 8 5.9953068749719804 13.45799685692555 0.6638617085761623 0 0 0
504 8 6.725445040580333 15.056622059070664 1.349287576955105 0 0 0
180 4 9.310171121309113 13.65551057445343 3.2882783247084126 0 0 1
505 4 7.915979019550845 17.258149418519015 0.5270405706316638 0 0 0
512 5 12.769486741100641 13.525422541652473 1.9289919024124333 0 0 0
540 4 14.360766182158084 17.18814921372194 1.6192675876871372 0 0 1
1489 3 13.513756288486988 15.92304801475556 0.8402962566047261 0 0 1
1490 3 12.147624423944372 13.370000472727863 1.1973038809749945 0 0 1
514 3 12.662143041220215 14.613221792451204 0.6189199719632518 0 0 0
503 6 12.35721928414662 16.977096319032718 4.538640143271038 0 0 0
489 8 14.959938238029945 15.714237885752222 1.1642524788947852 0 0 0
492 6 14.546356033857156 17.255311570538712 3.341902402149452 0 0 0
924 5 10.42201560069855 17.224316839819807 0.6296855761616066 0 0 1
296 6 15.14903765021577 18.294640435732003 3.8521385668951855 0 -1 0
1235 3 15.47822576144912 17.95459953712897 2.194262337651069 0 0 1
604 3 16.083832453662335 17.586775510887854 3.308632248034003 0 -1 0
455 9 15.541498496834702 16.907703873646888 1.189407689627601 0 0 0
736 1 15.61849750169534 16.50524940768695 4.1184205531236096 0 0 0
774 8 15.57242005798703 16.390929040778726 2.520059047358842 0 0 0
775 4 17.66329950992229 15.940744593475065 0.9578896942616818 0 0 0
1234 3 16.363849760426856 15.904490671531578 1.3383337857912172 0 -1 1
759 8 18.50658826443596 15.43322502645875 2.3603996352183554 0 0 1
757 6 15.689931092921803 13.96314832101697 5.169570566649431 0 0 0
235 4 19.34476845354733 16.680424205420877 2.0269051474465987 0 0 1
1354 3 17.76631377615891 14.435553800753581 1.037221056652274 0 0 0
480 6 20.22168725242955 12.99575279498092 2.92804745574199 0 0 0
766 6 20.491623126820414 14.22706681461024 3.6117655360179235 0 0 0
721 9 21.254528039411568 15.009780972236987 4.5175250311695105 0 0 0
234 8 21.191659180116982 15.483709805690314 1.7540744639812418 0 0 0
725 9 21.09463631469138 14.341805912754792 0.8716785626907033 0 0 0
750 6 19.86863782434802 15.749950716056388 2.948339245097479 0 0 0
762 6 20.765233262146133 14.178589272901782 2.1109674538665786 0 0 0
676 6 21.10616114641276 15.180058590062771 3.1891169667981667 0 0 0
650 1 22.736809520495353 14.949626626165776 4.8786578409156816 0 0 0
646 1 20.186672234798877 16.041586761489192 4.166625211535058 0 0 0
667 6 21.622322733959685 16.283819011022228 4.669108499560288 0 0 0
566 6 20.187361922794654 17.626188698716632 0.7182985596110856 0 -1 0
1090 3 21.82897262490182 13.594272843917196 57.43396112424503 0 0 -1
185 9 26.634580641187682 14.219772695323847 1.9542820428274614 -1 0 0
222 6 27.360934529067883 16.329833435477305 0.596217249281594 0 0 0
303 6 4.398626365672749 0.3507901063552992 6.551327377816251 0 1 0
470 1 3.3422150566529365 0.8185725660246179 5.709169743456813 0 1 0
330 8 0.8469754183629135 1.095236743334496 9.821349782340892 0 0 0
589 6 4.125495267691215 2.4127307567799625 6.800839948449525 0 0 0
271 9 4.255468925780795 3.1152907433611667 5.933995741539774 0 0 0
713 5 2.0021193721512676 2.5717037464977794 9.748733638684328 0 0 0
569 6 5.370438484329172 2.7992951458521724 8.235388589614322 0 0 0
557 1 5.5524684158558815 1.951213287895827 5.983463678764121 0 0 0
585 6 8.077318854753155 0.37749508189979636 7.375426007390484 0 0 0
548 9 7.634669195304148 0.09336390135034145 8.465654932162817 0 0 0
552 9 6.559101461516203 2.254455836514486 7.945274798106268 0 0 0
593 6 6.770358355786527 1.9256678176753252 9.119354857619244 0 0 0
580 6 7.076294030646716 0.5645952735263531 9.639305430735364 0 0 0
732 9 10.79699284368281 0.10235041873687384 6.150145527511528 0 1 0
560 1 6.642658850231257 3.3221976392033654 9.009239859170261 0 0 0
574 6 11.132875173436858 1.089722056788891 6.726748544932281 0 0 0
553 1 12.494680533255808 0.29158301339757686 6.346921263137922 0 0 0
541 9 11.493500714177985 0.6039114507546167 5.511955618001526 0 0 0
17 1 13.506708445223495 1.972791678130518 6.979573628422434 0 0 0
570 6 12.31491484286815 1.4143828476937117 5.5347202653335525 0 0 0
49 6 15.032733001251763 1.3534904437853146 9.636101829549393 0 0 0
573 6 13.010953549235039 0.8145073625069331 7.874894638241349 0 1 0
8 9 14.426742250033046 1.1243016724024686 8.642907845322824 0 0 0
53 6 14.796124269420845 3.3183000137861796 7.98227580270314 0 0 0
40 6 13.791671822932093 1.0118159455764988 9.749558606522651 0 1 0
34 6 12.634132716577337 2.6819325227108988 6.070411240519571 0 0 0
25 6 14.656710736987542 -0.11847422626659354 9.747321776676584 0 0 0
196 1 16.32876338170622 3.525239474022505 7.612939730757578 0 1 0
189 9 17.422640751225877 2.359838504502839 7.499867542087528 0 1 0
319 6 16.26919813224486 2.197982824779633 8.205546995432805 0 0 0
274 9 18.509387971688145 1.9556825614584517 7.33854241035541 0 0 0
282 9 18.235531073281027 3.0168413136169345 7.117829944209543 0 0 0
200 1 15.276817691420241 2.3401475282764133 6.997997353938563 0 1 0
226 6 17.040367023547148 3.216586024802599 6.531543396486525 0 1 0
315 6 18.53565989645563 2.2666202476220914 6.100828083358734 0 0 0
299 6 19.43964697038698 2.4958041233870576 7.974200737221031 0 0 0
83 5 15.88391147154294 0.9328910219897912 10.355654551181889 0 0 0
13 1 19.85943795859535 2.5473119492321055 6.640307681990324 0 0 0
278 9 20.44963150179513 1.149630830902967 9.16019884386309 -1 0 0
341 5 20.848905226419724 3.258494966164838 9.780477883341284 0 0 0
669 8 3.679581470491173 6.734780969181307 5.840713396995123 0 0 0
410 6 24.0357683544979 7.508200103845956 6.991084602196726 0 0 0
556 1 4.572361541326258 5.083729892818552 5.201920587085642 0 0 0
663 6 4.713618126021025 8.270366784468166 6.172651425281532 0 0 0
292 6 5.151538790946546 3.54080358865783 5.3632183874649515 0 0 0
770 6 5.2634162785489735 6.476233358373006 5.588741372941745 1 0 0
544 9 6.235068279058806 3.1429434425465144 7.525614474556417 0 0 0
577 6 6.029990484072672 5.388404427559616 4.914223261346791 0 0 0
139 6 8.463037576420868 7.411627585750384 7.3884273447722 0 0 0
135 6 8.68305571886922 7.044542410050651 9.759863826757735 0 0 0
102 9 8.216945414573635 7.807043608112194 8.518138056295816 0 0 0
643 1 5.6701222428887 8.736794076958377 7.371886675858686 0 0 0
172 3 8.409908846401526 8.19480457834535 9.997995765538755 0 0 0
740 1 13.902950610375228 3.390230051638667 6.2055692922939185 0 1 0
107 1 9.782687731985105 8.10774334939818 6.599567874167175 0 0 0
46 6 12.617237376115233 4.697574872782036 6.111546576117045 0 0 0
729 9 13.353775349302971 5.8079683883236015 6.6654469682993005 0 1 0
16 1 12.068442010960657 6.01979627325455 6.070409421973389 0 0 0
12 9 12.856699641026081 5.218166978661307 7.3912564725731 0 0 0
120 6 10.033155623498446 6.483579691165376 5.954888980107059 0 0 0
29 6 11.371633769503655 7.56359159719631 9.22242638933451 0 0 0
613 3 10.20722838833226 6.681363577083335 9.847066891150604 0 0 0
4 9 11.30670951210515 6.24221361284761 9.322042688056491 0 0 0
123 6 12.130354209452486 4.5740225422717575 8.199985000232688 0 0 0
20 1 12.669649710107368 3.6778332418985293 7.453578326848122 0 0 0
140 6 12.368615921321478 6.415522921814155 7.543768789838534 0 0 0
316 6 18.38337542550317 7.080280132879726 5.885342946098349 0 0 0
393 6 17.983406489948422 8.446985175638662 8.996080478844377 0 0 0
421 4 18.787467774180605 7.3342342338923805 9.126378939013186 0 0 0
290 1 18.91746020689937 7.531030040480946 7.385340138203871 0 0 0
627 3 22.900557960442136 7.997435951464269 7.780169186956272 -1 0 0
638 9 21.400928528003 6.5225187526745705 9.084978068342993 -1 0 0
690 8 21.56530934439163 7.763119183445197 8.34236488693114 -1 0 0
670 6 20.25239333291508 6.98940331634424 9.514447273313822 -1 0 0
433 3 20.363695304236845 7.038132229543777 8.10676303575195 0 0 0
675 6 19.765715482421022 8.64039671809752 8.457112152381649 0 0 0
616 3 21.878252716548726 3.869014161772728 10.051642600892299 -1 0 0
702 3 4.594166086673026 9.77807290809066 8.54789583879344 0 0 0
691 4 4.090266281539283 8.820705364161343 7.358171738239165 0 0 0
94 9 7.975054436158688 10.263388357614886 8.413306849835212 0 0 0
119 6 7.315301202925707 8.924385372728599 8.747868124633118 0 0 0
127 6 6.523399564255445 9.887504536092385 8.072258472674179 0 0 0
205 6 7.166888133801997 10.108767719725408 9.316742769356988 0 0 0
213 6 8.942248244283439 10.916012703522219 7.990543895117399 0 0 0
703 3 5.777271466164608 10.437469212317039 9.14862329682814 0 0 0
171 3 6.06464291834365 9.158230765154096 9.425793642315115 0 0 0
701 5 5.809323180597531 11.006849231265075 9.895048330536463 1 0 0
143 6 10.559562253116201 8.819740679685783 7.918592424842352 0 0 0
110 1 10.19013957523288 10.283661827322522 7.062097601920924 0 0 0
103 1 12.413317273754663 8.83472667774063 10.111537083463324 0 0 0
409 6 13.917549177372722 9.618962284860313 9.535866220475022 0 0 0
230 6 10.955277318180139 11.687709582830896 6.48394983523196 0 0 0
163 3 13.482844294671406 11.913307475573216 9.716780425086156 0 0 0
397 6 12.812580875337687 10.361419032591458 10.269977333453062 0 0 0
475 6 12.48895608541375 13.636960165588922 9.957006755262464 0 0 0
711 3 13.334601995717051 13.199769622591285 9.142506891127697 0 0 0
364 9 13.957227690088876 12.090045922356499 8.441833608492633 0 0 0
389 6 13.903444946910923 10.954749751704995 9.144319801675865 0 0 0
462 9 9.718888711797275 14.550157580568843 9.304759982444894 0 0 0
406 6 14.193400561853183 12.210033381103765 5.689687453415901 0 0 0
377 1 14.455243491647893 12.043737640597346 7.008456895647444 0 0 0
463 1 14.761640353743417 13.635979365708618 6.418919015624508 0 0 0
307 6 16.734162514876736 8.880808085654937 9.871208209816826 0 0 0
405 6 15.444408080085315 9.829585829921447 9.656884976488403 0 0 0
372 9 14.835376603598228 10.210576133574648 8.606717365847635 0 0 0
346 3 17.21853158736285 9.935224483319457 8.82083244752622 0 0 0
380 1 15.875823513831673 12.407357306724437 6.213690494211256 0 0 0
413 6 16.205482652323358 11.338798178352087 7.403297176975331 0 0 0
420 8 18.79118748639686 10.068415875207885 8.759733788011184 0 0 0
431 5 18.672048093591762 10.993242965769598 8.40833654405869 0 0 0
705 3 20.378012435361875 10.118227333358842 8.930282387759187 0 0 0
647 1 23.05259186284621 7.932135571258224 5.909763454339678 0 0 0
642 9 24.292952069900668 10.49070690320017 9.021816009752373 0 0 0
659 6 22.909251938578464 10.520491300962313 9.075383010126322 0 0 0
683 6 23.758823256487513 9.446948605759651 8.410640456594763 0 0 0
754 6 20.324971136043192 11.79537999454946 9.307942893605412 0 0 0
745 6 23.89533600986094 12.829898635478347 10.03942769749313 0 0 0
753 6 23.85294414666363 11.520670866651068 9.412396337674338 0 0 0
432 3 21.83078715875788 9.496179076656459 8.681440894524828 0 0 0
704 5 21.532243285047368 10.732902079805697 9.20423975801086 0 0 0
706 3 21.152826110027338 11.336886246742443 10.302078699341033 0 0 0
765 6 21.5239718630942 12.59988204323701 9.618364538154497 0 0 0
780 8 22.8168406527183 11.63367236782383 10.292708362077853 0 0 0
210 6 8.031040828875549 14.423354003515414 5.193212354482408 0 0 0
193 1 8.151375908062855 14.753492336813464 6.71042348102696 0 0 0
165 3 7.766774062664345 16.58675046505013 8.514367952094752 0 0 0
295 6 8.019349005902203 17.19819707355493 10.29043837150523 0 0 0
240 8 7.64475792686612 15.388325677183662 8.002695775724817 0 0 0
499 6 9.000824366282359 14.761136821733938 8.357117698812075 0 0 0
479 6 9.312201725566801 15.66684482109209 7.323723496627528 0 0 0
467 1 4.480722561209709 0.08135158884333663 4.659167701684151 0 1 0
487 6 10.01584377042579 18.00781563617632 6.1673138175212765 0 0 0
454 9 10.132472330451973 16.577319800348103 7.779146279625687 0 0 0
354 3 9.107336960370063 16.43515564659943 8.494908631251736 0 0 0
466 1 11.000905369729828 17.66237404194404 5.131508847231966 0 0 0
458 9 12.313266037305697 14.042701969504629 8.852108474633743 0 0 0
495 6 11.215835848278601 14.159113618839845 9.15248505853939 0 0 0
166 3 10.164670894051351 15.507268844200537 8.622235858043489 0 0 0
510 8 13.36168505542286 16.49160079524919 8.898278827628761 0 0 0
484 6 17.521600848650394 14.779862833362616 5.734689292552998 0 0 0
724 9 18.657727961121157 15.39338794779112 6.432517423241476 0 0 0
565 6 14.942092697680705 17.4264239066283 9.121810799357666 0 0 0
483 6 14.082208810175686 13.450016382463195 7.879551897813748 0 0 0
369 9 17.78963580899413 16.031166336787685 6.359089392612514 0 0 0
376 1 16.368299292049123 14.178081391222156 6.672768908908244 0 0 0
440 5 14.608674343569497 16.178286612072142 8.956273240005924 0 0 0
451 9 17.797812066201566 14.900569358987568 7.007692617971959 0 0 0
737 1 16.024912025462772 15.539541056783278 5.63250110300323 0 0 0
769 6 16.877658097197205 15.696650904729774 7.062423407125668 0 0 0
634 9 21.42489640568119 15.362849400273307 5.457495566978138 0 0 0
233 6 22.397350150764243 15.21667939461917 6.110775228337018 0 0 0
749 6 21.457846922757124 14.066670106578874 10.209456093580641 0 0 0
217 6 24.01524762194598 16.15229935858572 6.222533548372699 0 0 0
791 5 21.659731491173833 14.923034266678915 9.417934880809467 0 0 0
184 9 21.95536999074492 16.939066151869206 10.042138777634557 0 0 0
268 3 22.16246375399442 15.724185263283491 9.992991275871898 0 0 0
792 3 20.920230876662718 13.016343817519573 10.900434797585314 0 0 0
733 1 21.944378398525117 16.872005417105647 5.924273000900687 0 0 0
192 9 24.14709609904149 13.901268398442763 10.041383015851268 0 0 0
229 6 22.858676220668013 14.554278990973646 9.93560157693937 0 0 0
373 1 23.338814967027282 15.486537183639344 7.361003387828451 0 0 0
197 1 24.21270655660698 14.638231804169342 6.164566882403526 0 0 0
225 6 25.3124814321844 14.076849064769984 9.617499515668882 0 0 0
256 3 7.760912419847338 15.105935703508393 9.424724861731828 1 0 0
164 5 27.432370699291244 15.944372342447185 8.075462404373361 -1 0 0
639 9 24.947309590599815 15.649801173616753 7.060413758004503 0 0 0
679 6 27.059940148242475 14.973403063112684 8.540690009950524 0 0 0
220 6 27.33447891105078 16.087218768835605 9.32597684561777 -1 0 0
188 9 25.88749372303299 14.943620175341135 8.571219113011772 -1 0 0
615 3 1.2758278104714338 2.400795979280765 10.406451422859723 0 0 0
355 3 0.7248302808677047 0.1778886080444419 11.037688693721867 0 0 0
614 5 1.6523346342460938 1.061786987009897 10.850943984391263 0 0 0
331 4 21.50414442735392 1.5027131719437752 11.269305896317382 -1 0 0
82 3 7.82637063055334 1.4778257709339977 12.303164686312723 0 0 0
561 1 6.878538656095846 1.1494687843203493 11.084691806673002 0 0 0
600 8 8.13920327501908 0.3629561289373873 11.098440618736616 0 0 0
801 3 14.67945026553792 17.788231132173973 10.615322689627945 0 0 0
601 4 9.095983345437944 0.7827500810586003 12.157367901717587 0 0 0
598 8 6.509042898377601 1.7706418261289034 13.331631439758242 0 0 0
81 3 6.5793065797828465 2.527979481545888 11.987968948405085 0 0 0
599 4 6.3552150804187 2.889493117639499 13.759255715312154 0 0 0
714 3 7.5346120027463845 3.1089439564871957 13.068489450687592 0 0 0
620 5 5.79262363526355 2.84461755721629 12.863920277403041 0 0 0
45 6 13.730629739308599 1.4859940235250257 11.127819339457949 0 0 0
86 5 10.255607155316879 1.4139067018139262 13.694500170667173 0 0 0
88 3 11.02870254413062 1.0294770780208942 13.210068924246885 0 0 0
41 6 13.754530180065741 2.5255204216293246 13.463912597166388 0 0 0
617 5 12.080470692912789 2.8115597754869768 13.813502841148386 0 0 0
618 3 12.170807069678473 1.8611300554593386 13.717425574318371 0 0 0
80 5 14.325044148836083 2.1114241564937153 10.193505211954058 0 0 0
352 3 14.738623364020945 2.364717791012122 12.329018506304726 0 0 0
625 3 10.464655146042258 0.1302678813993936 12.190773235312742 0 1 0
85 3 14.907546797967688 0.7415416054686614 10.838303050897402 0 1 0
60 8 14.895373635185988 3.6182673345422143 13.29273779746529 0 0 0
610 3 11.622915035089402 0.28759939249385086 14.589750157592038 0 0 0
84 3 15.334822857177219 1.9604848635950938 10.938905212137646 0 0 0
622 3 20.548749608011416 1.9257492661745848 10.33323106232107 0 0 0
310 6 20.385290902050127 0.5506708318664885 10.35776357773637 -1 0 0
353 5 20.608470360388726 1.0010360898455966 11.460001403113637 -1 0 0
350 5 21.277203034276923 2.5544105054642445 11.680023673291638 0 0 0
621 3 20.84989079282487 3.401869064219318 11.016307594334165 0 0 0
115 6 9.219733907416037 6.143061744686065 11.112635258132928 0 0 0
98 9 8.455825260761584 7.081542303247555 11.053242595472112 0 0 0
715 3 7.150885181874358 3.8111550681782878 11.763542342922705 0 0 0
111 1 8.28599867729662 4.646035373272036 11.8941826213859 0 0 0
176 5 6.214948116666605 5.441054602363583 12.733612757022625 0 0 0
177 3 7.140656764363662 5.269491579425814 12.442095299263586 0 0 0
168 3 6.396439785192752 3.9623398557211944 12.917528856404534 0 0 0
178 3 9.316772730042793 7.90244244616594 11.025327850568724 0 0 0
442 3 7.891744384257326 6.087265827898428 11.760729865925445 0 0 0
167 5 6.991313597253366 4.004110819187948 13.913554707562517 0 0 0
169 3 7.850218470878424 4.5859879775133585 13.159928635431552 0 0 0
160 3 7.960740420377654 6.038584572081222 13.370592808589265 0 0 0
265 3 8.981050330399496 5.616095450067888 12.552935162649478 0 0 0
130 6 9.001895943470602 7.130148973743367 12.303889681323104 0 0 0
441 3 8.299712067860826 7.698930686180868 14.712406011839265 0 0 0
97 9 8.766048711331264 6.496381883562979 14.237624699156207 0 0 0
150 8 11.05936653582271 8.227338440681377 10.510670297738912 0 0 0
37 6 11.721761669323916 6.978098542526165 10.436376755871013 0 0 0
611 5 10.802162831657242 6.742266675749381 12.242107116254136 0 0 0
612 3 10.505409380584478 6.931896181877557 11.368273639973756 0 0 0
61 4 16.022463498279137 3.997139168617147 14.306196569812894 0 0 0
434 5 15.071714104197227 6.610667226715126 13.710987665384707 0 0 0
286 1 17.691921112137262 7.697606079836033 10.407952038250734 0 0 0
368 9 14.749241501131978 8.479526891151352 11.504042006115396 0 0 0
385 6 15.807873932640234 8.341425475666375 10.89327344781894 0 0 0
71 5 15.386693667576996 5.726052684302264 12.006038287711059 0 0 0
72 3 15.672397685794241 5.11880760004488 13.261967816566107 0 0 0
73 3 15.402810989478704 6.98024940579333 11.621415807761284 0 0 0
74 5 17.33865756298169 5.132755797086942 13.389165483960786 0 0 0
76 3 16.533461655848235 5.998198501854762 12.116452406877213 0 0 0
344 5 17.43929742761486 6.6544857535262185 12.580127637722871 0 0 0
345 3 16.696673426281116 7.401966158956039 13.30918929799801 0 0 0
75 3 16.92432275544232 6.000047833585094 13.349019424585745 0 0 0
381 1 16.239531521014378 8.62679934396273 13.99525411818454 0 0 0
400 6 16.79093221671269 7.385995715011589 11.878920853568557 0 0 0
435 3 15.63570100385366 8.209473115200055 12.564319302310736 0 0 0
436 3 15.49657892962177 6.640882467909573 12.920225945566688 0 0 0
655 6 21.356603918420166 5.603325932818073 10.002759837688032 -1 0 0
626 5 2.240829712924475 3.732852823001056 11.447709397594059 0 0 0
628 3 22.203592978764263 3.2933566472549027 11.42148633308177 -1 0 0
338 5 22.826583412470555 5.484113334457498 14.1441501955862 -1 0 0
342 3 21.629796384896334 4.730758367682658 11.24361187897784 0 0 0
343 3 20.548133608070348 4.53777962473039 10.13187411533427 0 0 0
651 1 20.22730239450788 4.658662634450641 11.633915105989445 0 0 0
709 3 21.338758587997237 4.014085235989473 12.342393099118308 0 0 0
329 4 22.732534057647847 6.428222774063947 13.348904671091518 -1 0 0
277 9 21.207961226764887 4.389011073681887 13.836718347161925 0 0 0
328 8 21.4456820903783 5.559712363387584 13.981913557348348 0 0 0
707 5 23.50390556404809 6.5884067810913045 14.315085440885005 0 0 0
671 6 22.905762349769947 7.653516861019894 14.360903223115539 0 0 0
438 3 22.22141251165473 6.432544622935124 14.624113056701733 0 0 0
710 5 6.37623543636722 8.77779126695374 10.286487616790565 0 0 0
263 5 9.262763640025335 9.54588309649392 14.523143310121648 0 0 0
201 1 6.643164797019692 9.275716392946157 14.748688904703947 0 0 0
162 3 13.831621827070752 9.24260999141698 10.804386752341415 0 0 0
151 4 14.018385449967534 10.738068657398639 10.567815165416626 0 0 0
161 5 13.765497434242434 11.226821231680066 11.285268862678105 0 0 0
490 6 11.935170917843333 14.83180385792955 9.96954960333462 0 0 0
717 3 17.312403450990573 9.617565047582794 14.392797005004699 0 0 0
448 3 16.012899482818806 10.141819214563997 14.302113828813956 0 0 0
446 5 16.747486654473658 11.721539955939358 14.79253151608049 0 0 0
806 5 19.328768361883693 13.64741055608718 12.588161996224303 0 0 0
728 9 21.896100228898085 12.268711087317243 10.797562861094422 0 0 0
261 3 22.75471528882067 13.237562414397427 10.574579793958502 0 0 0
797 5 22.14288458638401 11.80394702932943 15.03510261441779 0 0 0
805 3 24.189504349744553 11.251277626391033 15.166567667696434 0 0 0
674 6 23.87825241596617 9.63463170839108 14.773501853145028 0 0 0
803 5 24.19231862419653 11.326324596041976 14.240142102236227 0 0 0
760 6 20.54592383084417 13.691847773803921 11.45943635981496 0 0 0
251 5 8.299257682463985 17.17863567862664 12.339722553840696 0 0 0
241 4 27.571041734336575 15.327491993312307 12.18568478661703 -1 0 0
252 3 8.96972115635984 16.071347128547504 13.930479243727236 0 0 0
253 3 7.782046235318269 16.625032879876187 11.606988165213375 0 0 0
260 5 8.875213384873442 14.853528914772518 14.795174147191997 0 0 0
532 3 26.38615416152325 14.57568924108458 12.00571446486413 -1 0 0
538 3 7.809164434954106 16.060500539019117 13.00986682511774 0 0 0
239 4 27.376763280291954 14.870911227992748 14.942403913844867 0 0 0
522 3 11.660166444290477 15.58783684517781 8.522222602142886 0 0 0
526 3 12.200819024739067 16.397477222959633 9.68739886496873 0 0 0
521 5 14.013012106058556 17.758663941545525 9.330744498075502 0 0 0
525 3 13.388622067917805 17.14720338237982 10.192115558410679 0 0 0
712 3 13.630134276278296 14.99164261594078 9.333859061036993 0 0 0
524 5 12.052686216828445 17.120291386147585 8.850448915900685 0 0 0
523 3 15.99641820565764 17.750773055382243 9.98156651196158 0 0 0
802 3 14.670420974694805 16.549473932989425 10.065216507806444 0 0 0
511 4 13.748187379324529 15.645465983563085 10.277842188625794 0 0 0
794 5 13.802788100903022 15.802256128360087 11.193802336028684 0 0 0
530 5 15.544753575686034 16.198108133312974 10.343775690401628 0 0 0
623 5 18.20252075047897 17.97035563938298 11.296352234617784 0 -1 0
793 3 19.618688179058804 17.534816612058755 12.34902352233149 0 0 0
254 5 20.233333632276867 13.964692417114124 10.184552799968042 0 0 0
209 6 13.70969746475429 -0.08955501420640044 10.849015134887546 0 1 0
624 3 21.2263631368078 14.681138665717892 10.507147372055837 0 0 0
87 3 19.665233237835423 17.15242466898681 13.855952426788162 0 -1 0
807 3 20.013975984920286 14.286104289965122 12.784339120294463 0 0 0
796 3 19.96711632742673 14.14304234822507 14.150698141321625 0 0 0
795 3 19.952293282682234 14.851131515588003 11.219997619848417 0 0 0
808 3 19.762644637432402 15.778983859894812 13.907937053193159 0 0 0
262 3 20.16032318265122 16.527137739903853 11.550207600141341 0 0 0
781 4 20.90384830722576 15.975930854509407 10.27152276627159 0 0 0
21 1 12.86460526179442 0.7112121965719941 12.071091885683414 0 1 0
800 5 21.703817526958154 13.88530274523076 11.32083905750978 0 0 0
77 5 26.00608019756704 13.463926759900529 13.309906049392746 0 0 0
79 3 25.40864154787093 14.51226575031776 10.837476595463142 0 0 0
255 3 26.543950866255354 14.691226179055553 9.665732913482866 0 0 0
238 8 26.773513169861886 14.337508954801741 13.573597898256498 0 0 0
298 6 0.8515787499322045 0.09960720843996862 19.599384947722214 0 1 0
339 3 4.566795709902688 -0.39266558309497734 16.81984951330012 0 0 0
588 6 4.687909779984133 0.9615165071883429 16.25058014231412 0 0 0
340 3 6.219562177488914 0.47321057621803353 16.756060295906593 0 0 0
543 9 7.013611845828897 1.1329333423296835 17.19839223141687 0 0 0
547 9 5.787194105675101 2.2347111113406757 14.625590622336217 0 0 0
581 6 5.305224666189963 2.09331606198331 15.721976819751124 0 0 0
584 6 6.531425207625967 1.4237859644477724 15.431253242999793 0 0 0
658 6 6.060374808453638 2.0896175119805265 16.81165181143981 0 0 0
568 6 8.32438912815601 0.4908863703056098 17.830590672352525 0 1 0
32 6 13.444655191638107 1.9205054713478658 14.807851852811837 0 0 0
24 6 13.154073572700476 1.1447737338916735 16.156832657883417 0 0 0
174 3 14.408572579739547 1.9092571671315892 16.136733472231157 0 0 0
572 6 10.219688259980403 0.9675124715765603 18.888593627479587 0 0 0
7 9 15.019716777120513 1.3142535233884156 17.271100448977293 0 0 0
36 6 12.14168803562477 0.16412399436660396 16.1482414721825 0 0 0
351 3 15.97380718045267 3.0544912197280487 15.644188569058505 0 0 0
291 1 17.280348950322637 2.929570897338612 16.43976042996083 0 0 0
44 6 15.2190108512272 2.545082706921545 17.30009100483298 0 0 0
58 8 17.2856905950304 2.322891400215176 19.26994495688469 0 0 0
59 4 15.959296197799947 1.8076392582067502 16.45650355000177 0 0 0
357 3 19.114535980866325 1.7123580235994993 17.7276487586065 0 0 0
142 6 16.802372335128872 3.5451221094648977 19.690694767063363 0 0 0
396 6 18.37565035890258 2.8672415163484732 18.594508993898184 0 0 0
175 3 18.662334093077416 2.7704988918988467 16.922261435560557 0 0 0
14 1 18.638751133488313 1.7004945458029188 19.333622387409804 0 0 0
70 3 20.086098756698735 2.436573457943455 17.1150722190211 0 0 0
302 6 19.750185291945883 0.9664569573081452 18.431876313972616 -1 0 0
68 5 20.856614699041426 1.9092659904496108 17.230360215360314 0 0 0
273 9 19.904559857786595 0.1526671209241961 19.409636620386564 -1 0 0
645 1 3.8839459725539776 5.849341791575581 19.236887952154163 0 0 0
662 6 5.078701408753635 4.134071818156093 17.74277159396227 0 0 0
649 1 4.9817776051158615 5.435711729490737 18.583286483763136 0 0 0
551 9 6.028949070586158 3.2930850557776985 17.429114595162766 0 0 0
633 9 6.329017788522827 4.171426441959498 17.927269460076612 0 0 0
567 6 9.500269769545689 8.015587789656982 18.901175869687954 0 0 0
682 6 6.532042974925413 5.283231805088 18.307112169333415 0 0 0
681 6 9.577121253458442 6.503046939176285 18.391245950510875 0 0 0
126 6 8.924977732607612 6.508126183972926 15.623500633825424 0 0 0
575 6 8.837427662207151 6.379410952505968 16.994177687820383 0 0 0
640 9 8.38541457218714 5.996552564175064 18.16403808045139 0 0 0
673 6 7.682145843192234 6.943229666586274 17.606384730714193 0 0 0
657 6 7.262002754116585 8.409061848359185 17.31781983805574 0 0 0
661 6 8.380641059333149 7.171204825871354 18.894971529288267 0 0 0
558 1 5.894298456498927 4.100165451666983 19.269237096468725 0 0 0
131 6 9.738058702841318 7.371534224731372 14.683261938167814 0 0 0
170 5 11.122440020527891 8.52263021299845 14.768983551757096 0 0 0
118 6 10.920865232623672 7.184408120469752 18.074948393016246 0 0 0
158 5 11.732515436477591 8.105955204614785 17.549357913262252 0 0 0
159 3 10.78636291678735 7.9820054083527925 16.802682983684225 0 0 0
122 6 12.100292468467229 6.47078877078514 18.736347510077135 0 0 0
11 9 12.674995797453315 5.548987674349007 19.28089031988769 0 0 0
141 6 13.912592937527396 5.596781640394456 19.26232166558241 0 0 0
105 1 13.397853344039088 6.927150178373987 18.730876176385568 0 0 0
93 9 10.738488139415315 7.851255475358735 19.23973218814531 0 0 0
294 6 18.25264903640949 3.9517293344806133 15.927144303369662 0 0 0
358 3 17.239455682317267 3.480839017297542 15.003029697260114 0 0 0
356 5 19.48537147287148 3.1355888608483538 18.045819024217902 0 0 0
388 6 19.468630417519265 4.146353400355332 17.007126975687516 0 0 0
384 6 14.992989073385635 8.313671398027948 18.649576158437895 0 0 0
311 6 19.64687428554097 3.2646749818908303 15.868040201357708 0 0 0
173 5 19.570739308034778 4.507740957446819 15.779503575661803 0 0 0
708 3 22.810230867478438 6.193894838173563 15.009969804481239 0 0 0
318 6 20.2598088780596 3.2522642810730673 17.178043528851912 0 0 0
666 6 23.123493487828373 5.994940932054525 19.763264516241264 0 0 0
281 9 20.79964207335688 4.381077315355555 17.602576159242176 0 0 0
314 6 20.761625586123404 4.427567820224342 16.321105487619626 0 0 0
412 6 20.68722072906414 4.562021802554288 15.08264720559283 0 0 0
428 5 21.790451103736967 7.002849595175467 15.461155397084568 0 0 0
430 3 21.272640565341238 5.945252230526761 15.54243939220155 0 0 0
437 5 22.30813486251888 5.997462115912531 16.07057818572365 0 0 0
439 3 22.092859657311088 4.907370447569568 15.03971654254405 0 0 0
654 6 23.03307473578853 7.2546541842859105 15.858498575280919 -1 0 0
288 1 21.5692279298935 6.5106791289648225 18.636028318697598 0 0 0
379 1 22.12805535839973 7.7830211482613665 19.92654997326872 0 0 0
370 9 22.867652373435856 5.4112629274931985 18.845147296783356 0 0 0
392 6 22.80872675189939 7.674474163690993 18.70261901951232 0 0 0
259 3 9.584185158421045 9.324221698819352 16.500723817998598 0 0 0
264 3 9.170516657226052 8.933249939291288 15.218937187915799 0 0 0
698 5 7.425043891144116 9.885192856220193 16.936887601322308 0 0 0
700 3 6.483898131738321 9.113159709105853 16.151476843889036 0 0 0
134 6 8.224842756957823 9.209289475550744 16.632615370099494 0 0 0
689 4 5.535636112179354 10.181918361969462 16.715735865581735 0 0 0
138 6 7.1392789679207205 10.281741538829857 15.763062916259196 0 0 0
208 6 5.82301173988561 10.248483064589308 15.440829230849143 0 0 0
257 5 8.512607929708249 10.120886346027628 15.988505798348765 0 0 0
258 3 7.887169262403963 9.140488896228629 15.704804096584981 0 0 0
788 5 6.194576917425706 11.026341938485114 16.228676389003606 1 0 0
216 6 7.373058358437238 12.32721728156649 18.954800833267683 1 0 0
101 9 8.315712000274342 13.320859935352836 18.689283141431503 0 0 0
114 6 10.781855199791961 8.487694140126361 18.181423484207567 0 0 0
149 4 10.52074351548422 8.604075913260838 15.4598408950776 0 0 0
148 8 11.201893071816075 9.140486945321172 17.230747568483654 0 0 0
408 6 11.008117257845381 9.654989446661954 16.025773950944018 0 0 0
453 9 13.704455711340238 11.71980873073878 18.879805288898517 0 0 0
474 6 12.057959183670429 12.914568271324525 17.52656781551391 0 0 0
478 6 12.84612357014517 11.606690710053828 17.99964569464729 0 0 0
527 5 12.82570671191594 12.62536831714718 15.91183590693398 0 0 0
528 3 13.163176339911827 12.490947737786364 16.715534767121195 0 0 0
371 9 11.735101979909865 10.420870845119158 16.56128746252717 0 0 0
404 6 13.209623304888005 10.81632488278952 16.772323597437868 0 0 0
534 3 11.96510468000084 11.602831762918054 16.784532811194442 0 0 0
535 3 14.174716747556621 11.64309258931581 17.322887367620663 0 0 0
482 6 13.44826356946073 12.89896719284697 18.124531495281392 0 0 0
367 9 14.735189482699331 10.920995609566951 16.598639168965047 0 0 0
716 5 18.126490375688412 10.561894076809992 14.850145432816657 0 0 0
447 3 16.99590768230731 10.849760029443168 15.139391956547797 0 0 0
718 3 17.888924307028145 9.751502283150343 15.829814308516594 0 0 0
445 3 18.132376210995773 11.213736743837627 16.010177370777587 0 0 0
741 1 19.48030177458897 11.244915437446174 16.866214916709474 0 0 0
401 6 16.424142558250203 9.448219528448146 15.631070545901235 0 0 0
419 4 16.868458423014847 10.559532393210823 16.59317133005596 0 0 0
533 5 16.95351397645173 11.146486354897872 17.345378154054234 0 0 0
444 3 18.272224570253123 10.288682731819222 17.09145222362887 0 0 0
529 3 15.58056546313238 10.708760746580007 15.781544641587294 0 0 0
443 5 17.072705582459346 9.327602004648218 16.704392588170467 0 0 0
418 8 15.647722295421882 9.984673045456976 16.945556105958797 0 0 0
772 6 22.598590743455453 11.678658240167554 15.842153505894704 0 0 0
699 3 24.065933728842626 8.2506592463017 15.231637167692371 -1 0 0
756 6 19.710856324604112 10.14206919593935 18.73963032633457 0 0 0
744 6 20.20806152494923 13.293780262108678 17.011041959441165 0 0 0
363 9 22.424160088855498 8.691770111326747 19.026192752119115 0 0 0
429 3 22.543409032748876 8.650997427500421 15.392303540661958 0 0 0
266 5 24.26358364155391 12.527690226072226 16.355601603619967 0 0 0
267 3 23.709382715708198 10.778049772949316 16.515674983802654 0 0 0
804 3 22.79525275136814 10.222317062115788 15.399055148220796 0 0 0
637 9 23.60617759909107 9.19912224725025 15.861296722611959 0 0 0
723 9 21.57854005205282 11.708361246432704 18.239915984666872 0 0 0
748 6 20.870248905662415 12.03382527032409 17.239832269431297 0 0 0
789 3 23.80458811204706 12.14485120848584 17.489491396062782 0 0 0
798 3 22.509080473072917 11.505039536746603 17.405963146789794 0 0 0
799 3 20.53930714016714 12.168890354612758 16.00443846258498 0 0 0
752 6 21.873481008508417 12.682339384560985 16.896587306024262 0 0 0
641 9 21.559871089043494 11.05368792015381 19.503334827197122 0 0 0
688 8 24.878325183926453 9.963079187992921 15.751025819033007 -1 0 0
221 6 25.25899049584557 12.557277978483754 15.037175651791769 0 0 0
790 3 5.165265292384062 11.157456754286159 15.214451774390486 1 0 0
78 3 25.217880495149274 11.649899123875473 16.534330465099185 0 0 0
28 6 25.013627178984862 12.673912590050223 17.43098552015899 0 0 0
536 5 9.999819382318092 15.426548126124917 14.719375544522931 0 0 0
249 3 8.179393415144782 14.945060935188673 16.01175137526062 0 0 0
471 1 9.086784057566684 14.233194398866743 17.167094015314625 0 0 0
348 3 9.40349538002003 15.649477090497408 16.844217180961135 0 0 0
531 3 7.660465814364542 16.05463694079996 14.913729154377002 0 0 0
248 5 8.501071543224967 16.338468555287925 16.114328380390745 0 0 0
250 3 8.852054342581539 15.863357768853382 15.140154208422022 0 0 0
347 5 8.749151805739842 16.97689107085689 14.931112287305433 0 0 0
349 3 9.444891985762956 15.988028593145165 15.533636732569434 0 0 0
212 6 7.537069778240763 14.118990241714187 18.137368572441613 0 0 0
195 1 6.39574954694101 13.539821919512546 18.49979848593534 0 0 0
457 9 11.445869411159096 14.13310213375885 17.263854350748385 0 0 0
518 5 14.215165475071913 13.496333729243462 18.110049249426677 0 0 0
508 8 12.859466457459964 14.274399498130009 17.505971381010838 0 0 0
491 6 10.512646818111085 14.63904157548955 16.880994309730713 0 0 0
537 3 9.507271904971978 14.591982183899468 15.778788990654817 0 0 0
322 6 12.048358702034152 15.548056069822085 17.181675004924646 0 0 0
494 6 10.637877292044566 15.900701818180229 15.75081635152739 0 0 0
520 3 11.235899613916988 17.004127347084736 16.61265151238289 0 0 0
509 4 13.687660383260775 15.511579959787227 17.845914343657345 0 0 0
464 1 14.12481654589216 16.598277602893088 19.074012601642423 0 0 0
576 6 13.635591540925372 16.9346870317866 17.477216534451784 0 -1 0
564 6 7.132764970552229 -0.21041873142988393 17.603842479845905 0 0 0
519 3 15.096410673500419 16.496104624680427 17.76590354199457 0 0 0
619 3 9.744345485317224 -0.12666498583836328 17.99012542500228 0 1 0
731 9 17.58083142747604 17.028323166728168 18.75684015953462 0 0 0
764 6 18.290548680565543 17.12025785660711 17.323018093060305 0 0 0
768 6 16.623190297217665 16.97717122687045 17.96609384728791 0 0 0
609 3 19.36611461424735 17.238665409528455 16.10958768618039 0 0 0
779 4 18.969524802952733 15.888436727797721 16.595224157424045 0 0 0
778 8 19.651370864390824 15.259796994925196 15.521405261842869 0 0 0
608 5 19.444305719455485 16.53609620159665 15.043495109037513 0 0 0
761 6 20.044828751201106 13.794933981655024 15.726508261518257 0 0 0
727 9 19.65296554012512 14.584553935767545 16.7697563380434 0 0 0
69 3 26.105087199319613 13.956227110787433 14.902952533098986 0 0 0
224 6 25.31143448781265 13.412052100447646 16.36239171178004 0 0 0
204 6 25.130948362341588 14.635673499451372 18.193322474327182 0 0 0
187 9 25.809631170366938 13.469278991966846 17.777170417939185 0 0 0
194 1 26.17169143148729 16.320978210353452 18.580218783382016 -1 0 0
280 9 2.1005568091279176 0.4353790224365838 23.461225922303782 0 0 0
297 6 3.0412021096873527 1.6954489587295098 23.578811258924517 0 0 0
313 6 3.147953190950032 0.5088367419552029 24.33224871389887 0 0 0
317 6 1.0997945148015338 -0.30979117442581866 23.043401211314347 0 0 0
321 6 1.7222760325175326 1.7491032633754047 21.94040566248237 0 0 0
468 1 0.7548109402152492 -0.24660733022243025 21.464487113251867 0 1 0
1642 3 2.258701787986719 -0.5310368038213363 24.487959641372473 0 1 0
1000 3 3.1779316725727966 3.154995600084673 23.939988114046912 0 0 0
606 3 4.5739562061712435 2.4529518876167264 24.033421292340044 0 0 0
605 5 6.818159229469135 3.002450751204931 23.98062759072101 0 0 0
48 6 15.858665587607533 2.58291569288955 19.60188778499384 0 0 0
554 1 11.320609187935544 1.038378334671917 20.13661623466286 0 0 0
3 9 14.812014640953464 1.518070151123424 19.83051379379871 0 0 0
555 1 11.9178639181139 2.4303164626644516 20.808177806711612 0 0 0
18 1 13.08014863712 0.4144353109014868 19.938182221211346 0 0 0
550 9 10.610148783924533 1.8989929818557565 19.547101561710466 0 0 0
559 1 13.680975427878026 2.01291920588018 20.509899710329314 0 0 0
587 6 12.42962115272851 1.716039622194001 19.530593217961574 0 0 0
563 6 12.633014904018614 1.1044674286670948 21.553188113290947 0 1 0
47 6 15.263592267131058 -0.4090826832482233 22.728307163329898 0 0 0
2 9 17.644041253397877 2.6820358170794165 21.64218181151969 0 0 0
10 9 15.864801898757095 0.398714491642975 22.09197271942985 0 0 0
35 6 15.990228724915777 1.5995307462991715 23.39155200695003 0 0 0
51 6 16.220862466317445 1.9016646161172122 18.18076723832898 0 0 0
113 6 16.8595169220248 2.37804024962802 22.5883096956 0 0 0
121 6 17.928989086092937 2.762952269136199 20.39538083251165 0 0 0
416 8 18.08646130199154 3.512563980266052 22.645022019463998 0 0 0
1524 5 19.166904710325454 3.532088279028119 23.124300695744406 0 0 0
19 1 24.454210680375176 17.479553143341082 21.627196918226645 0 -1 0
289 1 21.305858057158513 1.1545203156396704 20.56895126827946 -1 0 0
285 1 20.9290091364302 1.1634158743165433 22.258335880134137 -1 0 0
306 6 19.90906314350339 0.4735613940702169 21.047566531038946 0 1 0
677 6 3.5955563181519725 4.416206696804008 18.91681925976192 0 0 0
383 6 3.2065270127923315 4.431519669187491 24.509862672920963 1 0 0
542 9 13.03522754231797 4.724647636450901 19.679919967434003 0 0 0
100 9 13.906735004954355 6.499019271838568 21.552976471091036 0 0 0
117 6 13.368178213809184 6.204740765872076 22.702107559718037 0 0 0
137 6 13.204017044712064 6.926288460349951 20.614321162211585 0 0 0
92 9 13.2388817805871 5.768961050525383 21.481452276979745 0 0 0
104 1 14.678189876681044 6.865217886892124 20.138237350264344 0 0 0
109 1 15.692490263073806 6.8585321186309365 18.76082823138923 0 0 0
125 6 16.189627094205647 5.818955438616092 19.791368524346865 0 0 0
985 3 18.514268963284625 4.63873580951058 22.877386632786173 0 0 0
395 6 18.850635659065176 6.546827792893204 22.8710207315933 0 0 0
425 5 17.855981193235706 7.417099571198278 23.032026953013876 0 0 0
1553 3 18.975689637535563 7.908990303486007 23.250011762856403 0 0 0
284 1 2.7508025302859798 4.708187739128806 19.994281884011876 0 0 0
391 6 21.916118444188076 6.073822144645127 19.772891384215338 -1 0 0
411 6 20.293525446205013 7.5116080532659275 22.749630351116892 0 0 0
375 1 21.21308030901832 7.150472894885223 21.696417566447543 0 0 0
417 4 20.255856929026038 6.076388430971274 22.184818039307093 0 0 0
407 6 21.910062867843905 5.667342373935968 21.934989386977296 0 0 0
272 9 21.882610068364794 5.0805525404998315 18.910406937827837 -1 0 0
305 6 21.487232878817125 6.628589766451067 23.082324493373875 0 0 0
366 9 21.99527982947999 4.436852091931128 24.029681249600117 0 0 0
697 3 21.17419343551345 7.919317681113788 23.946750379662326 0 0 0
1522 3 21.03411136460014 4.728490257824555 23.116349970884883 0 0 0
686 8 22.64793624569746 5.448872071332145 23.51708487409745 0 0 0
362 9 19.569035404072533 8.557127280779046 22.457350858101805 0 0 0
665 6 8.912529439557614 9.821707641253816 19.71901101433584 1 0 0
108 1 8.262000696531633 12.276304246764763 20.090651986071403 0 0 0
632 9 8.412170962771242 10.708245251438333 20.22894756154044 0 0 0
644 1 6.779805669771872 11.70534390998538 20.574766911278314 0 0 0
751 6 8.171147665312752 11.592186474116511 21.64864686772999 0 0 0
183 9 7.621946062590065 13.459045758111143 19.402147031827436 0 0 0
227 6 9.627217098911558 12.982266342324209 24.13261883402727 0 0 0
486 6 13.970424079971734 11.336524832964265 19.992864937473872 0 0 0
190 9 10.792085767023252 12.208194405669195 23.7075509766076 0 0 0
465 1 14.392195597796809 11.155720252520657 21.44542095558234 0 0 0
231 6 12.0999486746074 11.344064755813987 23.423112273868803 0 0 0
1195 3 13.704486963981688 11.640188927087472 22.86302969039232 0 0 0
506 8 13.498602750993594 9.986482762689606 23.571725764874582 0 0 0
507 4 14.82393854192908 10.655003791904118 23.912287287739947 0 0 0
477 6 14.970085044575558 12.602914890898168 22.23419174259362 0 0 0
211 6 15.48942137309057 11.29398766949748 22.557844243435277 0 0 0
1658 3 15.12340054472212 12.650571638358464 23.498303881280865 0 0 0
502 6 20.156688239583584 8.611336602261812 20.28045233022733 0 0 0
469 1 18.753333448804856 9.642098310421966 19.91751988048174 0 0 0
497 6 18.0585066981056 10.519868177484136 20.878127750016944 0 0 0
1657 3 16.319268500005617 12.470153187778825 23.180741295048783 0 0 0
456 9 17.42817102941192 10.073753811687878 24.201438579593322 0 0 0
539 4 16.44153903787005 11.128494309831206 24.18471101568911 0 0 0
378 1 19.645412181881245 9.8846589092725 21.44575636741839 0 0 0
374 1 20.728028599426384 9.954267895527718 20.03617402248853 0 0 0
387 6 19.69761081819422 8.677072502609267 23.970218774978818 0 0 0
481 6 20.397521419856908 11.180905099730397 21.386953828592148 0 0 0
678 6 21.3723605988785 11.642694849643805 20.46382505605132 0 0 0
648 1 19.50176993048447 11.11318772702374 20.15622926680917 0 0 0
730 9 22.96399761337855 12.45782208735374 21.909214031670516 0 0 0
735 1 22.753217822058406 13.130704909333858 20.177423695638968 0 0 0
767 6 21.914236923382944 12.287172948571511 21.668368034344823 0 0 0
771 6 24.95317186030776 12.978569989456123 24.0926144755549 0 0 0
726 9 25.476842472145037 12.202874093690815 23.241511500309798 0 0 0
743 6 25.392899497472055 11.578140839180094 22.183195553782554 -1 0 0
763 6 26.18187328635779 12.78523557117302 24.205036380570792 0 0 0
232 6 6.806996633979657 13.372066516809848 20.48741058718086 0 0 0
1002 5 8.232878553367646 16.69673770377131 23.982933780414466 0 -1 0
1001 3 9.099138238471452 16.821839884082873 24.43742348581236 0 -1 0
276 9 5.826587367697581 0.07476223056053499 23.424109875902793 0 1 0
293 6 6.049233273865282 -0.38047434154258597 22.329980074904313 0 1 0
485 6 14.382231363884644 16.58221118288333 20.646300595052324 0 0 0
460 9 15.949209784046342 13.492147952051786 22.397238885736257 0 0 0
501 6 16.34785611804894 14.435278572756836 21.661618798354194 0 0 0
301 6 16.156112076062282 17.06523968967096 22.02170124082252 0 0 0
452 9 14.881945235748816 17.216401279443858 21.71801963315122 0 0 0
592 6 17.73522418440839 16.665196381220465 19.938314406001396 0 0 0
738 1 17.00501566358036 15.87506176347922 21.155545566249227 0 0 0
191 9 23.370690094314046 16.20848635853407 20.76367498084336 0 0 0
739 1 22.536966571415384 13.621250475195353 22.21762659817094 0 0 0
228 6 24.125648262999757 16.966410953201045 20.199355770649408 0 0 0
571 6 21.875953930710708 14.922912653862848 22.36234166643324 0 0 0
722 9 21.7222310038218 14.571689879820964 21.232030397789128 0 0 0
734 1 14.84477699492136 -0.4035717176938016 21.398168151391303 0 1 0
755 6 21.46561220788318 13.354853068456272 21.019237496731467 0 0 0
198 1 22.526771735412538 15.494023852500552 20.951406025530318 0 0 0
546 9 21.82543794659516 16.428426849079646 23.837628391697056 0 0 0
52 6 23.208562398477245 16.37065459807148 21.91565682904463 0 0 0
498 6 27.416806308768393 15.865311757592341 18.811810052345887 -1 0 0
461 9 27.477400648453532 17.314309432862878 19.43009713272655 -1 0 0
199 1 26.055421446930524 15.132215113935201 19.702429970579757 -1 0 0
215 6 26.068295460603014 16.6378195935565 20.107477017152394 -1 0 0
182 9 27.235594389360966 16.439734595034896 19.958259247833528 -1 0 0
43 6 24.533745041858865 15.573059487523162 24.16086984031196 0 -1 0
597 4 5.7932648358325745 1.386015780757814 24.24449349454128 0 0 0
607 3 6.004047930832237 2.89928534560719 24.53514873014102 0 0 0
596 8 4.931609222354152 0.012346618658210629 24.609225288521696 0 0 0
1818 5 8.909050328443229 3.0091195138066293 28.0010394940591 0 0 0
1387 3 7.932754031301066 3.1146313808109607 28.00685360222386 0 0 0
1389 5 7.660295219944868 1.301325201627821 28.60568819938738 0 0 0
1999 3 6.355815554269448 0.11826676418422732 24.654314589185148 0 0 0
15 1 14.943711063246116 0.958498909382628 24.19176583804769 0 0 0
1624 3 14.8973468385885 2.3661599334422414 24.415899342498154 0 0 0
65 5 13.607787503797223 -0.626185230383105 26.846084147832638 0 0 0
67 3 20.999439730420757 17.03634598103701 26.289576211605034 0 -1 0
829 3 13.905275479345553 0.18876365332244072 25.470470676942558 0 0 0
831 5 19.575224511474893 16.924883061180502 24.287114486699373 0 -1 0
336 3 14.067854088837827 1.2831433264546719 26.59497065322893 0 0 0
66 3 13.644661855284884 2.0355381000855304 25.298428349390413 0 0 0
27 6 16.255020391720745 2.754319181988008 24.011050200555783 0 0 0
1598 3 15.037052568081872 2.1308439880439423 27.317135308976837 0 0 0
335 5 17.90172558489888 1.9460426930277637 23.69023749913187 0 0 0
337 3 16.00757962750832 2.2149153776811072 26.096758413370853 0 0 0
1597 3 16.578700443060306 2.8012642768399347 27.477256952590004 0 0 0
1599 5 16.073067821615638 1.8863990193507145 28.336241452210523 0 0 0
992 3 15.158941905920534 2.788446029311191 28.688178334696104 0 0 0
1487 3 17.43988783698458 2.7949149996598934 23.777769002998237 0 0 0
449 4 4.287818005813105 5.157198355288309 25.598852728484978 1 0 0
1480 3 4.902797940338426 6.565774918342508 28.57832457926189 1 0 0
1482 5 5.276826565915845 6.358002796746749 27.52800654476317 1 0 0
1397 3 5.332936211104324 5.058482268931889 26.766773815989 0 0 0
859 3 5.0824324694831065 5.298232573516422 28.233289842765064 1 0 0
1398 5 5.6401691096146696 4.829126155324486 24.50808654120907 0 0 0
668 8 8.491901901401762 3.6874303730169133 25.113669031970474 0 0 0
1816 3 8.10307443344964 3.5567617280481585 26.67414918608124 0 0 0
1817 3 6.825945806200371 4.335290405816495 28.351176317743835 0 0 0
1396 3 5.567322033929533 4.309976423252369 25.29605692660716 0 0 0
146 8 9.759147523132558 5.257166333931617 25.00372107624412 0 0 0
719 4 6.9831466234749735 3.753991024079074 25.431705954046834 0 0 0
1204 3 6.323972406977022 5.9750664348719615 28.323254737533127 0 0 0
1218 5 6.37137516031327 6.9783778779535695 28.223137204063843 0 0 0
653 6 9.41423867375775 4.208534561781486 25.956052103462586 0 0 0
1217 3 5.271781083619678 7.70120688772297 28.174347423648236 0 0 0
1626 5 13.561733726840098 4.674083545971189 24.558235803275714 0 0 0
636 9 9.827206567557274 3.97258722674661 24.712001498531087 0 0 0
830 3 13.680052440883703 3.5803652996625317 25.306921422677092 0 0 0
1342 3 10.798715829858333 4.367268838085407 25.58293817047946 0 0 0
1343 3 11.044746215568711 6.089948659928044 25.164157252938466 0 0 0
1566 5 9.724693732848692 7.2439340473910425 25.533559281443 0 0 0
1564 3 10.653589789733928 7.512189002999825 25.373836558625253 0 0 0
147 4 12.422777250714876 4.451722655492372 25.453344141324365 0 0 0
989 3 14.261833143064178 5.0779574156872 25.877104743294705 0 0 0
990 5 13.778835498869698 6.15601199261611 26.117125630374204 0 0 0
1344 5 12.927162552106715 5.268898923763304 26.621313907199866 0 0 0
1625 3 13.523919426468252 5.127388035084939 25.60234949240533 0 0 0
269 4 12.920259115592586 6.029902530665287 25.139720086536222 0 0 0
1595 3 13.351313387859424 4.046432854269217 26.767406222922677 0 0 0
203 6 12.297112986786779 7.3930083739569765 24.620135791737646 0 0 0
1003 3 13.93338307447573 3.61647059048501 28.180397202654717 0 0 0
988 3 14.08761458592721 5.271670098988476 27.30520438130675 0 0 0
1004 3 14.665060451050637 6.105564906260857 28.89259573209892 0 0 0
133 6 14.947191994626014 4.388978957545615 24.850987477150607 0 0 0
987 5 14.378341799676901 5.649706866842784 24.80940299429969 0 0 0
96 9 17.40056934499926 5.08319413453722 24.03390371463536 0 0 0
473 6 18.17760159765697 7.226105955184995 24.15365913894211 0 0 0
1552 3 17.654406188263646 6.563545692198064 23.905698073156863 0 0 0
403 6 19.72443396646712 4.327772712914549 23.8718309700533 0 0 0
1486 3 16.95596121248861 3.3589001344359843 25.862919472517703 0 0 0
993 5 17.638612349807733 3.4095774841763546 28.65608013698285 0 0 0
1523 3 18.42568953912782 3.90530063138918 24.16525128967875 0 0 0
1488 5 15.109686726862511 3.4270832586620266 27.604828848822013 0 0 0
128 8 16.736380446831685 4.581404701194397 24.95518024743816 0 0 0
179 4 15.718863480977346 5.608026354281304 25.339561062648148 0 0 0
426 3 18.434189799513096 5.614716044258449 24.369800265145425 0 0 0
986 3 17.087217357628642 5.93334617862197 24.92812253838114 0 0 0
1554 5 18.01515559153952 6.638182581104528 25.10336781732905 0 0 0
398 8 21.22587326523702 5.345127321756809 24.41144628791174 0 0 0
1493 3 22.4576032414118 5.165008863167292 24.999354313198292 0 0 0
687 4 24.14150241097084 7.518240082462316 25.978807040332544 0 0 0
1494 5 21.767324086004724 6.9729356152449276 25.258948057567352 0 0 0
860 3 23.9553843057509 6.207068086298656 25.41946116995776 0 0 0
1492 3 22.068461168963356 6.652793294980894 24.464195906974396 0 0 0
207 6 8.345526974142267 12.464314307373158 25.032814209494244 0 0 0
237 4 7.472195345435597 11.56029955221524 25.700868668551998 0 0 0
898 3 8.076017072734683 10.293424856876722 26.372831403143348 0 0 0
1099 3 8.256983599295339 9.542788645921036 27.843847233627216 0 0 0
1100 3 9.351487757863337 9.411708962491412 26.73639213226597 0 0 0
875 3 9.830886032636379 10.430111481018297 25.393875308764866 0 0 0
900 5 7.793168416030565 9.543385014712038 25.920960283575788 0 0 0
876 5 8.777435673588432 11.234022212293361 25.445891111873138 0 0 0
156 3 6.894218614724916 8.948598998257033 28.473436010034135 0 0 0
246 3 6.438112812299068 10.659732365840805 26.799833475331074 1 0 0
89 4 5.9518771407643865 11.81677777880279 25.596494188907634 1 0 0
1481 3 5.453745842825858 9.317948469048597 27.3999669028821 1 0 0
245 5 6.083322621079585 11.36433793890635 27.359422543738006 1 0 0
223 6 11.041525474963361 11.068208587670876 24.28799289415672 0 0 0
874 3 9.824017774139271 11.699593253403732 24.575145023516914 0 0 0
1101 5 9.83084092037435 8.824781115327683 27.381011393922655 0 0 0
1565 3 10.301398316380157 8.92256717858266 25.685429019086587 0 0 0
1659 5 14.673574733773572 11.373820985432369 24.547788044494002 0 0 0
218 8 11.747343465915842 8.768940193279688 24.777145645798235 0 0 0
186 9 12.938873247443084 8.700742334922145 24.06112436753936 0 0 0
899 3 12.197308873426163 9.818907115476526 24.125001725418322 0 0 0
427 3 18.07385848714479 8.778637382771748 24.106165603573263 0 0 0
493 6 17.764308883739307 11.049447036734119 25.152742808171585 0 0 0
488 8 18.62419553573283 9.828680785513354 24.853101142765087 0 0 0
776 8 19.235644819240708 10.529356906798423 25.897836877174882 0 0 0
787 3 19.205309134014193 11.994407838170032 26.759378561266384 0 0 0
1102 3 17.078681308692744 12.43059168037404 25.13302085175351 0 0 0
1104 5 16.360939492567457 12.990285808481808 24.751514601167674 0 0 0
1673 3 17.992847345771654 12.927830213546482 26.333469493838173 0 0 0
1674 5 17.594679377572618 12.673878220279867 27.18965888491104 0 0 0
1437 5 19.49016495192445 12.862809014041744 27.926262023323403 0 0 0
1436 3 19.10329449295747 13.493630448661397 27.32412342138391 0 0 0
777 4 20.268575106875105 10.888017613055668 27.019480527769904 0 0 0
695 5 23.26071141932743 8.739213971441254 25.187700444342166 0 0 0
758 8 24.110522793336962 10.538521439749701 25.814409141574657 0 0 0
809 4 22.72819490505098 10.201080766187037 26.019047492085754 0 0 0
890 3 21.55374362686536 10.110591559145918 26.677403085095904 0 0 0
1153 3 23.621842701282194 8.946254132163656 26.081064015844284 0 0 0
1155 5 22.65890775411502 10.876393584701775 25.29423118063629 0 0 0
1930 3 20.9386380230571 9.76678676124227 28.039574141112325 0 0 0
696 3 24.97772599135037 8.283860964518938 26.88104916058073 0 0 0
1154 3 24.835887529673908 11.721408496227475 25.120391400512858 0 0 0
236 8 25.583546803643458 10.525051726571782 26.41452933568158 0 0 0
31 6 8.581877363635385 13.920843582315863 24.560279919909128 0 0 0
23 6 8.630100513797451 15.480636496175428 24.932669844695315 0 0 0
1390 3 8.859446540300668 16.37648521195521 27.608081137514546 0 0 0
1869 5 7.768378623775928 15.676437639779788 28.151275907720425 1 0 0
326 8 9.338937489573084 16.4903988622283 26.128911873027548 1 -1 0
38 8 7.327199403932235 15.02827793407829 25.53587350615068 1 0 0
327 4 10.60731368974836 16.619904139774757 27.01871700573985 0 0 0
902 3 11.702380690054332 17.608576762477313 25.36637032665282 0 -1 0
308 8 13.32856111551113 17.02522131006511 27.617588014682333 0 0 0
901 3 12.133465350470518 16.99238307665045 26.60502651317325 0 -1 0
1392 5 10.567330563181368 15.23697228441705 28.090763945728487 0 0 0
1643 3 10.389503788517466 16.000819357796253 28.58183382642367 0 0 0
1644 5 12.289539503139618 16.164115049547167 26.184694608417164 0 0 0
1619 3 12.066011946930686 16.593545590559103 28.39003609836778 0 -1 0
1174 3 14.882668915957169 16.99634854192241 27.114997596078794 0 0 0
359 4 14.958804124977874 17.48603367711215 25.39370051119839 0 0 0
2001 5 17.087781607031534 17.317646209777948 26.160050041525935 0 -1 0
2000 3 17.112644920716868 15.674585034812106 25.995187456512912 0 -1 0
786 3 19.689128792406233 14.639688658104982 27.98172549687532 0 0 0
1103 3 17.827694330741146 14.446347301386737 26.214370627001323 0 0 0
1501 3 16.255924407636584 16.919941374840292 26.378874504985973 0 0 0
1503 5 15.910914319802085 15.913749374070907 24.869737963124745 0 0 0
1502 3 15.640267237027054 16.08834875216603 25.819118271992117 0 0 0
578 8 18.686616936375994 15.761927030767941 25.886568989855064 0 0 0
583 6 21.09966716041733 17.284065918164565 24.451680534953372 0 -1 0
591 6 19.70339486987072 16.486411121545796 25.163602172117148 0 -1 0
57 4 19.957948408499693 16.073061518999154 27.079647377755133 0 0 0
56 8 22.409378398349585 17.627476443089222 24.082314533125793 0 -1 0
629 4 20.144335245521777 15.898322369538922 28.595036479304202 0 0 0
1778 3 22.051780477045877 16.799281564264426 25.04322942628456 0 -1 0
747 6 25.07547864096092 13.503766913398163 25.161638890634947 0 0 0
6 9 25.104777362504088 14.770907638889552 24.787502734202516 0 0 0
247 3 26.35385814673948 14.184579131896454 25.17148102019122 0 0 0
1855 3 26.66203241576122 15.151220946330476 26.136390871246494 0 0 0
1856 3 27.605763835098866 15.73730592446282 26.997460394739978 0 0 0
1857 5 26.703284471392436 16.435584005163506 27.551562207732402 0 0 0
1081 3 27.804700692134986 16.971016601566927 27.803315229104193 0 -1 0
1082 3 27.15320537999073 15.903048150812639 28.42361647583356 0 -1 0
1620 5 4.104296896596438 -0.8318840034545799 30.04106157947101 0 0 0
1175 3 14.523933629358124 17.43528390661776 28.668277546561395 0 -1 0
1388 3 7.560181358143045 2.175457340699958 29.031006807493185 0 0 0
1028 3 14.060900528959646 17.43052261524887 30.23162120282907 0 -1 0
1027 3 6.8812714281522815 0.2883346104883424 29.65158366798959 0 0 0
1029 5 6.3678488326716325 -0.2912241063005704 31.04671832650252 0 0 0
1498 3 6.458532673231934 1.4939938000705213 30.589157486599603 0 0 0
1500 5 5.971422544141907 1.9562133637838708 31.299580902090234 0 0 0
1933 3 7.647392036199382 1.4098062544029295 30.402434396698812 0 0 0
1935 5 8.106590228531315 1.774918281956819 31.193726529774683 0 0 0
1934 3 7.060478519870404 2.9593683625432634 30.483355176416374 0 0 0
1264 3 12.917075474240523 -0.5980990153235675 31.450723538048937 0 0 0
1265 3 12.407734565829536 0.18519127404927715 32.74092825536357 0 0 0
1959 5 13.792974945908488 2.42223998750514 32.56539512365785 0 0 0
1162 3 13.108565052394237 1.7338902354113155 33.24721383764765 0 0 0
1164 5 12.269104092287872 2.6979231712809364 33.063041482882355 0 0 0
1366 3 14.590434358145462 2.2661725831302064 33.386898355119854 0 0 0
1163 3 13.424485823324916 3.2594960442852443 33.43073246214723 0 0 0
1779 5 13.473287961313288 -0.4011361787377353 30.344624121460356 0 0 0
1093 3 16.476776178330645 3.0318131678417255 28.683702723663547 0 0 0
984 5 18.075197098493366 1.0762068660521984 31.1243207100478 0 0 0
1831 3 17.33890542938295 2.02461486959417 30.40044801663766 0 0 0
1833 5 17.963044792893214 1.5758532488072625 29.370229686281697 0 0 0
1957 3 19.132900111111898 1.5355138328655202 31.813734766324202 0 0 0
1958 3 17.036727635037767 2.3427612110129434 28.96301716827284 0 0 0
1048 3 18.81038145275243 1.7889036868554404 30.38910873094863 0 0 0
1050 5 18.84779682847652 2.8590107598758334 32.117306976925434 0 0 0
1885 3 17.954299538113204 2.121975446661257 31.7525353618279 0 0 0
1886 3 18.26500804844265 2.7909145165845235 29.516250003466084 0 0 0
1887 5 19.293100765509173 2.7037133231594055 29.864573147909994 0 0 0
1095 5 16.060607069164178 2.4311778756274047 29.651656266736904 0 0 0
982 3 17.599477116846654 -0.5830961751265794 33.4553278950992 0 0 0
983 3 18.296264954571306 0.6844190035958879 32.89876717170009 0 0 0
1094 3 19.70878976898422 2.700778098471953 31.122519771925006 0 0 0
1464 5 4.666308465035729 5.838313295269868 29.426864935909432 0 0 0
1905 5 4.425773656538533 7.237212496111092 33.26719930926674 1 0 0
1206 5 4.921920308136422 7.498897585140068 29.427483040907223 0 0 0
1462 3 5.879793917012253 5.35375868644998 29.62174885118735 0 0 0
1205 3 5.617140028785021 6.58618098016336 29.464291385265494 0 0 0
861 5 6.736466933249944 6.377597747220884 29.461920992859017 1 0 0
157 3 6.227558170179082 7.711428718349302 29.192428371326645 0 0 0
1463 3 6.630172415761279 4.196710973281671 30.188406542713043 0 0 0
903 5 6.507927288578182 4.411502710996204 31.140989007017247 0 0 0
155 5 8.541604938875915 6.985269668959477 32.47087838975594 0 0 0
1891 3 9.578916486474915 6.650866638748415 31.94972651168794 0 0 0
1893 5 9.602549360275885 7.000034034415554 30.857337219711468 0 0 0
1298 3 9.15543849888741 6.3799608947205275 33.33036357947829 0 0 0
1596 5 13.565822461900087 6.295553219250061 29.089667012153004 0 0 0
516 3 10.276362279387735 7.949202707269755 31.462583336857616 0 0 0
1892 3 9.629166617239603 7.72216497221074 32.9535240423193 0 0 0
1441 3 10.82899174934154 6.630603403516996 31.473286568348588 0 0 0
1117 3 12.445006635152534 6.158908837188727 31.035706061058928 0 0 0
1297 3 10.590207723151051 6.546698832056345 32.99464080704962 0 0 0
1416 5 13.568796786433817 5.296788658242438 31.05219928240786 0 0 0
1594 3 13.637608692580358 4.949102117955451 29.140849927289633 0 0 0
1219 3 13.747711272033735 6.532358614246768 31.227706644557745 0 0 0
1525 3 14.294838726604715 7.0873924018903605 29.77847264387022 0 0 0
1526 3 13.20779643900494 5.8161942051421995 30.061062796953657 0 0 0
1414 3 13.894588282860337 8.044895381789734 31.00499762986296 0 0 0
1527 5 13.171032144521421 6.950473190068628 30.07007672614429 0 0 0
1118 3 14.510558779367297 5.734511123719641 30.27683576229443 0 0 0
1299 5 10.334984969445692 7.254184168519014 33.873770694718516 0 0 0
1443 5 10.940119810511227 7.56951770427744 32.410319685438324 0 0 0
1383 5 14.343504805183592 7.435994229838197 32.03131850891131 0 0 0
991 3 15.140979294356619 4.485016927485316 28.90136898266191 0 0 0
1049 3 18.46952944035872 3.2564784310638144 30.904950124068748 0 0 0
1005 5 15.377542473502901 6.856843409479747 30.081106467908736 0 0 0
1220 3 15.064333654673662 7.146480674680605 31.138817748836463 0 0 0
1832 3 17.02337447000445 3.4837135309548515 29.908591104466392 0 0 0
1638 5 19.330629445764373 7.350324816341187 30.921195348368 0 0 0
1221 5 16.06038461925942 7.764887889876044 30.817364516377033 0 0 0
843 5 19.487472987914646 4.819382099825087 30.64560074218353 0 0 0
1381 3 15.131658113162876 8.255329785184918 30.20460052425919 0 0 0
1415 3 15.339450315356997 8.027851760399077 31.7606157407198 0 0 0
1098 5 16.344727441136342 8.51613071024149 31.985979258787847 0 0 0
1053 5 22.491956862441043 3.3399032681597363 33.362360661599 -1 0 0
1798 3 19.844311183357558 7.6886756175890065 29.979961163765186 0 0 0
841 3 19.9276109432802 4.199045439688119 31.29039352506083 0 0 0
1652 3 20.409143566219832 7.355874189969317 31.548241608534276 0 0 0
842 3 20.512036004341677 5.590769903852255 31.38967993321994 0 0 0
1636 3 21.001384771249104 4.5366362528695685 32.34692039340118 0 0 0
1097 3 20.645064954040564 6.653581783750726 30.339900062846993 0 0 0
1800 5 21.607864308548855 7.547881131893176 30.93789679902627 0 0 0
1637 3 22.154544192208792 4.615505678340316 33.276594437724484 0 0 0
1799 3 21.265323157575512 7.9570969602633514 29.96787134147919 0 0 0
1442 3 8.795643364389365 7.8448934307062075 31.67654268346504 0 0 0
517 3 9.250770140114932 9.802811194612918 30.579939987874447 0 0 0
952 3 9.282574846772057 8.417464631012393 30.384838051555356 0 0 0
954 5 8.353864607915316 8.992953701457262 31.103773587544083 0 0 0
1216 3 8.319729598306017 9.164466441193166 29.40499413808348 0 0 0
1306 3 8.798235418143049 10.886499881597556 31.754916804612392 0 0 0
1307 3 7.931026176696497 12.040340725831339 32.13314627231506 0 0 0
1468 3 9.443161942574788 12.227005741754871 32.01990584600151 0 0 0
1716 5 5.999909374860627 9.091801220101875 33.066776156840106 1 0 0
1106 3 6.180877263790168 10.31695473672145 33.11374648140462 1 0 0
1261 3 6.521818071726862 11.98068472399622 32.862688674065424 1 0 0
1714 3 26.288297898416882 11.151460955090297 32.140537015415916 0 0 0
1308 5 10.294813382132906 11.577148052400519 32.10181848805583 0 0 0
959 3 26.60838704085758 12.688342913545815 31.760580217179697 0 0 0
515 5 10.372141631730416 8.972976144821608 30.724807267272357 0 0 0
953 3 9.479599410247586 9.251131551071657 31.72736634085877 0 0 0
1240 3 12.088530050990054 13.096038458426591 33.14051700882223 0 0 0
1241 3 10.734423057358061 13.245241044380887 32.406980479079564 0 0 0
1838 3 14.005221527515552 13.285860726038116 33.3663611608538 0 0 0
1310 3 14.73812319392772 10.424208021296797 32.60011172421203 0 0 0
1196 3 14.701099559803112 9.356239560185767 31.260227350104014 0 0 0
1197 5 15.608804556860239 10.085187463429532 31.57661605091587 0 0 0
1096 3 16.088739082086118 9.108783215031387 31.017376040887118 0 0 0
1382 3 15.532775823299014 9.220212463551281 32.45374299104411 0 0 0
1647 5 19.20606906691765 8.626493657061808 29.97590284663674 0 0 0
1309 3 15.031757148021054 11.976911991869326 32.798251167275296 0 0 0
1227 5 18.70809879518525 11.377242736359026 32.69793663011754 0 0 0
1311 5 16.154400777421177 12.781760284240665 32.64142362644296 0 0 0
1961 3 17.978054730531262 12.041857806052974 33.499171178037386 0 0 0
1946 3 19.307768612374932 12.480900305198734 33.187473121547725 0 0 0
1664 3 17.065098480266897 13.181694174823086 33.54437628666652 0 0 0
1947 5 18.187686610128825 12.951006540726835 32.73388742776169 0 0 0
1226 3 19.635118229611376 8.523459273181144 31.02758684157831 0 0 0
891 5 20.313929408214843 9.902926708579292 29.21504583959477 0 0 0
1645 3 20.037465141510385 8.70296044603364 29.106553597136067 0 0 0
1653 5 21.74422612772763 8.934625304679791 30.44280740990439 0 0 0
1646 3 20.43133646988376 9.447060517927353 30.272898404477864 0 0 0
889 3 21.435278829766435 9.288530207789421 29.277890449906995 0 0 0
1931 3 21.116533226945567 8.55720245295184 31.22516890743652 0 0 0
1945 3 19.911454424246866 11.355370533853666 32.74080632296469 0 0 0
1126 3 20.403900378789604 9.792250476913692 32.15898350178422 0 0 0
1962 5 20.63311818983824 12.251643300938955 33.19518908033585 0 0 0
945 5 25.098044971994323 12.983379191305783 33.08225591644121 0 0 0
1932 5 25.06053659856205 11.306093274239545 32.600654051290334 0 0 0
1262 3 25.886929660676863 12.066297258867023 33.12304037801678 0 0 0
958 3 25.29549784905693 12.34281557863526 32.08714169471071 0 0 0
960 5 25.435378692797418 12.99985576217449 31.14660376924305 0 0 0
1263 5 26.429399335979156 13.017591376217602 33.03430706043085 0 0 0
1412 3 25.597408499462002 9.772957323019826 32.79529658926349 0 0 0
943 3 24.749181986174175 13.197868537199735 31.997908968138187 0 0 0
1391 3 8.818164706411443 15.674177634312596 29.424463055803947 0 0 0
1507 3 8.987635629097795 14.89521862444535 30.73488389910829 0 0 0
1470 5 8.541678706414396 13.776878784224014 32.146475201529626 0 0 0
1509 5 28.132584119967888 15.611897391961428 30.398723288821042 -1 0 0
1868 3 28.000916783156317 15.7993017784243 29.446759519371454 0 0 0
1469 3 9.381230669703905 13.758522639582445 31.61957473636195 0 0 0
1618 3 12.520814532763554 16.62966193198504 29.99832357558238 0 -1 0
1508 3 10.64316375443958 15.03630671809727 30.899642672317913 0 0 0
1253 3 13.214774871306508 16.353955170763847 31.255908898548306 0 -1 0
892 3 11.65888320424855 14.597670308867757 31.925671180195913 0 0 0
893 3 14.040004975536823 14.447490370933485 32.3515367659504 0 0 0
1054 3 11.21540648092186 15.796145759374747 29.833515053754727 0 0 0
1055 3 12.910950942813198 15.702647561206234 32.51553089511674 0 0 0
1056 5 12.022931075204827 15.63284497152953 30.926083966901334 0 0 0
1252 3 14.41407675675448 15.900084375914805 31.918867489633556 0 0 0
1888 3 12.795039852288204 14.521960318281081 33.25890316870775 0 0 0
1889 3 14.187613971906428 15.60371722261211 33.19642994399413 0 0 0
894 5 13.669213305594157 16.608981702689952 32.55209763088884 0 0 0
1176 5 15.422840713973752 17.083041214459687 28.791690518099053 0 -1 0
1839 5 15.169581469739457 14.927232790772894 32.35386471603485 0 0 0
1631 3 14.946129446793561 14.63910475828244 33.41564937967118 0 0 0
1665 5 16.12296761203584 14.199142941050573 33.485783291961155 0 0 0
1672 3 15.256654487500713 13.50836582002065 33.05805200161679 0 0 0
785 5 20.163966351536654 14.43972722994571 28.837833359250244 0 0 0
974 3 20.486327075990594 17.20189642569516 30.4141766706484 0 0 0
975 5 19.71888836463684 16.67474055850941 29.860030231882018 0 0 0
1777 3 20.736675999012828 17.11953450913257 29.183857724149817 0 -1 0
1670 3 22.8589014236056 16.6891691641085 31.364639764548766 0 0 0
1656 5 24.0021904893538 16.973580478206696 31.535959271214747 0 0 0
883 3 23.457274010823735 16.931202100340812 32.64293978692915 0 -1 0
1671 5 23.514432046248647 15.929051455528764 30.86470129378903 0 -1 0
1369 3 21.295467232206835 16.392919622306966 31.54083638320156 0 0 0
1746 5 22.154341774381834 16.169484289803766 32.30203948771543 0 0 0
944 3 24.289835061236023 14.49422587269363 32.50262737353185 0 0 0
1373 3 23.534970420735423 14.78749424171934 31.236481900771366 0 0 0
1374 5 23.899505717073474 13.72165745158795 31.43433204836071 0 0 0
1435 3 21.84839096317336 16.819402322509262 30.24957181204162 0 0 0
973 3 20.548307835836045 15.904515092674286 30.234047653683646 0 -1 0
1266 5 20.107605026915873 16.480676061056005 31.230815978595952 0 -1 0
1370 3 22.17538593427378 15.43570855286288 31.013991845994408 0 0 0
1371 5 21.59093147148416 14.702354120120239 31.197767565170146 0 0 0
1744 3 23.136368881247783 15.668527055795119 32.158582374599646 0 0 0
1745 3 24.431724415547297 15.884209295407594 31.72942842152452 0 0 0
885 5 23.89584148023261 15.778348588275895 33.004466498356365 0 0 0
1867 3 28.46341326088165 16.905195174408277 28.9786534654699 0 -1 0
1372 3 24.900048950268047 14.30653207950646 31.212069163248806 0 0 0
1654 3 25.87051131614513 13.811101727736634 32.34207861342547 0 0 0
1083 5 27.285928054070293 16.991329272592708 28.9640404232167 0 -1 0
1655 3 24.81695665144739 16.76247991501428 32.64217264605844 0 0 0
1046 3 3.76523505257828 0.9046150865182672 35.07230003590226 0 0 0
1047 5 4.314455215251153 1.9933079730101446 35.343800802304486 0 0 0
1228 3 2.5382649845515823 1.523552874014941 35.00183466234432 0 0 0
1230 5 4.468663543716447 0.2508005317852302 35.844559462386414 0 0 0
1229 3 3.6392848507428126 1.1879700651977658 36.3565144863029 0 1 0
1810 3 2.294069144709808 1.3724773915577408 37.31848217399782 0 1 0
979 3 4.881922091245725 2.316699171131431 36.46711600420102 0 0 0
1862 3 4.9569451048715845 1.2306108381657732 35.7059387107503 0 0 0
1874 3 5.17775214798046 0.6930027641131216 36.90223728136314 0 1 0
1861 3 6.604454410633037 0.6382669529742677 36.507021436403775 0 0 0
1863 5 5.94865524805168 1.487845239094169 36.129675242008304 0 0 0
1873 3 6.393533062757829 0.29993468832558934 37.893552081857536 0 1 0
839 3 8.650212241802981 0.6195599236855744 37.22225052426391 0 1 0
1558 3 9.194969218321999 -0.5425238717003543 37.805516738429986 0 1 0
994 3 6.147880336470077 1.8294655606274286 37.40897239842738 0 0 0
937 3 9.43975931318961 -0.31423655701158815 36.48428408604677 0 0 0
938 3 9.350560795353497 0.43687384260469764 35.945073404111014 0 0 0
1875 5 6.64032572896955 -0.4014228023930948 36.77491882252586 0 1 0
838 3 7.897855659747723 -0.09219326500450087 36.183097678738264 0 1 0
840 5 8.873149546696098 -0.5997243237729186 35.51111910615812 0 1 0
1559 3 7.57898438220151 -0.20620141237342127 37.6210959981029 0 1 0
1560 5 8.522718522522622 -0.9029413889925939 36.853892811359515 0 1 0
996 5 7.315617821030403 1.0397783735355774 37.15819615123385 0 0 0
1449 5 9.522974559509564 1.0757339405783781 34.85671428363348 0 0 0
1546 3 11.680943551158952 1.7567141831483504 33.5830160136028 0 0 0
1669 3 11.353213255254884 0.28222519051223016 33.808348857019965 0 0 0
1548 5 11.325290619297352 2.3500738080267336 34.591664662258594 0 0 0
939 5 9.975988544378891 0.5491824434492834 36.99954265341802 0 0 0
1448 3 10.613837323541212 1.4535924469637118 34.57094387069044 0 0 0
1514 3 12.177834679109514 1.4142798114992738 34.876984894773315 0 0 0
1547 3 12.40150865690972 2.6214927904528054 34.27582748900906 0 0 0
1447 3 10.24089412988791 1.00621265204888 35.86666918267163 0 0 0
1513 3 13.741224302108092 2.125617931372841 34.60418117179805 0 0 0
1515 5 11.332710755576604 1.552106573874338 35.65092989952383 0 0 0
1660 3 11.256221461374553 0.30838523083631286 35.263721459786694 0 0 0
1662 5 10.488578261658805 -0.1815342699089605 36.13912326011291 0 0 0
1661 3 9.903532347433186 -0.14957395887495162 34.86045025517794 0 1 0
1368 5 14.717168052350278 1.8439206973098243 34.68343788785815 0 0 0
1578 5 18.771149903463755 -0.46141911925118584 33.88272417509047 0 0 0
971 3 18.441280109255782 2.3285499550506557 35.50829537805676 0 0 0
1520 3 17.71294804478536 3.1479323548115805 36.33076345243806 0 0 0
1521 5 18.39927891459988 2.278290459759438 36.78616169802045 0 0 0
1577 3 18.499412306446352 0.6133585962767314 34.38427840269429 0 0 0
1015 3 18.930644640844097 3.233793452333461 37.122834809379384 0 0 0
1576 3 17.824934484454108 -0.5885709819438485 34.98080767603152 0 1 0
1009 3 19.495536798918724 1.4130310484857214 35.228343888910814 0 0 0
1010 3 19.674287007853255 2.669281228038395 36.13312402425635 0 0 0
1011 5 19.72048539294848 2.6297138200919927 34.809148010289675 0 0 0
1519 3 17.38093678051013 3.110814747613274 37.73694294030244 0 0 0
1998 5 16.50660100551838 2.984942008622345 36.657957781517226 0 0 0
884 3 16.604427368580033 -1.034424701823316 36.320610460169235 0 1 0
1676 3 24.248103768234706 17.170325248150412 37.77505645463292 0 -1 0
1834 3 22.55937915316533 2.7703268112408317 37.16781644174837 -1 0 0
1045 3 22.19236115234834 1.8686370600861377 35.95889180266131 -1 0 0
1051 3 22.537200921638817 2.5857771834204826 34.40292999560522 -1 0 0
1835 3 20.947144020108055 2.2326774822335596 35.10686194975074 0 0 0
1836 5 21.857870385735694 3.0592093622306953 35.466612646774706 0 0 0
1790 3 2.743970253719554 3.9108405829535546 37.1708065127666 0 0 0
1033 3 4.314862083606084 3.658561208109944 37.08387799107486 0 0 0
1402 3 4.8102279071874365 7.507443123362162 34.38346432150023 0 0 0
1404 5 4.408602308768067 6.479957419640508 35.00187755552511 0 0 0
1789 3 3.533226766159488 4.720205098598205 36.17487831636774 0 0 0
1035 5 3.6834035093242825 4.656584324603608 37.589695680633355 0 0 0
1791 5 3.2283820159532595 4.763343365283774 34.81619352225191 0 0 0
1431 5 8.758460327917227 5.8116320577158085 34.268005403565795 0 0 0
1733 3 9.076523539126212 7.118418218515599 34.528322558494125 0 0 0
1783 3 9.032270772756336 6.029058938097533 35.38080181987421 0 0 0
1785 5 9.027204953185617 7.244719936287774 35.77956955659221 0 0 0
1457 3 9.518375282202497 6.3775539626646305 36.641909613935965 0 0 0
1312 3 4.815528269799912 4.53391355506761 38.38606649848592 0 0 0
1019 3 9.922419002235035 6.17734000115098 37.928730803938166 0 0 0
1119 5 10.138853100163383 5.571087462057656 35.857887315917026 0 0 0
1755 5 13.224848228006847 3.323742922376618 34.731811046251494 0 0 0
1725 5 14.742877515147004 3.4939427817195394 37.20645857497061 0 0 0
1732 3 10.19934572911526 6.984205296864821 35.54992479066544 0 0 0
1007 3 10.065722158837907 5.988376487491387 34.45127883434944 0 0 0
1429 3 13.400391308574877 7.348611823532131 37.55096595892513 0 0 0
1430 3 11.850503356581644 7.397620566555584 36.98998708002554 0 0 0
1688 3 12.376579206712865 6.2485659357280525 37.501706071385215 0 0 0
1689 5 12.78364252840741 5.165613206471576 37.69835502650601 0 0 0
1694 3 13.889606831971806 5.820043702740546 37.43216869607545 0 0 0
1695 5 12.143225987603557 7.307273634553808 38.18627874647402 0 0 0
1734 5 10.489372998616144 7.224343856046868 37.30557716382768 0 0 0
1319 3 10.887144199391063 6.082850983487347 36.666378896084694 0 0 0
1693 3 12.62178435530351 6.2534309292661865 38.26326051468696 0 0 0
1601 3 11.171620762087638 6.589055552505879 37.994941253683365 0 0 0
1602 5 11.42693347305771 5.485667483619142 37.778738986384695 0 0 0
1754 3 14.522468516535223 3.247396456784362 34.519424541754105 0 0 0
1724 3 14.402309527236326 4.391386735320668 38.07881243920848 0 0 0
1753 3 15.118301640228472 4.728186138337303 36.90855017741242 0 0 0
1723 3 15.82043046723419 3.383983128261868 37.44905211830948 0 0 0
1367 3 15.474506027842349 3.676645795365138 36.008734550694044 0 0 0
1016 3 18.16909260944955 4.423259066851716 37.20870990784542 0 0 0
1017 5 18.651647875114097 3.605271273896668 35.97306026234948 0 0 0
1996 3 17.194637204583966 5.628101535133769 37.31608330386783 0 0 0
1997 3 16.63012720956951 4.281876007411459 36.74652184572196 0 0 0
1249 3 18.39854369835943 6.33959058522499 37.35054873685216 0 0 0
1743 5 15.710610967169261 4.3144753473232 38.00982694333838 0 0 0
1251 5 18.499160215965137 7.5257502946641 38.01626974234604 0 0 0
1924 3 21.433456980671096 3.441804949557473 33.9644115845137 0 0 0
1765 3 3.511484416325242 5.715248370553029 35.05991996213484 0 0 0
1925 3 20.49866028984463 3.712139766660906 35.37047977980322 0 0 0
1052 3 23.022475255405034 5.239841232586087 35.65159249633179 -1 0 0
1403 3 22.88176556606697 3.9919015514122016 34.34873483914154 -1 0 0
1766 3 23.115900110740025 5.530213416773237 34.11307174909514 -1 0 0
1767 5 23.97275958320591 6.535538831041376 35.57709533720502 -1 0 0
1784 3 24.373326867847727 7.532219633737134 35.17051398364836 -1 0 0
1499 3 24.444557634113703 6.556329984227441 34.073829877530315 -1 0 0
970 3 20.023236287332484 4.325188417655573 36.83776498728558 0 0 0
1510 3 21.857942924260893 7.384030168102949 35.98952482802359 0 0 0
1512 5 20.648487699108546 6.910744392505194 35.932186737418206 0 0 0
1903 3 22.930557775281862 6.80173633179925 34.89132974899921 0 0 0
1926 5 20.64172899932678 5.442501694279489 37.36720865780819 0 0 0
1904 3 24.33226078041005 8.036379629541585 33.714228976265304 0 0 0
961 3 21.378137074193496 4.96488931765737 36.46282404779454 0 0 0
962 3 21.54673161305548 6.112297188451686 35.44506445173617 0 0 0
963 5 22.19747672259245 6.1897829993665505 36.6331910712816 0 0 0
1069 3 20.01115332095263 5.860763029413295 36.358871762940694 0 0 0
1511 3 21.174525171363392 6.2922849732488295 36.74216648362918 0 0 0
1411 3 4.999084043920561 8.42296905203254 33.3559340199662 0 0 0
1413 5 5.556153059633018 8.517776632409547 34.610479077711844 1 0 0
1105 3 5.481152303109973 9.577985252860202 34.14298089602421 1 0 0
1870 3 7.517124875665141 11.489288260124395 37.518283523419385 0 0 0
1872 5 7.261738195728069 12.520069945164003 37.579376750213385 0 0 0
1518 5 8.153212917084268 10.945457401939203 36.80069911411435 0 0 0
1107 5 5.894877481756907 11.44028140505779 33.760352592294325 1 0 0
1517 3 8.322467640933063 12.30100241790132 36.67547630871255 0 0 0
1691 3 8.387966128934188 10.485168455793382 38.04383357467725 0 0 0
1692 5 9.310675002773781 12.382916287553677 37.60617925955984 0 0 0
1690 3 9.025530107989525 11.39298162484521 37.3738428657426 0 0 0
1516 3 8.299294402355196 12.899603342303157 37.970100085712275 0 0 0
1378 3 13.795945390871081 10.92377985660557 33.83819785792582 0 0 0
1380 5 12.826755123415474 10.616670715384334 34.59206634842096 0 0 0
1837 3 12.85596647739447 12.108862268781014 34.066237724158995 0 0 0
1613 3 13.47223573159149 8.830342547716606 37.643770223191495 0 0 0
1006 3 12.714857462025556 8.674211787604229 36.405808465383885 0 0 0
1008 5 13.20579855438826 9.166870394829962 35.33909433257665 0 0 0
1345 3 12.97823685122163 10.239576352310861 35.96868111406225 0 0 0
1346 3 13.66361192597724 10.308270418803229 37.27963796599484 0 0 0
1347 5 12.673868890639236 9.713803788806613 37.1112231401291 0 0 0
1379 3 13.354534027077847 11.535286406350503 35.332696330368094 0 0 0
1612 3 13.99440467101976 9.294648083707347 36.3466898231527 0 0 0
1823 3 13.85009335380287 10.070103453431 34.9246648415875 0 0 0
1824 5 13.301278235179566 11.265404849960303 36.74763815652037 0 0 0
1242 5 11.532234899844198 13.087162060444777 33.969038827034495 0 0 0
1822 3 14.471636722610041 10.786073305621718 36.17274566553701 0 0 0
1990 3 14.525603971570657 11.254206360684192 37.50035303895824 0 0 0
1630 3 15.633802717032724 13.050367284448797 33.706441401772935 0 0 0
1909 3 18.526903147030936 13.488169361232384 33.76616054531898 0 0 0
1614 5 14.800107134457326 9.971672406013635 37.10377695390669 0 0 0
1821 5 14.661092739395162 12.286610305096774 36.68345187756336 0 0 0
1685 3 19.102308262414876 11.109232050525293 33.922184170547254 0 0 0
1820 3 14.764658930822653 12.738039882533593 37.78148826087481 0 0 0
1686 5 17.722741979068804 12.86886857497905 34.63749508326832 0 0 0
1910 3 18.78656872706856 12.390405259429498 34.68447405438393 0 0 0
1819 3 16.63725984595132 13.067376540562645 36.21946101708693 0 0 0
1031 3 15.954712570085068 12.123519892319342 37.1518711363111 0 0 0
1032 5 16.945047920975306 12.625221903280373 37.63347830242286 0 0 0
1663 3 16.359597973088484 13.385454289649244 34.73694014343789 0 0 0
1684 3 15.227766085033402 13.396188268438845 36.627825256498625 0 0 0
1911 5 19.650676852745164 13.278567128864632 34.19337530945701 0 0 0
1128 5 20.083929885602416 11.17168195817555 34.759514304247915 0 0 0
1960 3 20.199475648361105 12.260616624523042 34.30899698712031 0 0 0
1651 3 20.057285325557515 10.041985233107994 33.77561048474281 0 0 0
934 3 21.917733540159215 8.837339157880535 35.73982799071294 0 0 0
935 3 21.89487109133658 10.247373390846109 36.26692593251951 0 0 0
936 5 21.652903850459804 12.459630547398646 36.745390937036234 0 0 0
1127 3 21.274547565337134 9.920277507783911 34.86306769196469 0 0 0
1225 3 20.912937975709557 11.219555557213909 33.823214907166005 0 0 0
928 3 21.457847511623797 11.272745906043586 37.282189967112856 0 0 0
1139 3 22.488045158596538 13.2617375415313 37.13841400484351 0 0 0
1184 3 22.882102174468578 11.857037459183113 36.88024854115501 0 0 0
1994 3 23.593069700199408 12.711346031954882 37.94456236903483 0 0 0
1138 3 21.688216116209443 12.398510648457068 37.90827867675466 0 0 0
1722 5 23.750990525498203 11.56735155263828 37.84090879131213 0 0 0
1715 3 25.638983788293555 10.907310112375558 33.604324537836604 0 0 0
929 3 25.072409344084097 8.880476811712356 34.66693223665112 0 0 0
930 5 24.822527010775854 9.471063141564056 33.573634243388966 0 0 0
1890 5 13.981235711062713 14.43680945167421 33.809087048990406 0 0 0
1254 5 14.874181882641679 15.93107147027188 33.776289661430155 0 -1 0
1632 5 15.073548806434191 14.00112445344856 34.26501941540491 0 0 0
1991 3 16.29277426643577 13.600665347112521 37.508460857260886 0 0 0
1992 5 15.223469386217044 13.769160075615734 37.99701950728446 0 0 0
947 3 23.909243368206443 14.541117955495588 37.105704666271365 0 0 0
1675 3 23.907551674455032 16.01807789584225 36.51413437451684 0 0 0
1677 5 23.392980078457825 16.919637978429996 37.009818282575225 0 0 0
1993 3 23.020890839794156 14.209964215170562 38.26977922235589 0 0 0
1339 3 23.55964042411811 15.968238896139653 37.8795322401603 0 0 0
1140 5 21.726807024075374 13.563921857890538 38.000747236576984 0 0 0
948 5 24.792799806499794 16.280716618197907 35.6676893235591 0 0 0
946 3 25.23171853882163 15.530024272851303 36.51446895139394 0 0 0
1057 3 24.87290646756894 15.47364441437017 37.90901100662754 0 0 0
1058 3 26.025586565069116 16.66975198820531 36.112713458314246 0 0 0
1059 5 25.956170676381134 15.64949173467952 37.4678274445436 0 0 0
1340 3 25.512887570862237 16.709486324937306 37.431363118598995 0 0 0
981 5 3.1630494193745275 1.3953903212702097 39.061635945618065 0 0 0
1811 3 1.7823618198158981 1.2072366513009054 38.75941714880412 1 0 0
980 3 2.428820375859146 1.8961857451945523 39.65503713202064 0 0 0
1108 3 3.655677972596365 2.6757702966309123 39.725299861292314 0 0 0
1109 3 2.6527081680886293 0.3911115869160091 39.748004246444054 0 0 0
1110 5 2.8212124260319564 2.2697524901673596 40.641941965045106 0 0 0
1634 3 1.73953419332907 -0.18474590509971223 41.249454400687796 0 0 0
1169 3 3.648812812146688 1.3591493287155882 40.303117884486795 0 0 0
1633 3 2.218363099842989 1.2796352314690056 40.88217120854338 0 1 0
1424 3 1.5474632002411144 -0.8656406398574759 42.9490621454913 0 0 0
1170 5 3.714214272236348 0.7810737000211263 41.060123914749056 0 0 0
1795 3 0.761815226359588 -1.225499005910913 41.674851743826835 0 0 0
995 3 5.222219585071146 1.0303456262495168 38.67336183910864 0 0 0
1168 3 5.286745556175267 2.2077004101461246 39.91110422052212 0 0 0
1313 3 6.553300013884052 1.7383093502750626 38.97611363098136 0 0 0
1314 5 5.630649743354913 2.9668865144926535 38.87683123670685 0 0 0
1988 3 6.624091293479734 3.1537736365190034 39.59818133326662 0 0 0
1063 3 12.239072192926056 2.5653638951144666 42.12562554141657 0 0 0
1065 5 12.01151111421121 1.508937106312071 42.478147285695115 0 0 0
1177 3 11.87938527688601 -1.0095810654639668 40.031524927694406 0 0 0
1193 3 11.38364030653193 0.2573802127100009 41.037309619905045 0 0 0
1406 3 10.855792881138797 2.012440301749068 41.90232969716972 0 0 0
1475 3 11.959882335695411 1.6095461353724954 40.9946591671542 0 0 0
1828 3 11.718294630865339 2.7624003882129315 42.905205811842436 0 0 0
1192 3 12.95876301443694 2.880075855872829 40.830561513323445 0 0 0
1076 3 11.495840989152827 3.1195960462846744 40.97087453950819 0 0 0
972 5 18.60158809816002 2.4852347472104457 39.066388328824075 0 0 0
1330 3 16.84344306015082 1.579310131723506 41.216890508838105 0 0 0
1331 3 17.622697345985962 2.574814557551578 38.95439745704142 0 0 0
1332 5 17.25270211926133 1.5819135086429883 39.958689250467486 0 0 0
1742 3 16.262718361768925 2.400221248361647 39.8352261950063 0 0 0
872 3 16.945413319062983 0.9264937404882925 42.548536779090185 0 0 0
873 5 17.600207189133116 0.6089693379391845 41.57479308877778 0 0 0
1070 3 18.10638572114004 1.6402360483545129 41.00100604388368 0 0 0
858 5 15.520805101694783 2.5845181611898003 41.52922748934358 0 0 0
1432 3 18.267551901690897 1.4460722282127663 42.35422507973419 0 0 0
1071 5 19.071684699689875 1.632732328008563 41.02398324793279 0 0 0
1621 3 15.190704414035563 3.1752112815036657 38.70323750107761 0 0 0
871 3 17.610314343025962 2.77430604173396 40.32659406111796 0 0 0
1696 3 17.825152140620432 2.8100455102463346 41.7450077987051 0 0 0
1697 3 16.990835340795368 2.395698757366735 42.50130666086342 0 0 0
1433 3 16.435965769515835 2.955577981204496 41.36271904928081 0 0 0
1812 5 22.104027739519058 1.8323889483026246 39.93395280754888 -1 1 0
1151 3 21.989505697974163 0.6376941511823855 39.987889479242114 -1 1 0
1635 5 1.1345432795311723 -0.14248878888539562 39.45037056707652 0 1 0
1506 5 21.192165311041688 -0.2794683029355082 42.622895947266315 -1 0 0
1505 3 20.408561449860326 -1.1773566469128225 42.48925838026783 0 0 0
1034 3 3.6108599424375765 3.5732375343842673 38.41855955749635 0 0 0
1020 5 6.093802283243976 5.718582406281533 38.5936028560381 0 0 0
1781 3 6.365206086249015 4.385176480251989 38.79635743599289 0 0 0
1458 5 6.655546443264183 7.963799408743962 39.11934414113958 0 0 0
1018 3 7.80099552487398 7.310156695634866 39.425147938427045 0 0 0
1951 3 6.8546997896011375 6.288284730267251 39.332735392435595 0 0 0
1987 3 6.551058599747067 4.482826436663903 40.261142456347216 0 0 0
1320 5 7.68850189047259 6.20900875186787 40.21413743979883 0 0 0
1648 3 5.586552595619018 5.446884511227183 39.661824236388455 0 0 0
1649 3 5.2054976455444795 3.8338705525750845 39.85027939724948 0 0 0
1650 5 6.505226960826058 5.876998832440648 40.49196080061972 0 0 0
1780 3 7.045459127148699 5.4628898650024516 39.444601609265206 0 0 0
1782 5 7.414339669041877 4.149885918670757 39.36292677513734 0 0 0
1600 3 8.29228700809244 5.981270286607572 39.105686742371006 0 0 0
1989 5 6.4081358742955645 3.988897176901818 41.06659223460811 0 0 0
1952 3 6.563748861717421 7.257803231308891 40.29020568058037 0 0 0
1194 5 12.309188086485804 3.3608556283279665 39.64655520397788 0 0 0
1741 3 13.735099888525161 3.5967428522680236 39.48082191017279 0 0 0
1407 5 11.083193833669894 3.2615312056321786 42.13760169940146 0 0 0
1687 3 13.47628557824055 5.216800645613814 38.849280919011264 0 0 0
1211 3 12.86293495958272 4.408958394622335 39.91297211005302 0 0 0
1075 3 11.361136448348846 4.171494356592509 39.774829166973646 0 0 0
1077 5 12.393626322796367 3.6424595142038996 41.83951141852526 0 0 0
1210 3 11.928309525695699 5.326298794648455 39.00434032060289 0 0 0
1212 5 11.938344758537008 5.14408852440367 40.28978364318483 0 0 0
857 3 12.499594771882064 4.12704077809287 40.63966258423555 0 0 0
1623 5 13.679034337318889 4.024866781148392 40.76709767969673 0 0 0
1622 3 15.227219727024684 3.5528323069708767 40.15638448507565 0 0 0
1394 3 19.238568213760608 6.512643849045525 38.386485224541076 0 0 0
1395 5 17.978722410960252 5.922172651751046 38.5576137814391 0 0 0
1393 3 18.40418920941238 6.272394526932233 39.66628061546979 0 0 0
1250 3 17.76623810966194 6.989706541088918 38.623022075947176 0 0 0
1434 5 17.967369058423397 3.742571581382384 41.79664417686638 0 0 0
1844 3 18.178635447326624 7.257178563748493 40.65723849825835 0 0 0
1845 5 17.43865622594597 7.17413350986625 39.64479078399208 0 0 0
1351 3 18.903241939886936 7.320405469882014 41.88378022959627 0 0 0
1843 3 18.869250409390876 7.625121511266428 39.31356723713665 0 0 0
1353 5 19.445251563934256 8.039391613168764 40.966650128752605 0 0 0
1348 3 21.090989147902203 7.555994516097448 42.713508266275824 0 0 0
1152 5 9.505928021593885 10.761721891286895 38.392338888541516 0 0 0
1953 5 5.9907095213048205 8.364301796371366 40.31026151967231 0 0 0
1456 3 7.320666911204415 8.367250808267247 40.112085617471095 0 0 0
1318 3 6.740269471293661 8.913693381217666 39.647338321105195 0 0 0
1159 3 7.942421474074118 9.56807197914529 40.40855473799722 0 0 0
1160 3 6.22831785712191 9.597972602146184 40.2465224967292 0 0 0
1161 5 6.927714501710372 9.050543277368075 41.00814064137077 0 0 0
1865 3 7.244279270058283 10.10359765450244 39.19892848164298 0 0 0
1866 5 7.730630405976515 8.80478365590962 39.07256652270368 0 0 0
1871 3 7.70245927482835 11.793709176153254 38.84196477165902 0 0 0
877 3 9.476674130194194 10.058016386528072 41.103804037668425 0 0 0
878 3 8.408536410949365 11.107610373214857 41.142030527541905 0 0 0
1864 3 8.813483515538874 10.720930294631549 39.54145024688242 0 0 0
1357 3 5.620151958290245 9.945605340019025 41.291713837932335 1 0 0
1111 3 9.25595187535995 10.744227729991103 42.32261397696162 0 0 0
1150 3 9.145661956498493 11.833974934377725 38.56691105398545 0 0 0
1827 5 9.755991695388202 9.779903039505333 42.86221576613893 0 0 0
879 5 9.781697063147181 11.303696872516255 41.43500342001094 0 0 0
1222 3 13.380805541946062 11.577274571324438 42.40558739095252 0 0 0
1224 5 12.242337942889732 11.427181813468746 42.23865328531302 0 0 0
1272 5 13.721916195117064 11.801562993002364 41.33860833180552 0 0 0
1815 5 13.626668097017358 12.812068619964775 42.42030743014722 0 0 0
1826 3 10.21087803458431 10.723093912703455 42.38834641986212 0 0 0
1728 5 11.84406460060407 9.886288910255676 42.59729586862879 0 0 0
2005 7 14.345090191141423 10.85289325273052 41.94467651359258 0 0 0
1813 3 14.180925632853738 11.756313155812439 42.612141930168505 0 0 0
1271 3 14.568837369035757 12.529018172086865 41.80310917439512 0 0 0
1030 3 16.043312195302402 12.80068939398119 38.549848411841054 0 0 0
1352 3 17.666554946163057 8.340406563598885 39.61704238997227 0 0 0
2006 7 17.416192622994732 8.343562951734462 40.73972820537742 0 0 0
942 5 15.053871742566827 12.725086748429133 42.783851981857424 0 0 0
1270 3 15.233968082318777 12.336725329748926 39.76366540769297 0 0 0
1814 3 14.834704677059662 11.402907119988665 41.04746321030268 0 0 0
845 3 18.143312673945335 8.499300109342963 41.65823671090362 0 0 0
846 5 18.393323965902827 11.882907793303241 41.83294268371209 0 0 0
1739 3 18.627753340635678 8.653804678153728 42.87636565519077 0 0 0
1740 5 19.07525769282405 9.200551053686242 41.57427978073562 0 0 0
1771 3 17.79950737523178 10.743326392463697 41.56888465444662 0 0 0
1772 3 17.775386076725137 9.595914184041321 40.75465134210951 0 0 0
1773 5 18.151392648546043 10.019369798228222 39.94964553110988 0 0 0
1738 3 18.685377026067897 8.647144321070042 40.6932742739495 0 0 0
844 3 17.230025204857043 11.862027430742963 42.189167874760614 0 0 0
940 3 15.967273495151435 12.435673965818333 41.222317033204334 0 0 0
941 3 15.496942319178501 11.515963023897804 42.40756420166139 0 0 0
1568 3 18.336417369464495 11.018466966638258 42.78427060226785 0 0 0
1922 3 19.760071445180078 8.42505411450625 42.018167802040935 0 0 0
1720 3 22.67265136589737 11.35926452076755 38.237664829454275 0 0 0
1183 3 22.415972704486123 13.031694923454435 38.84312807874534 0 0 0
1185 5 21.98413025845074 11.928625566808261 39.02859103919779 0 0 0
1721 3 23.461841868514295 11.832192051719911 39.18796947280613 0 0 0
1061 3 24.3542490963502 11.915692036507096 41.27317193048441 0 0 0
1358 3 26.420475091401237 11.177155170501978 40.401472587908444 0 0 0
1359 5 25.80392349991832 10.01277858782869 40.25350038273895 0 0 0
1303 3 25.12807204281581 10.739529826171676 40.94449451533997 -1 0 0
1062 5 25.079474805480597 11.730166182969823 40.2305016552057 0 0 0
1239 5 24.625705426397307 11.024394226634108 42.089034301217495 0 0 0
1060 3 25.85801944802768 11.275041035318214 42.050391293139086 0 0 0
1238 3 24.878347649991518 12.111746638143906 42.62064524785359 0 0 0
815 3 25.693066645468626 12.355438802881908 41.118053328357036 0 0 0
816 5 25.898894929167213 12.816156848395206 42.23791867077159 0 0 0
1504 3 8.549040420491595 16.231425620719495 42.84884969775479 0 -1 0
1064 3 18.475400253244416 17.025322360110437 40.73417233203216 0 -1 0
1729 3 18.407428844965064 17.066279106446775 39.26800397970669 0 0 0
1178 3 18.78116242815464 15.619898877644435 41.12162322452288 0 -1 0
1545 5 18.571671807316175 13.667737713753402 43.11077928106242 0 0 0
1731 5 17.9305906143569 16.211457443796725 40.270462909865955 0 0 0
1730 3 18.899197281719765 15.972132459350995 39.755971711268515 0 0 0
1237 3 23.872239518330595 13.313908778414657 43.056617702046594 0 0 0
1365 5 19.410007779745495 14.962239463937065 40.245393445568084 0 0 0
1179 5 19.70278992814983 16.503184259845934 39.15496759267316 0 -1 0
920 3 19.82415367153583 16.731300720030628 41.44327229629738 0 -1 0
1137 5 20.737556184782225 16.526561260167128 40.744593706741796 0 0 0
1995 5 23.17387077495547 14.70544167005609 39.00904397539162 0 0 0
1135 3 20.288713907035504 15.321794820684682 41.22158596689563 0 0 0
1136 3 20.03417246627634 15.908201318811498 40.08690528137383 0 0 0
1363 3 20.28713539723747 14.300028007799774 42.564491766245865 0 0 0
1979 3 24.162561232066338 14.665495726228915 42.699889600211336 0 0 0
1364 3 22.69486230797856 14.294216562293704 43.24796532957133 0 0 0
1116 5 23.36513221894458 15.42038294488102 43.22819711006089 0 -1 0
1341 5 24.839783901533185 16.491564788052866 38.43427474579886 0 0 0
1978 3 24.78978131442393 13.418122798858692 41.76672473606568 0 -1 0
1980 5 25.383006851828558 14.355998719293666 42.31985767543141 0 0 0
834 5 28.031700928684103 16.020624064076326 42.76326325382625 0 0 0
814 3 25.364629131437713 13.410083203582337 43.0395430346326 0 0 0
1425 5 1.275504719810189 -0.5852080524155052 44.179492187196544 0 0 0
1736 3 3.405421601668171 0.7880255733546138 46.486778287126 0 0 0
1737 5 2.731686915195783 -0.3582045790100774 46.1750047581307 0 0 0
1797 5 4.035859237682315 1.202823768010134 45.93794641918407 0 0 0
1967 3 3.6992638707689554 -1.041824307436097 45.713291734993646 0 0 0
1975 3 3.768384608623337 -0.4289956596912028 47.037829236225164 0 0 0
1439 3 10.656664029987237 16.890595906563 46.71761808564381 0 -1 0
1900 3 2.4172418747425324 2.0169752127699976 45.95438623922321 1 0 0
1147 3 2.622488388205787 1.7927590724697795 47.37656052700807 0 0 0
1148 3 3.6380285153997267 2.626780608134949 46.77291102965883 0 0 0
1149 5 3.207575067242249 3.0479425213645905 47.77977967525295 0 0 0
976 3 9.55788718388634 2.5688205595724374 45.696964179700416 0 0 0
1590 5 12.26201138557184 2.0697743734862715 43.640445591864236 0 0 0
1405 3 11.198671109052118 1.6544318830191227 43.304467530494264 0 0 0
955 3 14.682379839967252 0.29604985246133686 46.323405878877026 0 0 0
957 5 13.90541812516717 -0.4211688311213453 46.84487080086585 0 0 0
1588 3 13.214802119179877 0.14607762514666356 46.03823625626994 0 0 0
1465 3 13.504077996967288 1.787117661801914 46.385239336680655 0 0 0
1829 3 10.344956031385088 2.6684158472488155 43.377771959127216 0 0 0
812 3 12.059725614379222 0.8594504653641462 45.750831209835795 0 0 0
813 5 10.602172349563 3.1471134674209686 46.15358002515187 0 0 0
1024 3 14.053836875085617 0.6805289488362598 47.32430626540064 0 0 0
1591 3 12.301801641946188 1.2546700936518125 47.10825616367843 0 0 0
1592 3 13.212136848679613 0.5379838836764468 47.171632382782306 0 0 0
811 3 10.730833575006923 1.7124396566299311 45.875116725062284 0 0 0
1589 3 12.144344381422567 2.4182681958397865 45.605700408128 0 0 0
1681 3 11.349286908337994 1.658155966494036 44.42014269820919 0 0 0
1467 5 11.655772235293716 1.9029404951313673 47.389619785875524 0 0 0
1593 5 12.147025190318063 0.03147693012533903 46.642084140262924 0 0 0
1830 5 11.471811984802633 3.1003244864855852 43.869735157344394 0 0 0
1466 3 14.906649658834827 2.871489539000417 46.229929732414135 0 0 0
888 5 14.916416714644244 2.985200251755323 47.53280693916811 0 0 0
1682 3 10.832970497660511 3.0275828021400892 44.95413329520075 0 0 0
1025 3 14.744505596961842 1.7184474198649906 47.23735981305704 0 0 0
1446 5 15.265350209328505 0.6060236001248294 47.40247713464569 0 0 0
856 3 17.71479757096522 1.0324767450995735 43.923848889354986 0 0 0
1444 3 15.981322192596942 0.7364045906132031 46.266925674263305 0 0 0
1445 3 16.776077861068064 0.010684558404438604 44.9736148641433 0 0 0
910 3 17.93976635732313 -1.0490106049659773 45.382176485567086 0 0 0
911 3 18.029007804812426 -0.4921917475060066 43.85371757600977 0 0 0
1942 3 17.429908714861018 -0.09199616516008002 46.496432106331596 0 0 0
1944 5 16.731978807077116 -1.1069501761973988 45.67640119067977 0 0 0
887 3 16.01060276790456 2.645935227334463 47.08788088296521 0 0 0
1698 5 16.73532323913342 2.15281723831819 43.41262114826257 0 0 0
1121 3 19.46939502472376 -0.9306931558268792 44.62943797302363 0 0 0
1187 3 26.163588089674636 16.772197564406667 46.66119219207478 0 -1 0
1419 5 16.148110008316728 3.4013285258732875 46.011012816640644 0 0 0
1954 3 27.636898410721077 16.82721745335019 47.58126267852859 0 -1 0
912 5 25.122653604313935 16.88163257890643 43.59536672573792 0 -1 0
1943 3 24.793583540509783 16.807786409862477 44.61536015239734 0 0 0
1122 5 20.068302677881938 -0.5786590586342929 43.38237479153685 0 0 0
1472 3 19.95748731705852 -1.2659315484494318 46.083982371410386 0 1 0
832 3 21.15026783656328 -0.8891405686877385 43.572655897576325 0 0 0
1902 5 22.276947581394 2.1649506482120437 46.886035284152925 0 0 0
1471 3 21.059277711300993 -1.1321305844402119 45.050364409075286 0 1 0
1901 3 22.879200478817502 3.0499810611047264 47.44468423680689 0 0 0
1941 5 22.728258022292636 3.0459914969255433 45.24145137502936 0 0 0
1796 3 3.0597847796595525 3.283981032327452 45.56522389769928 1 0 0
1202 3 3.0356984452005196 3.943872783522461 46.91003609143742 1 0 0
1735 3 4.504935185374487 4.16552920800403 45.922793461649775 0 0 0
1707 5 8.917938048104435 4.61592586489218 44.709552956788414 0 0 0
1282 3 7.480004066646586 6.497142399719647 45.36389506377752 0 0 0
1336 3 6.581176489787714 5.403580387534504 45.06603564875806 0 0 0
1338 5 7.675689488401879 4.382392932791225 44.76104499870573 0 0 0
1879 3 6.884650035855857 4.1448972976819665 45.791865749237886 0 0 0
1880 3 5.646135170446484 4.375264800379982 44.87399452590532 0 0 0
1881 5 5.792241941230126 4.068364185419734 46.12210048439765 0 0 0
1283 3 7.123224313600581 5.549928802986493 46.42856039593869 0 0 0
1284 5 6.245080597974361 6.292523315222421 45.76819106449982 0 0 0
977 3 8.224509315209282 4.224124290930678 45.87062324131247 0 0 0
1182 5 9.212211315426538 4.959527410064104 45.98884958556809 0 0 0
1337 3 5.631353245617336 5.278185674349921 46.15760759072231 0 0 0
1399 3 8.176385262674705 5.175404090959887 45.4197211270871 0 0 0
1705 3 8.574538349559246 3.6895646966001503 45.41185940243824 0 0 0
1180 3 9.386301790129755 3.309204729867859 44.31554057573207 0 0 0
1401 5 8.320580430057692 5.927222931241734 46.25282751618211 0 0 0
978 5 8.918085787283882 3.729204037131537 46.61590791230981 0 0 0
1181 3 8.42638626688533 4.979601056558329 46.95766000506053 0 0 0
1706 3 9.80107322027924 4.062747295964221 45.63820893394153 0 0 0
1289 3 14.681090568854554 5.308725974248029 46.30617138657341 0 0 0
1727 3 13.885536652418779 7.480451729299624 44.50187868899491 0 0 0
1846 3 14.220711953468788 7.315405219803455 45.899610970821044 0 0 0
1377 5 13.139899911304445 7.8266840034206515 45.53642971850773 0 0 0
1683 5 14.881512480974813 5.013189877576164 45.129124629459554 0 0 0
2008 2 17.886539156280904 7.232032247249346 42.937078687538644 0 0 0
1541 3 14.878893904329782 6.278608000789308 45.01497040617065 0 0 0
1417 3 15.278500226026187 3.9722018247392215 47.093081607906115 0 0 0
1084 3 16.092037923608775 5.20575035763403 47.002359503146266 0 0 0
1085 3 15.952994132423154 5.478233373482462 45.54685914187688 0 0 0
1086 5 16.62333722418866 4.596886772425255 46.03088253640776 0 0 0
1290 5 15.793670020273847 5.597608904849168 47.79739910864856 0 0 0
1418 3 15.529725198273239 4.230278372590838 45.79459047347014 0 0 0
886 3 16.69971984063605 3.87942619120106 47.095173698701714 0 0 0
1288 3 17.814234905401893 4.484038835812589 47.89488902042372 0 0 0
1913 3 15.578808099050352 7.532676570389085 45.41309200833038 0 0 0
1914 5 15.178146092777084 7.286818479725072 44.313128158097925 0 0 0
1540 3 15.528690116489924 6.581510676512121 46.432696909385655 0 0 0
1452 5 16.176549691614486 6.592431979478784 45.226434580779696 0 0 0
965 3 19.383682500750044 4.176469555176141 48.14724284715753 0 0 0
1921 3 19.593198710651812 7.438119415713821 43.24140310194727 0 0 0
1542 5 14.927301487203282 8.373111691294142 46.04285526748593 0 0 0
1350 5 22.766276527124724 6.606103668691755 43.75998821773902 0 0 0
1939 3 22.454324823444406 3.1888438634175404 46.31876036839758 0 0 0
1201 3 22.1789305350072 6.179925623763798 44.90743081077042 0 0 0
1203 5 22.607234841237734 4.161326702544709 47.02635348685202 0 0 0
1940 3 22.71151542628238 4.3110111833105735 45.71112876618305 0 0 0
1349 3 21.375518852265458 6.8103771514078435 43.94446495309843 0 0 0
1335 5 22.71209392226547 7.119772074386661 45.743836394922454 0 0 0
823 3 22.335166213272398 7.712000164681834 43.81953153153252 0 0 0
1333 3 21.72667664787256 7.62927438769067 45.20006700202069 0 0 0
1334 3 23.13633640975903 7.096671464511372 44.6728972127505 0 0 0
825 5 23.309389601796568 8.234060700977082 44.33583271489705 0 0 0
1036 3 23.02593027936686 8.297245309317137 45.49643079797953 0 0 0
1066 3 20.890318396858653 4.107724485427021 48.15054219648026 0 0 0
1305 5 7.685373585640644 11.056939294663138 44.09345951025067 0 0 0
1112 3 7.8264150941672135 9.820737084367872 44.02074110387119 0 0 0
1304 3 8.960757470707208 10.550896447172239 43.81156034600919 0 0 0
1628 3 8.552438819361193 10.924809980369256 44.829808026126585 0 0 0
865 3 6.607474923908969 10.25437549507484 46.51999423946195 0 0 0
867 5 6.933018516431712 11.35120761665991 46.22263275870725 0 0 0
1247 3 8.016212880128222 10.729587652781547 46.350537498441994 0 0 0
1627 3 7.19239513941176 10.546975734826416 45.17706606736705 0 0 0
1629 5 7.2401979290090495 9.48201881751228 45.928789837434664 0 0 0
1300 3 7.287598198747538 10.723870178086681 47.68721340600432 1 0 0
1246 3 8.475871382479706 9.699571922796306 45.40364325740309 0 0 0
1248 5 9.053843361546257 9.505341289659896 44.37394141772589 0 0 0
908 3 7.788125835673248 9.46161917646145 47.00553587207253 0 0 0
909 5 6.587290659134207 9.48449992985514 47.404339736620386 0 0 0
1551 5 9.574603744386772 10.453702589132783 44.98625145042 0 0 0
1825 3 11.525016439894884 10.969443745654525 43.025325348178015 0 0 0
1726 3 12.87137376026312 10.485469554709697 42.96999767803358 0 0 0
1223 3 12.564453503201928 11.954817290905343 43.437254146336926 0 0 0
2007 7 10.398170774672202 11.300783791851101 43.38791242313006 0 0 0
1550 3 9.860193986283644 10.34320594065882 43.86594918952244 0 0 0
1207 3 12.762367871028728 8.455885238329525 44.501056438210924 0 0 0
1375 3 11.891349986447157 9.551716907295253 43.87408566975381 0 0 0
1376 3 14.039718962165889 12.512088603490481 43.549112136733484 0 0 0
1549 3 10.960117175810504 10.196067773103577 43.328205136058074 0 0 0
1847 3 13.856533354131846 8.776694552258855 45.446707048297256 0 0 0
1208 3 14.192747165469406 8.878536889019163 43.88216488670808 0 0 0
1199 3 13.433327977265684 10.037524525082596 44.58820124373335 0 0 0
1209 5 14.681327243570347 9.530353148244643 44.85945617987548 0 0 0
1198 3 12.904214700266598 12.959224695979307 45.00091197174454 0 0 0
1543 3 18.38128253265904 12.365827789824769 43.061533212016755 0 0 0
1296 5 18.936045158365996 8.575463341180324 44.95276222459556 0 0 0
1567 3 18.839280330920456 9.963005935369171 43.974250792225305 0 0 0
1569 5 17.86873638365607 9.80142676348289 43.8860388373309 0 0 0
1912 3 15.032900602215706 8.426527565123166 44.83888826807636 0 0 0
1794 5 18.975770731749627 12.557412574809456 44.67557143003083 0 0 0
1295 3 19.46502836617757 8.802708342773132 44.17072303813306 0 0 0
1544 3 19.59245160429759 12.949085225440514 43.548397669350535 0 0 0
1586 3 17.79398833659128 13.154717961662893 47.41822729049234 0 0 0
1134 5 21.269221193070404 13.165970601183762 43.28979786264671 0 0 0
1294 3 20.00373046275764 9.945975568316783 44.87889031249459 0 0 0
1571 3 21.31846094776937 10.47987118446588 44.63941053781819 0 0 0
824 3 22.233887651151928 8.87507979222147 44.44095767737328 0 0 0
851 3 22.03025757780758 10.691354511525155 45.77639966469481 0 0 0
852 5 20.823306110797354 10.29823597981346 45.78219392982514 0 0 0
1037 3 22.745000926455017 9.517604269396596 46.00092207094029 0 0 0
1038 5 22.552032135323923 9.97269144946576 44.803312539105164 0 0 0
1923 5 21.303048884231227 8.218460348847463 43.899080811412986 0 0 0
2002 3 23.255689817134087 10.670587880759355 46.915305133649454 0 0 0
2003 3 21.42293244710079 9.290757371718943 45.5162513915608 0 0 0
2004 5 22.070047310409343 8.434572489387508 46.15945047744944 0 0 0
850 3 20.505206119700922 12.344138303877214 44.53756812948859 0 0 0
1854 5 24.378434946264615 11.987561650453703 47.20179189241381 0 0 0
866 3 26.755131837988202 11.140190794686522 46.924276775080045 -1 0 0
1853 3 24.667708535932007 10.876404172882408 47.66664836616273 0 0 0
1113 5 26.013982234818048 10.210669825134019 47.14153613338539 -1 0 0
1852 3 25.5684944667955 12.02756350541617 47.673418952647125 0 0 0
1966 3 9.896374343029139 16.70345952732705 45.557192629070286 0 -1 0
1968 5 9.342625430469893 16.056461367000185 46.03361889391893 0 -1 0
1423 3 9.270452640781892 16.480971342002405 44.176586064814686 0 -1 0
1438 3 12.478154534501552 16.761971568293664 46.81823629499797 0 -1 0
1977 5 12.815765038399459 16.851443790096127 45.7455261465292 0 -1 0
1440 5 11.541711864167274 16.652084604771474 47.508774206340064 0 -1 0
1976 3 13.100970085116899 15.916036201382688 46.30990940747169 0 -1 0
1474 3 11.47275445937969 15.835426341518156 46.58563148197203 0 -1 0
1476 5 12.44407418930025 15.62704288637028 47.25106577800611 0 -1 0
1072 3 12.474556340335752 14.680596645034338 46.45344220589223 0 -1 0
1073 3 13.491239788994124 13.78219246932651 45.98304811031498 0 0 0
1384 3 12.155160729100455 15.869849261550465 45.305078635752096 0 0 0
1385 3 12.240151481475577 14.270334986638982 45.13361318698358 0 0 0
1386 5 13.02870505709006 14.078610791839884 44.353955614419306 0 0 0
1963 3 14.163734215579257 13.710820633722104 44.705960046419534 0 0 0
1964 3 13.545674276770102 15.019885878729804 45.25066728559199 0 0 0
1965 5 13.6765506521206 14.918833378512062 46.568456589494645 0 0 0
1074 5 12.300860915401474 13.475253749707695 46.047932060166715 0 0 0
956 3 17.714884606441665 14.684918206323063 47.500767945864965 0 -1 0
869 3 18.440695477347305 13.383793503125716 45.75762059943034 0 0 0
919 3 18.095747666656237 14.795804476615823 46.13120918399966 0 0 0
1200 5 17.844464942196705 14.254921672011768 45.04412502186807 0 0 0
1585 3 18.974518221837517 14.708481203678037 45.05726755074609 0 0 0
1587 5 17.474535164734213 13.805283800868596 46.59322868975708 0 0 0
1792 3 18.46453664634883 13.446462272473381 44.28600497247905 0 0 0
868 3 18.954366483919213 13.95376803855091 46.94511396240267 0 0 0
1133 3 19.38883949400072 14.381419572060567 43.67117947064186 0 0 0
1929 5 17.10183830714468 13.80624412621183 47.877891446826965 0 0 0
870 5 19.44645180949922 14.470612846835806 46.073460331579426 0 0 0
1793 3 19.832960126225696 13.533423564653843 45.01331304622184 0 0 0
1144 3 23.81918001698192 14.588150182384064 44.078538882932335 0 0 0
921 5 20.13749013318511 14.693487243567752 44.64448853501051 0 0 0
1132 3 20.745817339287857 13.82083065937433 43.907252249329446 0 0 0
1115 3 24.404258209102043 15.848613952820699 43.72147241384664 0 -1 0
1146 5 24.635756088260578 13.679067739168449 43.930328503783855 0 0 0
833 3 27.039609065395112 16.805049133152245 43.1430540427892 0 0 0
1145 3 25.29513256823452 14.602590555637118 43.54930774933739 0 0 0
1114 3 26.10914637118372 16.161490914859236 44.17799050658212 0 -1 0
1120 3 28.249306261820134 16.39810158958351 43.89489426990893 0 -1 0
1473 5 28.001348991962466 16.27263278719849 45.06922942716457 0 0 0
1607 3 4.408175287623036 -1.0963417794063322 51.25318259253426 0 0 0
1608 5 3.1981986484100142 -1.2337996892708927 51.1157854823538 0 0 0
1609 3 3.16469026887532 -0.269004546832303 52.03993636594501 0 0 0
1495 3 5.883319099557022 -0.8386401389796306 51.75956324510051 0 0 0
1841 3 7.28357181771989 -0.13301201449999067 51.92367854996904 0 0 0
1268 3 9.118659786118803 -1.4078452775941819 50.95051692917123 0 1 0
1460 3 9.002928760638003 -0.1426984891356715 51.492578261327296 0 0 0
1840 3 7.744785472068562 -1.4355573025282216 50.75084238045835 0 0 0
1842 5 8.608404227199223 -0.7437437411389656 50.087632254019155 0 0 0
1156 3 8.620632444480506 1.048780451929915 52.540092195457916 0 0 0
848 3 6.005927712144173 0.6253997270998151 52.535431093123265 0 0 0
849 5 7.352904244684845 1.0416088264681622 52.805565439925786 0 0 0
1459 3 10.032031636828531 1.1806774028677096 52.22816557500467 0 0 0
1026 5 13.51742328784204 1.7196832974952168 47.618916904965104 0 0 0
1040 3 12.953301295356226 2.204011476135787 52.476275608314495 0 0 0
1315 3 13.678417951424057 1.105541221317256 51.83570215513262 0 0 0
1937 3 12.255546042234162 1.5167669888163986 51.2307893136046 0 0 0
1938 5 13.169591321674433 2.2397902190437815 51.174330848232174 0 0 0
1850 3 11.095757085967415 0.7720139721964079 51.41778759604604 0 0 0
1851 5 11.073917140360669 2.035892870226358 51.256328872242705 0 0 0
1478 3 12.342866725805338 0.7291615668034472 52.59404844411064 0 0 0
1461 5 11.140563666460292 0.6679330776656296 52.72687009342182 0 0 0
1849 3 11.432457116180649 1.8404658996457055 52.540377762805846 0 0 0
1877 3 12.054143388498101 2.8959045883421095 51.564386270862855 0 0 0
1479 5 13.455897785952256 0.06027684885360518 52.60513190088619 0 0 0
1188 5 17.411812442228616 -1.4152494224418255 47.8545568269155 0 0 0
1768 3 18.367531862530743 -0.6839462577273266 48.02532590324449 0 0 0
1317 5 14.97277035088585 0.903034189069345 51.79330971353312 0 0 0
1770 5 18.540454344361617 -0.28409534286228166 49.13839618338818 0 0 0
1752 5 17.425459280943485 -1.236538381869987 50.32285213766289 0 0 0
1769 3 17.731902058728597 -1.2297647538263676 49.14686102826272 0 0 0
1534 3 19.336444230422202 -1.3177652876207944 48.956561624442855 0 0 0
1751 3 18.676454604986244 -1.012426137360198 50.203302290387 0 1 0
1190 3 15.850750526219128 0.8256045261739009 52.68841767511701 0 0 0
1774 3 1.590743168493425 0.19868604044201743 52.439143684462266 1 0 0
1776 5 22.028577861230993 0.5679834231300669 51.18202623982435 0 0 0
1067 3 21.209023904104743 0.6757739248220831 52.07665338890568 0 0 0
1556 3 20.120771106443602 1.6164710199145123 51.594139300657574 0 0 0
1639 3 21.636719961755723 1.8844833858841277 51.23252857343934 0 0 0
1641 5 21.01595474826292 2.100004179968109 50.48389428881063 0 0 0
1606 3 22.772313990672302 1.3342523273376081 51.65959875403294 -1 0 0
1125 5 22.07885952897658 2.6130526551412294 52.1697573124991 -1 0 0
1215 5 19.912519744598608 2.4054410746733774 52.566926763185506 0 0 0
1640 3 21.068791496969443 2.1268349485480886 52.65758629150936 0 0 0
1124 3 20.70347136999992 2.953738991831825 51.49874619758883 0 0 0
1400 3 8.876272983307624 6.124950071664611 48.80897600827451 0 0 0
1580 3 8.76685742275415 7.130719974269793 49.84133041163902 0 0 0
1581 5 9.180546466378923 7.330574305431988 48.61463413236244 0 0 0
1701 5 9.167138522811726 5.903781574246781 50.834389558021584 0 0 0
835 3 9.58186400818448 5.591059921514108 49.85081094073345 0 0 0
837 5 10.517850670353734 4.727831818458549 49.893185864873615 0 0 0
836 3 11.046131531240036 5.820926787840927 49.91941216389009 0 0 0
1276 3 10.09244614881045 6.927289980929068 49.320433210916335 0 0 0
1278 5 10.274483956633901 5.823606624213946 48.89246605527323 0 0 0
1700 3 10.190162049442252 5.2237445784744825 50.9294556564938 0 0 0
1277 3 10.104932262618709 6.601502288328369 50.93836485887364 0 0 0
1806 5 10.960430755097569 7.196438127753106 51.369755516785446 0 0 0
1970 3 11.319339832839445 7.259997369285225 50.152373396980025 0 0 0
1971 5 12.196611587801014 7.149586710924723 49.75606224401207 0 0 0
1805 3 11.579107110843834 6.168322258126494 51.258228959786294 0 0 0
1760 3 11.380018525147346 4.753929956414101 51.009142760908546 0 0 0
1761 5 10.620096574065403 5.725547029597566 51.81584113658917 0 0 0
1528 3 19.31792933403936 4.376427987080448 49.792250367197454 0 0 0
1529 3 18.77342918034488 5.69586944901534 50.740622901080215 0 0 0
1451 3 18.470001527874974 5.27779412591205 49.098509436290726 0 0 0
1087 3 17.736460861870317 6.13782883550852 51.906093835671 0 0 0
853 3 19.024659273288407 7.1215559932146295 51.6985397809225 0 0 0
1131 5 15.998873564331419 6.92537682225895 51.44726824112948 0 0 0
1709 3 17.58278204041146 7.577520327509932 51.06981999138998 0 0 0
1129 3 16.405364417860135 7.02236688853092 52.26063913307132 0 0 0
1279 3 17.861416625845663 7.580364608832874 52.71033903348571 0 0 0
1450 3 19.871351631096154 5.787151506545906 50.01745113050799 0 0 0
1068 5 19.891975708223192 3.624227417179739 49.06891427559202 0 0 0
966 5 20.19419589773022 4.742827820338917 50.614925143908735 0 0 0
1530 5 20.415423173959695 6.017786026206043 51.10444705089024 0 0 0
998 3 20.873947544446484 5.58953643746697 50.09054330608858 0 0 0
999 5 21.32235322314547 5.076947802993898 49.05211726627212 0 0 0
964 3 20.81193128431698 4.157859259401823 49.698674523067524 0 0 0
997 3 20.144342729376884 5.097539900174734 48.816125673810305 0 0 0
1802 3 21.882974216015416 7.846001088217009 50.868079438431664 0 0 0
1803 5 21.44192386365101 7.3575902128485 51.87403544253347 0 0 0
1572 5 20.740419258535002 6.579754966468696 49.54772485264071 0 0 0
1328 3 22.809652052535135 7.616092305516204 51.52794645742593 0 0 0
1801 3 21.449412458531103 6.641861689288687 50.702818120606196 0 0 0
1570 3 19.92711844531998 6.981160461244325 50.37254398225964 0 0 0
1667 3 24.082146752687397 8.050197842581888 52.44828640746947 0 0 0
854 3 20.653607745666744 8.009144094765706 51.05853485331119 0 0 0
907 3 8.660129357484557 8.485737686017313 49.251812780449924 0 0 0
950 3 8.415636735776493 9.796538656744945 48.58319335835937 1 0 0
1883 3 7.087777323302093 9.56733169170137 48.46288378120195 1 0 0
1884 5 6.940219177371249 9.70151273448344 49.44262364814536 1 0 0
1699 3 9.92423872956539 8.14281066505739 50.34828420511826 0 0 0
1603 3 12.60403201230725 9.944746928632384 50.03466325620464 0 0 0
1604 3 11.284650965516365 10.265583646671637 49.7809926908627 0 0 0
1605 5 12.05011583921203 9.353614843586445 49.2789814472912 0 0 0
1969 3 11.281798636640703 8.866200915576288 50.08077952311275 0 0 0
1986 5 11.853879160894335 10.714412523051934 51.024765579432625 0 0 0
1747 3 12.040298306751948 11.281379473590675 50.0978847649601 0 0 0
926 3 14.119631216457872 10.426051590352431 50.06074788623603 0 0 0
1748 3 13.071365856109692 11.190238118324928 49.47139014021187 0 0 0
1749 5 12.088306859831839 10.856157888163974 48.99116741958193 0 0 0
925 3 13.185252848436754 10.976879606046744 51.10772908901983 0 0 0
927 5 12.63201300892063 12.300025775670994 49.88267216927456 0 0 0
932 3 13.7709849655492 11.867674908162387 50.08750576659804 0 0 0
1984 3 12.271118660119905 12.080873329523108 51.07822641101258 0 0 0
1848 5 14.235351321412038 11.42125595578143 49.10792823270975 0 0 0
933 5 14.427330697783148 11.379780637843986 50.93545954251809 0 0 0
820 3 16.361019446615785 10.987894126477983 50.15399103312198 0 0 0
1708 3 17.86529083078732 10.322272308474602 50.31266447722605 0 0 0
1710 5 16.8276162205723 9.896993296113685 49.66601768294011 0 0 0
1255 3 18.97740441580886 8.29427670988091 50.519526751704475 0 0 0
1858 3 17.422382047708027 8.980430835846946 50.48335842410377 0 0 0
1859 3 16.506634953411467 10.002847199960318 50.96511139356683 0 0 0
1860 5 17.241703274566458 11.091083913044395 51.07665098458453 0 0 0
822 5 16.33356376067603 11.710730520625315 49.07781389055633 0 0 0
821 3 15.24658794530367 11.46996877730354 49.91469734626452 0 0 0
862 3 17.480414642347803 12.637416084414449 50.39430127931149 0 0 0
863 3 17.152219715051576 11.406155287710543 49.91000801719203 0 0 0
864 5 16.26475597313771 12.022334997306817 50.74405480212131 0 0 0
1927 3 16.219742979361616 12.622611488373066 49.762955912831075 0 0 0
1678 3 17.39292787059258 12.652901591983664 48.78351208168688 0 0 0
828 5 15.94026383242554 8.88994793403292 52.32929308526403 0 0 0
1130 3 16.8074054181883 8.65157546406869 51.975576910012194 0 0 0
1257 5 18.21411632691716 8.329272933515746 51.94192661502362 0 0 0
1703 3 18.96251102478239 13.181340150651165 51.108897355057366 0 0 0
1454 3 23.562034694009558 11.75573026541318 48.047013552148115 0 0 0
1575 5 22.48869622956939 8.7856150652531 50.78707939586373 -1 0 0
1573 3 23.724184295486733 9.489335683593511 52.88749154794186 -1 0 0
1574 3 23.280620376290116 9.025648189726692 51.68961103474784 0 0 0
855 5 20.423442539659014 8.952336304285923 51.14322277637892 0 0 0
1327 3 21.84816088540649 8.757782233927351 52.01899652576394 0 0 0
1329 5 22.523001158983075 9.551132409807913 52.56242513509325 0 0 0
1680 5 22.351821062647918 12.461835157029359 49.99809997727367 0 0 0
1907 3 23.343676702234283 12.447110970075846 49.364144342889006 0 0 0
1908 5 23.12448719651617 12.891061578418359 48.06783953284953 0 0 0
1409 3 24.356353459279514 12.846868003613482 48.03242753582214 0 0 0
1455 5 24.047284965999577 13.056289392936787 50.308351782621045 0 0 0
1950 5 20.159849792374647 12.86220004718946 52.14203221720224 0 0 0
1668 5 24.502068794784154 9.172477038001642 52.04203810382653 0 0 0
1453 3 24.697360777607745 13.186997420960667 49.366406022216836 0 0 0
1666 3 22.81666763631583 8.343613203390511 53.05184767056194 0 0 0
1301 3 5.98645069572812 10.458170455830027 48.05539823750678 1 0 0
1882 3 26.01823033810213 10.814756214590178 48.125533038942834 0 0 0
1302 5 26.867650600902277 11.610464964143315 48.07307001527661 0 0 0
1408 3 24.887538679202148 11.765507154854072 48.89537630817081 0 0 0
1410 5 25.464424518562037 12.807755925544267 48.504629913805104 0 0 0
1274 3 11.178464197426067 16.397737993177184 51.94015665239415 0 -1 0
1273 3 12.089109744188487 15.898330157334792 50.951246617850316 0 -1 0
917 3 12.741350962114876 16.124670187082067 52.161443769223695 0 -1 0
1275 5 13.249825424816896 16.29787324630859 51.121511238566114 0 -1 0
918 5 10.921583599043734 15.691311465200542 51.00297069655275 0 -1 0
1497 5 12.757819791099795 15.022050757620367 51.98350861337056 0 -1 0
1496 3 11.52345013285942 14.970427713666869 51.75185337856121 0 -1 0
1713 5 18.110521757159983 16.508169472232858 50.368401090991824 0 -1 0
1711 3 16.94885421676472 16.452929145905312 50.18990702731533 0 -1 0
1809 5 16.53989765480637 13.546333912504362 50.464879162133656 0 0 0
931 3 17.04104540110989 14.11238827915736 49.345874601777965 0 0 0
1269 5 16.900927429140914 15.583809800022795 49.30468815492411 0 0 0
1236 5 16.37868728788303 15.828145932627685 51.36041739863404 0 0 0
1267 3 16.447802871085262 15.313229825625665 50.369920799930526 0 0 0
1712 3 17.90564625557561 15.383919921505186 49.8697910758777 0 -1 0
1807 3 17.636594084274837 14.07903637960773 50.773760949457454 0 0 0
1808 3 17.675328245422087 15.745135494641229 51.352776462125135 0 0 0
1928 3 18.351443400582212 13.990297679146598 48.5484658291134 0 0 0
1949 3 19.158467437879953 14.804918037613575 51.15583803254508 0 0 0
1948 3 19.319420752344612 13.886460505443383 52.57380973930822 0 0 0
1906 3 23.44740688379663 13.845286631024388 48.906374186031925 0 0 0
1244 3 20.320197760457518 13.893078898556318 51.50170174027065 0 0 0
1245 5 20.266669329285513 14.849613213709707 52.2610151294174 0 0 0
1562 3 22.88728010891641 13.516935565757958 50.29845377331337 0 0 0
1563 5 22.775847549386587 14.535345222990204 49.49615544237382 0 0 0
1679 3 22.128853660565458 13.305478771807202 49.11885393800496 0 0 0
1561 3 24.006798714009964 14.383924809957197 50.02082797622852 0 0 0
1536 5 27.228996919602064 16.208526501336316 50.18422877480596 -1 0 0
1955 3 26.358220594221002 16.078040192831747 47.986123040679004 0 -1 0
1750 3 26.042569061274662 16.045650074456162 50.71781669806195 0 0 0
1186 3 25.031580647458163 15.955793010918255 49.75443027427349 0 -1 0
1956 5 27.47265198608767 15.901303767694513 48.41585552824931 0 -1 0
1535 3 26.545092713558773 15.790987172479344 49.39643903754856 0 0 0
360 4 2.9530325353239566 1.3543726562682472 57.01303975656663 0 0 0
1171 3 3.307644735443085 1.8627918591155954 55.7244951722476 0 0 0
1173 5 2.4102276029161587 1.643623301435378 55.342070957813476 0 0 0
1610 3 3.3415880580974027 1.184373449345322 53.03647828248366 0 0 0
1899 5 3.374621352453918 2.571152840319569 53.88182126892015 0 0 0
1616 3 11.080985803261807 16.502433855284092 57.07810597817871 0 -1 0
1898 3 3.947819264181436 1.8919722230130556 54.303485636770986 0 0 0
1322 3 4.825018842889582 2.6030297424025948 55.452503761805275 0 0 -1
1172 3 4.949466083642461 1.4129815931013148 53.297818833243056 0 0 0
847 3 8.11747335076032 1.9182422370213816 53.65877597158347 0 0 0
1897 3 6.5621618876014285 1.671068180141582 53.56571277048887 0 0 0
630 4 8.677728616776118 2.8580000721424987 54.78792081635541 0 0 -1
1321 3 6.724331395424411 2.54670200974278 54.71518552637096 0 0 -1
1323 5 5.471317587433781 2.0883112403952864 54.35771182067745 0 0 0
1286 3 6.116796270600793 3.1961571852176576 56.17113924218218 0 0 0
1936 3 14.659928570694909 1.7612600731953345 52.74442119661188 0 0 0
1316 3 14.59299734993289 0.31876621310572273 52.76458458913339 0 0 0
1021 3 12.70021231930677 -1.290890074277452 57.29396794416775 0 0 0
1477 3 13.506321122562037 1.0105110090816598 53.38847667560168 0 0 0
1041 5 12.360976211510181 1.6297354656081902 53.46106002875598 0 0 0
1293 5 17.1092059820201 0.6694490276444396 53.03674270388423 0 0 0
333 3 18.877773030880316 -1.291478827708155 57.15208805130027 0 0 0
1291 3 16.52392390579025 0.48428333605001384 53.97516476792647 0 0 0
1292 3 17.948569994648217 1.0387355899084252 53.9845599348254 0 0 0
1189 3 16.681506518642017 1.8165870896678185 53.40019678921985 0 0 0
1191 5 15.455631065071758 -0.07485775334277234 53.53765423934223 0 0 0
1483 3 17.929754184623928 -0.2815794631265365 56.502798558117135 0 0 0
1484 3 15.358133967255702 1.0081121794639682 54.054655921154904 0 0 0
1485 5 16.064577210484096 0.532061811750987 55.04429900992557 0 0 0
1537 3 16.913503382723007 1.3080902823249405 54.97897289247656 0 0 0
1538 3 17.310439955346844 0.11163946459402974 55.18164503712315 0 0 0
1539 5 18.016289538741926 1.8246981720089253 55.00020577337885 0 0 0
1141 3 18.23716627021816 2.4468150613165935 53.70343975610503 0 0 0
1143 5 16.007464729510016 1.8170193152636727 54.6330561294822 0 0 0
332 5 26.444977761072334 16.27779711113567 56.61715434497661 0 -1 0
1213 3 17.104006953676073 2.436763435966099 54.66136533253999 0 0 0
1611 5 21.46580536230691 1.049563842388779 53.35130680511402 -1 0 0
1775 3 22.29182896888336 1.7105637349284661 52.9231518596505 0 0 0
1214 3 20.008077468469654 1.2030831784430094 52.99265929643373 0 0 0
595 4 4.867228835792295 3.2625096009599344 57.06085710402712 0 0 -1
1287 5 7.448427728226808 4.264725952197836 56.27903425523047 0 0 0
1285 3 7.612885605236123 3.3679769584408543 55.951012008937596 0 0 0
55 4 9.069051999966796 3.6300500568932677 56.13671681145189 0 0 0
1981 3 9.07660214396942 5.718439864987877 0.6122389309556655 0 0 0
1421 3 10.287248700158962 6.35224317527741 0.5157430980821259 0 0 1
1014 5 13.672652053279103 5.659817979771301 54.24009393509776 0 0 0
1876 3 12.779977783376237 5.3071046907678445 55.012205453969614 0 0 0
1983 5 11.178655803473124 3.4303193604711186 56.838864652585855 0 0 -1
1013 3 13.019264382784316 6.16932626910267 56.21120272727262 0 0 0
1878 5 12.252778937781537 6.434376176293209 55.21668657462514 0 0 0
1919 3 14.255437273745526 5.393117071598455 55.44179291446619 0 0 0
1039 3 11.60472536935196 5.489059970590229 55.88244067174574 0 0 0
1158 5 10.890467621899623 5.472532103361086 57.07567242527102 0 0 0
1157 3 12.037804013609431 5.717386999600416 57.3266138531816 0 0 0
1360 3 10.41891110881129 4.310762289200344 56.25861320607335 0 0 0
1361 3 11.535510126429712 4.437203822391652 56.820318173176446 0 0 0
1362 5 11.991748876506229 4.335468295996494 55.59558232874504 0 0 0
1420 3 12.805289875365526 4.702520778065022 56.40042302849119 0 0 0
1422 5 11.542321765833288 6.4572840491831 0.5709549839053951 0 0 1
1918 3 13.42975456267292 6.544507434241664 54.980642876091665 0 0 0
1920 5 14.343086968331704 6.873570278053544 55.63946906790916 0 0 0
1012 3 14.474981570539803 6.483738442956593 54.335893324135924 0 0 0
1089 5 15.016252998104008 5.494712241082407 54.11883484073297 0 0 0
1088 3 15.578645482149021 6.65259588598581 53.62383574286099 0 0 0
1763 3 15.14455179644666 6.249079911880832 55.10458442354688 0 0 0
424 3 18.08907551808433 6.4820552952165915 56.86102700079002 0 0 -1
1142 3 17.441175752497493 3.9011481293300037 54.24566066916715 0 0 0
913 3 17.83273634038759 5.197155936640517 54.34470333256573 0 0 0
914 3 16.315528141014642 5.412728112753254 54.64287671872782 0 0 0
915 5 17.100245139198297 4.762840291590141 55.28960065597822 0 0 0
1280 3 17.198884867427765 6.199406590341355 53.306915923963814 0 0 0
1281 5 18.34214474448696 6.466905012400261 52.92129243949476 0 0 0
1764 5 15.09771410583801 7.397273639334311 54.521112995318916 0 0 0
1973 3 17.6046145796371 5.845025173261319 55.664949156276364 0 0 0
1762 3 16.231865439474927 7.0071070633620085 55.07003095843909 0 0 0
1256 3 16.743091005399968 7.822780043079787 53.65257446202068 0 0 0
1531 3 24.164457541816397 8.149005678709539 53.92532606705912 0 0 0
1557 5 25.032916073318503 6.125883004474639 57.34161573671982 0 0 0
1233 5 25.57997330126635 8.244675744773838 53.7272394018665 0 0 0
1985 3 12.521730585990232 12.132205073610772 52.5359649472305 0 0 0
1757 3 13.23476600206974 11.300476000959712 56.68529112477118 0 0 0
1758 5 13.594264089426975 9.938078468881509 55.04461021956841 0 0 0
1804 3 13.228107572454501 10.791663839700227 55.23966237185785 0 0 0
1915 3 13.040183250419208 11.622292641081966 53.87720441118893 0 0 0
1916 3 13.044973836183567 12.197304423839773 55.34138701250798 0 0 0
1917 5 13.956738919035955 11.614717914349427 54.64213446423689 0 0 0
1718 3 12.573490705946977 13.313865332019258 54.12550736778809 0 0 0
819 5 16.853615972034316 14.390267730646606 0.590884384492544 0 0 1
1972 3 18.22840744500784 8.264828284738716 56.304663705187494 0 0 0
1974 5 18.642638889939732 8.901669854311365 55.69233158700453 0 0 0
826 3 17.28921519046542 8.13927716525588 54.99866686603842 0 0 0
684 8 19.092148302942796 9.31052924980089 57.36032443310049 0 0 -1
472 6 19.471382432840883 12.11957037635928 56.7949597615429 0 0 -1
1895 3 18.51678337345355 12.624368614646798 0.7164711712554896 0 0 1
742 6 21.01616369699545 12.456353040980575 56.90177973346415 0 0 -1
1532 3 24.250523361214007 9.623573596086892 53.81658982535629 0 0 0
882 5 23.235099072056027 9.06407161318938 53.92363450307113 0 0 0
818 3 20.267958566536 12.924325983259372 55.4788164167273 0 0 -1
1356 5 20.976533844350246 13.036402099520814 54.340143959087825 0 0 -1
1231 3 26.93716081116724 10.681225240376554 56.32877740850799 0 0 0
1043 3 27.715197630328493 13.109473253095942 56.94301431355942 -1 0 -1
1579 3 25.075362589353702 8.850924363672107 53.02295459657725 -1 0 0
1533 5 24.888864932357965 9.983144746383726 52.94063634963523 0 0 0
904 3 25.067538613486313 8.918292487893556 54.85676993708316 0 0 0
906 5 25.02651958008174 10.175552373279064 54.42805275134607 0 0 0
905 3 25.636976261487874 9.373052015180686 53.788842985207424 0 0 0
881 3 26.233163189830016 10.259583332725825 55.054014324576485 0 0 0
1232 3 26.074001488074668 9.13778153026761 56.30634490783106 0 0 0
1042 3 26.510153552487804 11.919303286715305 54.822807058529534 -1 0 0
1787 3 25.877929119780312 12.573222369591543 53.49842074570637 0 0 0
1584 5 26.711318968954902 12.852963066040289 52.74945269127032 -1 0 0
1582 3 27.218737868515 13.096530477270619 53.79027099601272 -1 0 0
1583 3 27.239538477868578 13.221761140883446 55.61672992448095 -1 0 0
1717 3 12.26848079086471 13.992582395835083 52.8828805714536 0 0 0
922 3 10.25356341481669 15.3446070227352 57.11550749454496 0 0 0
916 3 11.84699802752969 15.437227861649733 53.053196884186406 0 -1 0
1079 3 12.184805314934067 15.56011514372366 56.68670023168188 0 -1 0
1259 3 11.326966214814204 14.456434304113376 56.73084946376761 0 -1 0
1260 5 10.772230130332968 13.892761488184394 56.30600868985539 0 0 0
923 3 13.132380571303054 14.14843374520234 57.12644090491574 0 0 0
1078 3 12.44730223876738 14.157856844277775 55.34515459644696 0 0 0
1080 5 12.304208049576289 16.183718729404557 55.970238608349575 0 0 0
1258 3 11.33873733523467 15.284846909614595 55.55937175390423 0 0 0
1719 5 12.08498108672361 14.588775310131814 54.09688959593747 0 0 0
817 3 19.082032672535128 15.019134820011713 56.981740449821245 0 0 0
782 5 19.173171240566635 13.679769284209739 53.82296811966961 0 0 0
1355 3 20.00609245966291 14.730211000154627 55.78776652740248 0 0 -1
1702 3 20.204407267933842 16.079552655337093 56.65988439594854 0 0 0
1243 3 20.955420521601653 13.87564129153225 52.654326786366084 0 0 0
1167 5 21.481516340680702 16.54671066236581 56.72566151965984 0 0 0
1092 5 20.567654180158264 15.176007029983088 54.60355992322367 0 0 0
1091 3 21.476108415722276 15.132324522460571 56.285566223119176 0 0 0
242 5 21.225840914104364 14.202651948350208 53.806470574120695 0 0 0
243 3 20.937938920068472 14.118556490291262 54.844026018783254 0 0 0
783 3 20.017469039678332 14.747698757238068 53.498604415284575 0 0 0
784 3 21.45125018245896 13.834932148722901 55.98255855083096 0 0 0
810 4 20.19863250707408 13.953667242625373 54.512355712140206 0 0 0
244 3 20.14965224499871 13.075940974232875 53.448352635892206 0 0 0
1896 5 22.24794068007165 13.50940863161515 55.57184597320119 0 0 0
270 4 26.76909177731842 17.81120332285464 0.48386996519334086 -1 0 1
951 5 26.391996291959273 14.58612000952784 52.60152244506125 0 0 0
897 5 27.45120557051172 14.115322029782885 55.24883467203108 0 0 0
949 3 26.303614949807887 13.84432888444139 53.15437917186037 0 0 0
1786 3 26.06984233944434 13.648557739110919 54.45171054307123 0 0 0
1788 5 25.280579792423058 13.504857674014984 53.60882206058379 0 0 0

Velocities

304 4.574368981183878 -3.3067812009537034 5.270897752405475
496 -16.44812417189352 -3.535566852814035 2.2576589098664193
283 -0.04702495450208016 2.0894851177397245 -0.6611381939082445
1617 0.3266435323812567 -0.98527295550778 3.2484271494183696
1615 -21.41163469145507 0.3629625112954057 14.699200787781736
602 -3.1934264050296486 1.1645355303627822 8.33373613092217
459 -3.132436915067923 0.9092959147480064 -6.3301375514770255
320 1.8828959927838125 -3.001387639112254 -0.6496619062744562
603 17.387671405592553 -35.53388971644192 -7.175716983344606
62 2.7863268718559664 10.639833813952222 -2.538515699837392
1326 0.4378488167408584 8.08714721236644 5.647961500069962
1166 -8.061538164769619 -1.9348802068920439 5.351621679204445
1324 0.1229903492375712 9.672390950354213 -14.234262221785084
1022 -31.993586707573858 0.2305101748100086 -9.590090950006593
1023 -1.9603267576721803 -2.268052780791189 -0.3799639933479157
1165 -5.615590415426118 26.789555261762295 11.24863703927371
1325 1.3156848757086983 13.928771145832204 -28.847987261714003
969 -4.132731428225652 8.09195965792955 -4.911145406025572
967 27.810516055161532 9.624105244001635 -9.33118851881279
1704 -0.2212119222821641 0.6051774429430925 0.8360050230767141
42 0.6015084964411874 -4.39648467517101 -5.115376420479818
64 -15.562795716308596 -4.673361225470756 -5.567265008878632
1 0.3925835761185517 1.619631300620495 -0.026203794922004843
895 -0.7064579031494509 -15.319462996057467 -5.587514327896384
33 -2.369372545561857 6.791740102962531 -6.48291848865516
323 -0.6537930200401494 4.041515900501848 -1.5167723557453878
773 -6.093121374568261 5.312997906365212 -1.8965819739346592
50 -3.131059241315298 -3.8621684363242865 -2.446383601517216
334 -18.004885551353965 -6.623579781677832 15.664123098825662
287 1.9590130724542143 -1.7764499320447886 -1.1793682461553356
896 28.050303337915846 0.41670804020615054 -8.097652060661419
275 -2.0182584368172516 0.29863881500681766 -4.5213029831328715
312 -0.15120356971874055 5.2630154281580195 3.219696552098522
594 3.1140409633366812 0.8472713244799821 1.3875187345521711
1123 20.479434335609408 -1.9647424349052023 -8.53610712866848
300 0.9310875188072156 17.123817824545878 -8.108956383444204
692 4.723547655438457 -0.6300109917765637 -7.583962851315714
693 8.366200381595364 -25.41966874345893 -4.156248273873684
586 -7.653836669938786 9.290337695531266 -0.5067678955675871
549 0.7489769976233622 -1.654254768793086 -3.057668016660852
631 -10.053447320220968 -5.234628027104706 -2.510703277695853
656 -4.980359822512255 -0.7750964566642184 2.5289552960364747
1759 18.380741598537114 -10.163096091686477 7.198636642777528
664 -5.097548044698957 -1.9631755518972738 -12.148930266022711
680 0.00913465844228698 6.773030373587787 -2.4315284523872625
124 0.6129197272577411 2.8292617471618597 -2.4550346566136567
672 -4.220265660203209 9.669850883801402 -3.924088688318017
582 6.872436112224511 0.8502898956034127 -0.15418574023593898
54 3.6168717667286505 -3.3139798962052933 -2.307654590986508
1982 -5.269308069913468 8.48454601796422 15.501755502833642
9 -1.6980741366796037 -1.0247858085406465 -3.5740322883687066
91 -1.4130883022950327 3.8059003494487964 1.6467124356101481
590 -1.0238164953457132 3.9142738757735667 -0.10026003054734592
545 -1.650001487440078 -0.7380497807167924 3.316632599866436
562 0.44147630429634716 -1.7170658095277367 -3.8276524100569014
579 -0.5143458836340082 -4.538032823934729 -2.408377539348216
324 -4.2868056443418325 3.3030895160714575 -0.22906750630670103
26 5.342797889516789 -5.469819303385954 0.19332488255243438
30 -1.6540859797199774 4.884924968579746 -3.4294144383867238
63 -2.507762925957473 -5.370704169658777 -2.937979196664984
5 2.6255922860184864 1.6566774038690155 -3.588018158988386
22 -1.5633949031346392 0.8849449960389628 1.9557840443689518
39 -1.4967911524312187 -1.522351550193564 4.292643317088445
968 23.916252086983732 2.256599598148486 3.76343282528553
116 2.200594156138086 5.394880474249227 -6.081442757430142
325 -29.322201022803302 2.841383401504098 -1.8882303011986161
422 0.40637406979757545 -4.621732926790941 -1.2718353726871865
423 37.81755241965108 -0.9774416220689252 5.265745671377926
450 -1.256888344381007 -22.139852107928675 -24.563583523645484
90 15.500780648086222 13.94005971568531 2.4720011040060963
279 -4.575426141981117 -1.173108399585683 -2.7340143857054993
309 -3.8962060557892837 0.9932234259091209 -5.813834908062968
694 -3.1555752261394683 1.0778023808651909 -26.232274333857887
720 -42.99523975893684 -9.76100364891293 -6.595830561604878
144 15.387429954105897 5.122154732203963 -3.618840834778141
746 -13.394866663885216 1.1835921021994893 2.1940440044011766
652 -1.5194602588777502 5.198886866102068 -5.924714291260642
635 -5.597965131406535 -11.194323960000986 -9.470158782710643
136 0.14651744467804326 5.112570228047137 2.115352532506479
513 19.95712258398473 -14.256507390948505 -21.934833336804644
106 4.107162387108311 -0.2263147418049197 -0.14827890199635857
1044 -3.4924986140279275 -2.1877135922631887 -3.377536328018577
152 7.299845018759945 2.480803007403226 0.46400429638674606
153 12.846825198066417 22.542591211740913 -9.054338814988274
112 1.957070011722019 -3.1841027946714355 2.8729626825230334
154 -27.652172745864924 8.846625258230707 6.161633785717289
95 -1.4936835416591647 0.15619723606610125 -8.107542672627392
129 3.5806599608858156 4.488100441425355 0.5052395567099651
132 -4.3984766975261 -5.0311369790224605 4.797608995182845
414 -7.325341988967122 0.06888733040216193 -2.3767731326964063
1491 -3.1671219828613157 -3.715016368797896 7.823938263304435
1756 3.634776060356109 31.70909826896188 9.111921548897099
415 31.90165319237073 6.4063803971116045 1.5449347465040242
99 2.5146132067726015 -3.1902067996641215 -1.0283837877837538
660 -4.039915151622876 -1.6865235878579254 -2.7647816374388254
386 -7.956889952374713 -6.211668660272869 1.3517344363355388
827 18.035414221846032 -3.9216313442121793 -35.81070626639479
402 -5.1674509101455595 3.3226331971017413 -2.5515221262467
476 3.8675060543688984 5.827116190267881 -3.998580363679944
500 4.974207468287124 1.2832931992042398 -3.6780727175399175
1555 -4.775597186318132 -20.929072682501157 8.41515822256405
1426 7.369872105928369 0.12167030746197667 -8.156416238914792
399 0.7474714634246128 -11.959247971371962 7.016699751108875
394 1.635461452663835 -2.8752581552979013 -5.682627171009619
361 1.0455656381908478 -4.349503789149914 -1.7842478644863722
382 2.381383059586047 0.7860975849002716 0.9992957727439811
390 6.007680680744946 -3.2024841273460063 3.126601698799263
365 0.68943904781401 2.256573735934046 -0.38508439447481907
685 25.079133342979333 29.465310008231143 12.977009206904098
1427 22.502634420933447 3.98719660253418 -5.782348143482826
1428 6.565215735856897 -4.365711267513391 -0.6301737361259057
880 -15.404540083767339 10.691268723792152 -5.413891518080317
1894 10.5979302039783 -11.636466638948642 -6.172335756488426
145 -28.69307653883598 16.10273807770836 1.2495789137908007
214 -9.440242267346502 -7.255969822763727 -2.3851206429022955
206 3.2711538690077715 1.0916110670845434 6.617035494760594
181 0.045625553005701015 -0.7110776148903859 -3.2510066942159264
202 -2.3347787476510518 4.252048684096554 2.371447040629136
219 -1.9959834126070515 -5.646030074097606 5.7733565986089195
504 0.6418854134512211 2.689303136127538 -0.9244731404643504
180 -5.7280177480944126 -7.380009852333871 6.28428803683879
505 21.005649767661268 -15.018248312627174 -3.288283428785508
512 -0.5361048660140941 2.4092695806933606 1.4392651416246933
540 12.715507512224958 5.2268655966782935 -9.145747928613686
1489 -1.7529079828864718 13.846213850591088 -19.730278152334154
1490 -12.533893985534114 13.640874253455065 -13.113499248189411
514 -9.485570720411301 10.41881044439665 8.779595626235372
503 1.383914155530432 3.28124796322518 -4.450889197191786
489 0.09753291830024802 0.028780261317898768 -1.8460074465992304
492 -4.194077050995093 -0.584468062086157 -2.9852226754912334
924 -13.43700480736615 -3.900856273079973 0.9732001847961537
296 -4.0043401675335115 -0.7768747393370758 0.9696203665350858
1235 -6.672180005875896 -8.64763233339561 -9.035952256334713
604 -5.912588335649143 -32.76994423009342 -5.021290251512928
455 5.568552957182032 -9.770285932898739 0.2420874401162357
736 0.36870905370026175 -2.431697968928273 -0.2824030590844757
774 1.8994305653007408 1.9443351291568902 4.220474336318595
775 -6.225524592839927 5.898211866606486 6.073222428284536
1234 19.087501624853214 -17.1348047076382 6.485194024656142
759 2.0791469804380953 -6.830798372515482 4.5524269138709625
757 0.07190240782400688 0.6647567759970172 -4.334086415524097
235 28.49209381126406 -5.512528757975214 -4.168410494614192
1354 11.35967149604976 34.14868136012852 45.761307624741185
480 -9.80796957731292 1.3784215942157878 -7.2306800789749
766 -1.2130722468166617 4.326127679663499 2.6292564557172233
721 0.14327950149545526 5.138330250485129 -2.3066378076308225
234 -0.7439518313866862 1.0353867936615053 1.129633408161372
725 -2.891180312370074 -1.6593752991782176 -0.4649939053472275
750 -0.6778033256417098 3.77948867867582 -4.146613863998038
762 3.7223549692668354 -2.326772483695455 0.6651010676230875
676 -0.5543416440720853 -2.180457170539926 3.8852298907075533
650 2.928703322906617 0.6053600352486942 -3.3007983552547326
646 0.5332196919009168 2.9778212047108665 -2.2719483482041007
667 -1.883485405477408 -2.2430680873587057 11.398768433272476
566 -1.7583894879455992 0.14962669490833452 3.3531499935250224
1090 4.696443499467308 10.374844588285887 -11.390231212899971
185 3.887567593449676 2.208378922693818 -1.3925366143516196
222 -0.4637911136883202 2.8285628248049663 -0.1354580946499075
303 10.558397538948016 10.5359508952602 5.013468488967525
470 -1.3401437640578715 1.1992795007217563 1.0763576647784918
330 -3.8136373311203777 -0.38308190636102085 0.2865336817542338
589 -4.846183939257662 1.3936200051154335 6.284395414636462
271 3.6857603917628565 -2.3012421456083323 1.7289404356299867
713 7.429218665866155 -2.741364192893235 5.527664594951923
569 8.939737290801204 1.010268880026983 5.959574114409297
557 -0.701787697750734 -4.111515800085192 -2.4928988860075734
585 2.418174934885006 -5.038725608295995 -7.27132837581777
548 13.297785634283217 -6.420542223758476 9.995281392426445
552 -2.6845720682343903 -7.861620118576522 11.171597984798499
593 -11.53127358575706 -2.989684614926618 8.563507830074235
580 3.5218315750827855 7.190163558137127 1.5881831631909624
732 -4.40261839952815 0.2605553248806878 -1.2668001476364743
560 -1.1417108313586188 -2.7505691305197173 -6.382306876557618
574 2.0049771269423093 2.7449714560457 3.751168432131275
553 1.2566969190300745 -5.315154763757904 2.335085048367143
541 -0.6041926633369455 -1.391623705201196 -0.9586181913897784
17 0.30192513005929816 -2.7714202986848444 -2.4640659825379623
570 -0.17992666801209659 -12.825069473056045 -10.817475156479453
49 -0.3134083719313656 0.3436743492591926 -1.4915921160984824
573 3.5624994715626466 6.76101086155012 -3.67022313762364
8 -11.380684441327297 -5.035743651217618 0.8725113916289804
53 2.421683619617352 4.917625680648578 -2.3264133949104417
40 -6.42164259448966 -5.201529807653857 -10.579748882587685
34 1.2136032220325803 -10.955118906428233 -2.6992634226055467
25 -4.411891436434617 -5.092444301727271 -12.844846499287737
196 6.840435264648951 4.236257005339421 4.457131622013941
189 -0.3278524939978301 5.0602089434312685 9.68497559195796
319 -5.880266561182003 -12.215837710451849 5.62083196933066
274 -12.526091187594313 0.6494639836858812 7.103166989662212
282 -5.060287595720222 2.435302691468607 -4.153743248363831
200 9.703289137744452 9.722724558211079 0.8454879108363232
226 0.742272951792712 5.527822270690257 1.090184714416445
315 -2.6363899686547776 -1.019194208965157 3.4816308328217924
299 0.46825962978038166 3.591016163112455 5.928834982366065
83 -2.930387390581665 -4.460683237688957 0.3728085262770482
13 1.3920019775469272 3.1153032195577905 -3.1337075286293348
278 0.24759508090471327 6.572175842666902 4.805862007958115
341 3.9514960664220276 -2.0538269752304585 -12.86167617145918
669 -0.4675798581525267 8.608216091879205 2.5016210127382434
410 0.9309601631839741 1.3179904186876894 -0.27267707115362866
556 5.3370123562691445 6.63090483023875 -10.705975071394493
663 -3.0418163812534686 5.828148355748682 0.1707333457907639
292 -2.381815730102093 0.8877818462579435 3.764693016470518
770 4.700322654796546 -7.868199202012882 2.1433025186703665
544 -1.9528628068650504 -2.9022223457354235 7.139882534733474
577 11.812393335184717 -1.8629317974779578 -6.28922785016337
139 -5.7005768104555425 -6.364689335612551 3.4349005070238183
135 2.3349029176674665 -8.882354602749874 -6.665998164837576
102 -1.8899084615128199 0.7083162003656914 -1.0763388012325656
643 -2.0413785711487153 0.782732637067073 -2.272432892821208
172 7.8045709024313 7.12501306673809 9.455447062340012
740 2.25823204338682 -2.7303739642948277 0.8200598617853535
107 -4.778565914006223 -1.4679223771658763 -3.157138004640664
46 1.5892991462980477 -3.248305340971113 2.493148235426528
729 -0.7262214175630101 0.8486123825682149 3.075805291050478
16 -0.3963418282219342 -0.2946483235186954 0.9748655870811526
12 0.6853408439786266 -8.044354262057151 3.19255096014792
120 -5.36946162330048 5.659697397280229 -3.039536575998449
29 -1.3062381346529266 3.8000537279491207 4.55427009714847
613 33.485640288988265 -17.501554814488756 11.052520649688978
4 -8.776783774648239 1.8380852348773609 3.821498037805656
123 1.9502423787619079 1.0416002435472793 3.500508462793215
20 2.597271085813188 0.5877465270117577 0.6245669006995824
140 -0.13945113554739313 0.3509675390681842 -0.8212314388255216
316 4.333451230967938 0.5876595397761395 -0.11652973300003618
393 -9.222128493876586 -10.783469827579601 -2.1026929753727033
421 7.075481411560658 13.925728052468193 -23.702639858225176
290 -1.922536041947024 -3.5457313965059845 -0.4855394360279227
627 -8.346465018088308 4.885591298192068 11.357816348547562
638 -9.619034600656708 -0.18499627081227696 5.100364986890512
690 -9.189402704966996 -7.7059669983417844 -2.2882750217791057
670 -3.438457924663907 5.438681179395141 3.1150566965727258
433 -7.319782087102738 -13.692639127799866 -29.15123880406201
675 4.879603707233723 7.832772085588705 -0.45520753838892586
616 22.82826718282906 14.701750458822003 9.783602601015646
702 -16.933391901954327 -0.713468465708173 8.424318664155823
691 -16.47692188252984 10.56910985483566 43.196546995440734
94 0.7808448289789869 2.920829369789487 -5.5482812872335305
119 -3.1989323852582454 -0.5391494700399767 -7.181122194112685
127 -2.920489975540652 0.7772403236551116 -2.612628528380086
205 4.4699396131878615 -2.4235085480762733 1.2062326788071784
213 2.1553738875268236 -16.35269368400081 -5.382891756924776
703 3.659948308610165 -16.199483049458316 -20.319782011914153
171 8.568360761871546 21.462274053407445 -28.175431812338502
701 -6.183028226664443 2.6422349361718522 1.2487348147702297
143 2.6889178382494947 1.711578161406032 8.42190828922056
110 3.687714865921687 -2.0485966460523257 -3.6384418527177815
103 1.0999605692856174 -3.2274541270206383 1.5378525266244558
409 -2.2948112170578843 0.6733901641662077 -0.9961568628334702
230 -3.5293844261228178 -5.380615704573813 -2.708744511051301
163 29.985573746077527 15.270418440051204 35.402911853891744
397 -7.459554943002195 -1.3538970911451862 -4.979684655243622
475 2.0725979699214085 3.7301994383615 2.6926542184853552
711 -15.905510379066097 -40.22330529771364 24.28982965127532
364 2.799499548025154 -1.842423125908034 -6.427377691377568
389 4.861881275533734 0.2318426551826248 -5.156074549081607
462 -13.04011252291099 8.168278099236984 7.189978929364089
406 2.0004957863480297 -9.088682151989644 3.442124258158808
377 2.470413586389433 -5.842441379343662 4.975367541144215
463 -1.0128210248443277 3.395388786499467 -2.246972786572395
307 -3.8223766354045257 -4.434787594123921 3.859078863734848
405 14.695849373592528 -11.744893324142458 -5.637446749887431
372 2.1806224001171772 -0.07621052560659798 5.4820684036855996
346 -13.66773076634789 0.74313842703435 29.71506816112625
380 -1.3635660962069691 -0.7451992258145382 3.943438436670785
413 6.461381283532629 -1.640288121169879 -3.821092510208564
420 -5.452281634576667 -3.4248563810751462 4.133726118028478
431 -7.6380050494938345 -2.2961773932935414 1.5805016970132733
705 13.159952504909647 -8.636606772204685 -22.656836513599014
647 2.1097230971636596 0.2505023388547324 3.020104628341455
642 5.892522631645417 -0.45928884423340344 4.016950464954098
659 -7.297555801097313 7.796236903007306 -9.060397155233273
683 7.638225780820074 0.4764072973531874 -1.879203259987523
754 -0.24304710825288606 10.874253823414305 6.564550439761132
745 -0.049376663722675414 -10.452115822847894 -9.956222890775281
753 1.5898523698904155 10.906134827353663 0.6054101281577763
432 12.112427335373582 -0.002556031368454748 -35.26036782382307
704 -5.630807490829571 1.0881428246424725 9.685782530284824
706 -2.0972418502780656 7.078879254100071 -16.53775199000081
765 8.284913736830553 -2.7277655497071422 -2.248487392244943
780 0.29353069376297497 -15.078791879068092 -6.9447794062124935
210 -16.020923173235055 2.9359363525629627 -11.944579134891947
193 9.125696347180234 -3.6623809055013266 2.2394269066071812
165 8.53436550235326 5.594237040643632 -22.22848716074937
295 -3.0305653428605446 0.05517863406392902 -1.6761574038575477
240 8.761282123311354 -1.0710322018238239 -4.818825158037394
499 19.49111605293163 4.57588198342006 0.8425558556377537
479 5.252851846846419 2.262296369951654 3.684191188199219
467 3.4753732118500817 -0.011279861357022422 -2.352166983565389
487 -8.36973995759798 2.6351374355538844 -1.0110749026257422
454 4.831603730855015 0.5205800919741174 7.026266281875218
354 -2.0283668907067685 -5.765646179146388 11.74918346958754
466 -0.17603879513055784 -5.06157895870449 1.7583484985168938
458 -4.209796762815617 2.7125618282292647 1.3931065605709199
495 -4.775133762661751 3.729293689847456 5.4621807064390016
166 21.161915436088712 -28.18238649579633 21.06123691449314
510 -5.418688877719084 -3.8325707159443927 -0.8807143767864034
484 -4.78435307912202 0.07483390869191246 -3.592631313282322
724 4.721603061184525 -2.011960912780033 -2.660362935190922
565 -11.037859207962274 4.026641102693106 10.694474900408657
483 -10.960999088106751 -4.388891861020427 -4.537768675415944
369 9.33187628386512 0.8482518578044422 0.37284739286350366
376 1.7268088191830857 0.9939019298675354 2.247055667074148
440 -5.848992961437914 20.08970376267723 -6.844212614406397
451 0.8093768136921959 2.0636175932054814 3.969698572908278
737 3.472597642122597 -2.121678458183884 2.7432831314619275
769 -0.3926421213153696 1.2202253846442606 -3.5736847872675246
634 2.3274097806057337 4.992925438631897 2.4814798336324433
233 10.66231787456763 -0.5062798128720022 -2.2650129926717013
749 0.5718446732828506 10.816616707691274 -3.747178359104189
217 4.029482865959518 -7.657056858909376 -0.2340821144768411
791 1.4363155500504188 -0.07753447785071951 7.199181180392462
184 -0.47844657382419564 -5.888116676061215 5.356364174363534
268 11.585485116704682 4.896598345222556 8.469197977600762
792 -16.848183630533363 -31.989341649371347 -10.823986550076592
733 5.738465346380926 9.375093684647553 2.497816965362733
192 -6.689140774239058 0.6683128628120506 -2.64253038183205
229 -13.866253435640788 6.690791121603247 -3.449433287839572
373 0.2281464575017707 -0.39376184269451486 -1.4413710298809739
197 7.172088439109519 -1.5871864493792567 1.208087091841424
225 -2.3708548797701106 1.7760745666487174 -2.4943266809955613
256 19.596654661194023 -24.145198671617717 16.389640226471954
164 12.17109316768149 -1.6831821436941763 7.179766371548712
639 0.6989159417745413 1.504740450017654 -0.26101156602055925
679 -3.0365853597592913 15.212691228209845 -1.4318761970705571
220 -4.217596850282492 2.9895406789961974 -7.262777136297439
188 0.7799087773946382 7.8969996529475575 3.1970711528892894
615 14.239738371302645 4.191428856251736 13.874900651043502
355 3.4710489359771532 -29.81509656741483 48.191689771256975
614 -6.281255511932715 1.243141340600998 -3.490222635831647
331 16.322555260562332 31.890339035225466 34.060973311580895
82 -9.222678446495772 33.41801673794632 27.821411338921124
561 2.6163562025177276 -9.135253853037995 8.640453171184477
600 -8.807707925849177 -3.35648553794905 -2.966654824418408
801 15.510194841117354 -18.818265422762465 4.86971111015688
601 26.89135647313383 -39.9415719773226 -15.89096694324686
598 -5.416503017798757 -0.4612018881924793 1.0678846756550364
81 -7.103877431732841 3.859884903283607 -4.623462405284278
599 13.689636001151122 -4.944163187156045 29.528247061508797
714 46.5695690687763 34.117464477824676 -2.390931398717996
620 -0.9082909617006691 3.5472845216882107 0.6413784663106917
45 0.038478069425881965 -3.4204006066854546 -10.81762157153725
86 2.7111506730708146 -0.842342442457041 2.2134539496087444
88 -24.55955648254612 -26.882217491094252 9.811414281234347
41 -0.4724752295307249 7.589930627021959 4.062267266377116
617 5.228038517868163 6.0763200323806945 -2.424743171939097
618 -30.30628787300327 10.704522042650773 -25.334169277778354
80 4.615271389803522 6.733304534775377 7.415760333847453
352 -7.218451529537953 11.078089329231553 -18.28719605679435
625 21.384157145139636 -18.766308333407974 28.750560343236984
85 30.21766197374401 -20.619711856884358 -10.77001766053949
60 -4.391982995564599 -1.67300944438775 -7.742304154212538
610 5.383581702105691 -55.454237819595825 -7.718720386872776
84 -13.671461627061824 -12.820791996890085 13.295505840202475
622 -22.503097876517362 -7.756962323812907 -3.489277989095182
310 0.18532832012468423 -6.441311157238777 2.7362416712544606
353 -6.936701537780206 2.760925097861921 -0.871106532593405
350 -7.384302561415303 -3.281768687789488 3.1495366628405286
621 -16.644619418716065 -8.713739349436986 14.25001132179931
115 1.1989585998578545 -5.157926877434631 -6.819673831933134
98 2.477690146023983 1.6196332246902816 -1.3262362039316058
715 43.396124278008394 -12.407955683942692 14.138991684252392
111 2.247186151631733 -2.331533900446232 3.647144368999968
176 -0.008065743679379154 5.780201233023714 -0.07928580196656633
177 -7.64330495745266 6.934510219247145 -11.024032758132318
168 7.981658265751792 -2.7671058252673517 9.138819477160869
178 0.922227628820065 9.335684586941555 12.898092544470309
442 16.102197555322842 12.15974904112634 -17.606355629047368
167 3.2800820472143113 -1.909457034610141 1.4562316332127785
169 -8.200977878837191 18.128223668723592 11.312813205545268
160 23.467536823619707 18.875454471417896 17.739853686360075
265 -4.8313760804979164 26.204304759994418 -30.4746168463009
130 -0.9128794764049305 -4.721329524945068 2.602256741930815
441 -0.8698881469254567 -5.2953449376030255 36.34252285654112
97 -4.198730180376983 -2.0402474546744442 6.891565225295702
150 -2.220737637885277 5.383532972177678 2.162611469423776
37 -5.199868077092836 -0.3773159629373754 3.1663974188956114
611 1.77506289686963 0.5612773398515205 -2.556511609345697
612 6.547529183112908 -8.366261522686049 18.718370848006728
61 -19.901632274361003 -29.046576999753093 -8.608197631363119
434 -0.516174960191447 2.8728109443614698 -5.142120875693566
286 3.705838955848159 0.4607408183154549 3.666786807453885
368 0.6625832102275022 3.8479900149981696 3.6253310846830273
385 3.502926269973167 2.7252911850368178 4.539835623759558
71 -1.4965588097187406 3.323338501309873 -4.115809464732669
72 28.68084513965813 -12.941919760758049 37.57910959524723
73 -14.998296064220495 7.172173039629272 -2.966054337389449
74 -4.480090882422418 -1.6522214490809062 -2.9566326077871716
76 -15.682823076106708 4.98965552664245 1.930770695280459
344 -2.8394915532258937 2.31776187441857 9.655011186352542
345 58.21499876580569 -2.6423142271284505 -18.58081442313845
75 -17.0836091808124 16.203004317648144 9.526346245805598
381 -1.6023294086729938 0.8920289341186165 0.9932570256892069
400 -3.6036055385071726 -4.607435310745419 -3.8553670985711928
435 31.069006946064796 15.14629459914141 27.70516345956781
436 23.517625749152373 10.43240321926391 27.43185888567649
655 -0.8184912008963114 -2.024367645997243 -9.46211324547791
626 2.267801745799879 4.411558461961915 0.24752068764179547
628 23.856289280963086 0.6219321754825705 35.53168614047586
338 2.6260218044076544 -3.061409781075936 4.6015036077339655
342 13.586968751137988 11.333845721490013 10.281558509032635
343 -6.5675941602681664 5.5108271262225825 5.319604136512656
651 1.1069019654531136 1.1581447209612785 -2.5609181222155746
709 -9.731552651041236 9.016154995196201 14.31500603075879
329 3.4422784448956993 -7.616348019726343 -0.747471720199465
277 0.5292674761995662 -0.6604059277318077 -1.453801544921188
328 3.8077966952286655 0.7024104995943592 3.304788654939814
707 -3.8752442191786747 2.265886468859144 3.597689350425637
671 3.0129183596058677 -6.179765339318167 1.4724400638859263
438 13.30678346739045 20.552958697132645 -17.979944160981724
710 -4.009106503483485 -15.584149508861719 0.30559765267575617
263 -2.802641521420606 0.956387823709365 -1.6024559452165656
201 1.5861186082238645 -4.796353253754587 -4.117967747376951
162 24.305988229244985 -10.666884778530738 21.349972623137774
151 -7.2808934808484675 18.418387138447702 -7.573135277795819
161 3.2794062504431927 1.340629382659829 1.303436291514125
490 4.805096807108229 -0.11375110890833726 11.91776766854454
717 -16.139851714455308 5.043465017921624 -11.248884361028063
448 11.666078771347102 -9.750592602011583 16.55946769464375
446 3.7195582750169085 -2.285667004312852 4.084462191834753
806 9.887920169604433 5.352847471123339 -8.736533121705708
728 6.155580079130096 2.8463391537813285 1.6985139515865555
261 9.437391709694856 30.9706176657045 -2.1274883404867926
797 -4.820062050430324 -3.1745611860522 5.416028236702432
805 33.99574813354623 -33.612238381816525 14.985921983364054
674 1.174199246117229 -2.5761326877281125 7.715870912945357
803 -7.291861453214828 1.814116224466088 5.266799090043753
760 -0.15373136068058682 -11.596321417462285 2.0616817736849247
251 0.9012386183589631 15.051060954145111 -3.606932249894036
241 3.1201849959544794 31.14118913808468 17.92862197850606
252 -32.74138374108385 0.6478828499993271 -1.1199864707979112
253 -0.514897460553482 -3.8162031302894257 30.251116317496127
260 5.230241958690014 0.6853585642833279 -4.182646797246868
532 19.4214522055229 5.066908472606999 -22.87609189175978
538 -58.66019879532459 5.111281704399252 5.884944508128247
239 24.909353108105464 16.617755384379688 14.467666553574487
522 11.72658557616679 53.30661685452587 -21.982526249499077
526 -4.953770133684959 28.74612226359314 -25.48787942985455
521 -13.765979712086587 -2.686117019969729 5.647888583946184
525 35.12370842991589 28.416033656223114 -37.13961456016483
712 8.72983004829221 32.86371894569622 10.36265223247448
524 -3.2236887588742817 -4.846790937141754 -4.006584480712814
523 39.931148016072875 27.32225967928149 -29.861282394785853
802 -0.9627657741813563 -14.653213098401814 32.561223000129374
511 43.678652904251734 27.55168484916073 -19.542826135929477
794 -7.242670638930973 -6.93243874321408 -4.005207098706762
530 -3.7526175406291866 4.219514567810171 2.4422501568744646
623 3.420660922300669 -0.48839955812000657 7.594499449441387
793 32.60363542927841 9.378951931775863 -43.596920427343356
254 1.654802666574862 3.2037092704008314 2.1201424907866055
209 2.4337668045228034 -4.971950191678123 -9.561607826141742
624 -10.321436989656725 -8.645196969339285 12.065986805201812
87 -16.49541307940449 -1.1152696151469712 -21.98242294759904
807 -13.775170300252677 16.312057974700952 -1.8741576366242831
796 -37.60586521243356 36.50478260504753 -2.3403550533388864
795 6.15382673954946 -33.14860748556092 -30.87937710453044
808 10.91047759529369 -9.171331483648887 -4.917169000255389
262 19.11647077012812 6.313275520269186 21.045905901147044
781 -0.6320024018978546 14.805046165207804 -19.178244021806083
21 3.983654468112839 -1.3755977861177944 -1.6400669049867487
800 3.9594793153859893 3.079557139246619 -6.989751508411075
77 -10.488186727377396 -0.7525567184590772 -1.4147742119342983
79 20.60330555202935 4.841357286854063 7.057526105723907
255 7.896652077402901 -6.55718878342042 -16.678484377725393
238 -9.656822615526892 -1.7821421745403783 -0.5147402378676184
298 -6.199572653043509 0.3023433213007902 4.643222628165238
339 -19.162041340989727 -2.266160703058959 -3.494415045723874
588 1.247737456659413 0.031066981624717604 1.3727492015200973
340 9.429114938896399 -15.526887504843115 -36.311007876592605
543 -2.0976817842975537 2.2792119781019164 4.521024750955966
547 -4.125307193383714 0.6615636175803609 -1.85041066580265
581 0.5291421316192596 6.676059214213025 -4.014243966826864
584 -0.5618515722230495 -0.750442213089224 0.5482495894241001
658 4.37099595179754 -2.092356602824751 0.15453896088387256
568 5.332950954114238 -3.0623917381127996 7.165396447518538
32 13.187385350901229 1.3969539509435767 10.07422789605668
24 9.527673304556375 -10.542050810571466 0.20529329134202365
174 25.680570242820494 -22.396746055253292 70.12073574193951
572 -8.121505217728073 4.638345460236965 -8.400798983011628
7 7.560033992627058 10.184468349576168 6.849481403437359
36 -7.873537071049568 6.892745056034025 -0.07714542251546923
351 3.130997680434684 12.75912100265164 53.08566849001896
291 1.9333966453257592 -0.6544706107484539 -9.088964793270648
44 5.322839232853396 19.85754095295461 -3.7166905631465847
58 -7.032282262753868 12.397471760898718 0.6497186747196978
59 89.91743620444181 28.205320557936226 26.108877870131632
357 -6.314757410795389 -9.018386809340972 3.9909616926038516
142 16.08468642184576 -11.373945048439262 2.430306062059197
396 2.36287792399076 0.23089808257388 28.74733820795253
175 59.39770413066455 18.201663889624818 3.5470517172061826
14 1.5908541566025358 -4.322406831491333 -5.256120840349245
70 -15.56740276198795 21.731358383887006 12.993009815063777
302 1.4932549882718107 6.394912806205472 -10.657412249031525
68 15.747852430415692 4.382393719582217 -5.976588614707687
273 1.1927169435714318 -3.133817075091953 -5.234496290977752
645 -0.3465434896054216 -2.8178605035809228 1.9577540526421364
662 -8.138752314660767 0.3587777723503454 -0.7382262790549793
649 4.569979325977268 1.45477502125312 -5.29271980624171
551 -4.1653425364002485 -1.3641003930361668 2.96887841400247
633 -2.71545824448424 4.536930289231975 -4.173702816159076
567 0.1767631354061443 2.9899240221381516 -5.404240348471353
682 -3.247300572339994 6.319015762785032 -6.779921052433801
681 -0.795553745698839 0.240552667550618 -5.239405564569153
126 6.681372168486904 -5.221684029606185 3.519757547050483
575 3.7142356698089714 -3.4907537123838814 0.07885065080478268
640 0.4607398497763519 -1.7358704760087202 -1.9417821844797916
673 -2.2941775313224295 -1.4647078395613045 4.44315434099467
657 0.8116635948589318 -4.87761876393571 1.5260245845511426
661 4.546968346149918 1.5194726318813825 -6.950260123742404
558 -1.448628964074092 1.1792478956951227 2.130602380699457
131 2.7431915840326204 6.891869934528363 0.5396147048020395
170 -2.5260790162191205 8.181680895025515 1.4580021516832598
118 -1.9190159274887457 2.8282811295638814 -1.7418132173457335
158 0.5391428230221317 -0.6753004499474793 -5.68252249324386
159 -15.453251129073099 -8.191975676756861 -17.415232530774023
122 -6.8973639526853034 4.623255955585743 4.591122899419705
11 -1.408386179890235 -6.4130586529400295 -3.486430551641351
141 -2.266052325385503 2.648066525309391 1.7089308398859875
105 -5.206791687485369 -2.06795713207957 0.8702405599096066
93 1.5200473804762542 -2.125440197089662 -3.3610442395364517
294 -2.8640044192536855 -14.080453639857753 -5.509409933285776
358 6.921469659423998 -6.931573519158513 44.0101561222659
356 9.318801732464388 -15.984888830633565 -1.4333649026814648
388 9.536700371019581 -0.29555805562029963 -3.0612294732625562
384 -4.786020441788115 -5.250045192395966 -0.9701110787405084
311 -0.7795119095818189 6.796439427056237 -7.443304484547255
173 -3.7340867006929637 -4.656795776136716 3.2554650793158406
708 -26.857618833764004 -17.04737300841289 33.33076799577775
318 2.3231530753883516 -0.7492640429262942 -1.437922698765426
666 3.4916291774786696 1.686971204105033 -3.792556628853157
281 -0.3752056050991007 -2.276097356481754 4.780291776365102
314 -14.17335369534269 -4.499888488591284 5.230397401143134
412 6.123742523768627 -8.874701759150904 6.367115960609575
428 6.922714571252457 -2.1913085931984084 1.6223431897307632
430 -25.614043515099027 -47.06919780962334 -12.036243655657275
437 -4.448682170874934 -5.422420077164935 -0.939168287107291
439 2.9375771697577977 -10.126724432619163 -67.86092668647848
654 1.3542093674662086 -1.1699417475664853 -1.7389290294802475
288 1.5494602577777523 3.7782320213090226 4.498608319609572
379 -0.7489513251292487 4.614219258966636 -1.1478668137462607
370 -4.616218448314944 -3.0484102133742064 0.3524307630383808
392 -0.9321828981592739 7.094719223781885 5.951889843090196
259 23.548162802991644 -9.567819930486186 -16.98690882078202
264 -29.986737720072973 11.270945770908794 13.747070917266813
698 -3.5667021641698855 -1.0702069197140578 1.4174065660550923
700 -5.399957065824725 11.405643341599648 22.13107254314325
134 -1.5803408170179236 7.711693425716944 -3.4101323463283304
689 4.618335969114938 4.258754175897223 2.7396337406223608
138 -2.0041633461799586 -0.7011288202853388 -1.2096000230563735
208 -1.4995411522766355 -1.8620495660325422 4.026122476905205
257 0.02767105918906084 2.050867017985553 -1.8992142693894372
258 -1.1547687793735852 -20.1054210629225 -1.1902469102736268
788 2.438292825148655 1.40289953489008 6.000989555061957
216 4.678747849767779 2.0268851696076906 -0.911934243545158
101 -0.5696043475504047 4.283911866381842 6.692709947083341
114 0.7902625376625526 -3.1910761871352813 -1.3919718031909818
149 0.7204469542405626 31.165215651229747 23.166111830677586
148 -0.1268413402349572 -4.047536231709227 -1.536423101393829
408 1.490289353482087 0.6777294469036476 -5.549808546139191
453 0.8209636345276419 7.242624235043003 3.3363343093185898
474 6.246770296010464 -7.301963982424485 -3.3143817344891215
478 -3.891377361031996 0.4472047529286837 2.7858044126707697
527 4.557523186425022 10.792102157931001 -2.7653964612554
528 -6.3466646326136695 11.151590933598259 7.639048652326141
371 4.321360405760806 2.369382535288652 -5.850578203119212
404 2.1752828814588354 -6.8068867727612545 3.116154861829174
534 -23.66563163777265 -4.227331449367858 18.58192755494358
535 6.252881399120675 11.66750263685414 -25.783895311621013
482 -5.932005765726236 -2.423678452279129 1.791857262842521
367 3.3820311027544494 -3.7907502014901078 -4.4553052449769694
716 -1.9570376735699941 3.184897141270078 2.2863035760480495
447 -2.3051563564037325 -0.976881762060388 -16.23533416260395
718 -13.468262437747617 -18.634336167139026 -7.435825598425787
445 -23.585895148072993 12.097063896686622 27.691379070229548
741 -6.10225156852788 0.28645114837193153 1.207374416005211
401 0.11124437409653387 -0.8975540112472145 -7.9804264715932
419 -22.03068845435686 21.908176106391714 -1.1066782935271915
533 -3.820460505594113 -4.786725445214179 4.6634328124633075
444 4.842632788502281 -1.2105392920998095 -8.155601946301465
529 6.674098540885291 21.65129984930381 10.965208533955165
443 0.4021752479437717 -3.7269030989769765 -4.460682508367956
418 -5.735561664389157 0.39891073827586254 1.3216153396285082
772 4.56781702253202 -2.749364586548578 -7.787088143114299
699 15.059763820964996 30.020468496423483 21.166414968452205
756 -3.8965222027895234 -2.4373411191241137 7.679241615181411
744 -5.584590394834084 -8.896363963144712 -5.764665718787837
363 4.365810354748778 3.2127377708095173 4.983027688788886
429 -5.994408804058623 35.09920540995839 -3.9811335915411172
266 -4.341781513938331 8.961237151280393 -3.6016732132270444
267 7.894616763814025 -17.235627021687886 22.121334881434578
804 -25.022700693965174 -4.818428527111513 -0.9028532001017491
637 -1.7402943708552139 -2.276632675201368 -0.838711268973238
723 0.3296138247338633 -4.559521028786542 -0.8974333247307211
748 9.05241035179006 6.276327404205071 -6.7157194453622475
789 4.991789086831873 19.02382142288739 24.78347505609783
798 10.836260049396786 -0.9945520403442165 14.915021910685692
799 -10.955189904413805 31.360586335670956 -3.718427016844985
752 10.19848563930488 -2.102432821883344 3.357024333221538
641 -0.954162480799641 -2.455557773760816 0.7412252643123199
688 -0.4764427460605871 7.555253054554523 5.9588597998251815
221 -3.004069995034264 -1.8056594611710637 5.781009496336405
790 -11.171392421118671 -27.445541496157368 -10.814922677638108
78 7.80946260884133 9.415946543880485 -6.410868987743772
28 1.6159789519058032 7.372501675208939 6.55147992974014
536 -3.807570022132943 2.561333451124119 16.357574752195877
249 31.47435929342678 -3.6084808918211753 19.647306958690862
471 2.186705682841275 4.429714084008281 -0.6112106114269198
348 -9.911537774201223 -17.423748207599687 -5.606193560557854
531 -25.925820742360667 -3.0690710135864787 -14.755161847564558
248 0.2869068453586638 -6.1758926800398415 11.305587108159298
250 41.518981380191484 -11.702463357310437 -0.2852112804601914
347 -0.8634077399679551 -5.820373656999119 11.832715327153478
349 -25.55206355986476 23.94269354649149 1.3987328943135828
212 9.482752841729708 -2.158499325150697 -3.3719293321700947
195 2.762408969934663 -2.527437755489658 -0.3546246320119274
457 7.045424935299389 1.2855250387436588 1.1848401856211819
518 9.342683742074678 -2.271268664955735 3.4465317006464335
508 2.8318197072593914 6.609126804386634 6.007180333188958
491 4.124433744871289 -6.077185104758434 -3.6054060732055233
537 -14.387662768157547 2.8597092780837996 10.608228621674504
322 0.030995191098442842 -9.895915394238946 -2.7287860763081353
494 -9.506347650597235 0.8945043938221472 13.29744632928949
520 35.351073561874315 29.99487644073684 11.382680684575352
509 -8.835794544452595 8.1988068079353 -14.62815601632747
464 1.8480448945765955 -2.1123707876765363 -0.29841954222032957
576 0.6160417583388338 1.2993934385078094 3.3786666463432633
564 -0.13004405590378923 -5.914022696365297 0.6320527935397294
519 0.12338559388289973 -45.92683216097562 7.649336337273612
619 -23.92003733510074 9.110522049324857 13.85792285333945
731 5.2479846776860315 0.1628677931050745 -2.17130541080894
764 3.91739744618342 2.598822973216166 -7.321708107312005
768 -3.123082199114002 6.696463365041602 -9.332379688079595
609 -11.441826096718362 -23.575836649528018 5.429256345430111
779 13.14725570143972 20.39893989346394 17.182769784391073
778 -3.5932821089612075 -2.864306556599712 -3.0297129747846956
608 -7.308929035617772 -3.9016544604929146 2.700255907591548
761 0.6565432476940757 4.676121633676916 0.0871691787906743
727 4.626975861837588 0.7560381472900788 4.840663606175738
69 7.705370375600357 1.3776064322074337 -3.1508970737575774
224 0.6971803636916326 -6.2663469256604785 -11.835646534135394
204 8.54817988459735 -4.752328984260867 5.155932934840844
187 7.417279758575731 0.4293405454296859 -0.6042058552262921
194 3.424693467185469 3.084901623351829 -0.39849727663626067
280 4.258951521649918 -0.12417157436622804 -0.1975761491317253
297 -0.831170925929263 -3.912063157030251 -5.1925226324408715
313 5.262490554864818 0.33606759530422675 0.7134335502894535
317 5.790983198004466 -2.4574921179243234 -6.905872980282837
321 2.1495351854991047 8.257246916724776 -4.755447214984365
468 -3.681738101598623 -0.32793241949099367 -4.576316945514512
1642 1.6384311925621666 2.4222904614934087 14.615414618380553
1000 -0.7046408716374146 -27.777393105460725 12.914233699459777
606 -36.93976351361602 -8.73694006646925 -7.771688199885923
605 -8.982828420556618 4.570473599537106 -2.846548436977893
48 1.8694114800922013 6.425087977197091 -7.986601471248703
554 -1.734937352121475 2.6872859347089757 1.9713661120379045
3 4.629779158248495 12.824099888459461 6.430433670407166
555 -2.403039405550171 3.188130570348086 9.6054376718947
18 -0.6516552853105054 -8.480895954289045 3.9736486825948583
550 -2.910410726206328 -4.318523172629024 6.851869178188234
559 -0.9008347931627173 -5.740984918400832 3.060034944142797
587 -5.909267804638883 0.6218382588054961 -2.71035015552483
563 1.5259753610493025 -5.705343921889561 -0.7192647199187295
47 -2.687946132203699 -1.3221215711955 -4.673184154504823
2 -6.714686690423943 1.858491932884783 -7.453070666481123
10 -5.534879762502105 -1.8203967824971332 4.089802986434365
35 -10.607602763663609 2.5568827782393937 10.209362901763047
51 9.641419704302175 5.563662332795998 -0.4563178772018971
113 -8.48237705264626 -14.59266529432856 5.941226690636861
121 -12.062283473656917 8.555129669395969 -11.300940994919658
416 -2.2728708930146038 11.919090738922694 11.925405946244949
1524 8.62384100787103 -3.2746774635925617 4.193534691174651
19 10.698252423239602 -6.564048453384969 2.102452203950124
289 5.522913624241136 -0.30221633679810983 0.1530254838728102
285 0.14851210574378756 -5.868415826526226 -8.149369631955095
306 1.7347164319809176 3.797891107857059 -2.448117442419361
677 -6.098301132183303 -6.422702408916985 -0.08901249856475162
383 2.612175303435088 -5.383792285004204 -6.9357265868948
542 0.6477706100645965 -2.8895668446650404 2.244762842503185
100 -7.40365239571666 2.824928840826259 6.3251141459558955
117 0.33512947173986646 6.609073285326333 -2.3241235069098662
137 -0.5749530919936644 2.6463775879034217 -2.4296213497972947
92 -2.4344789538770315 6.872843340793561 0.872500787648933
104 -6.789657819106858 1.0035871038958013 -4.557586559811757
109 -2.1480520896452786 -3.9028753586007574 3.552008297430893
125 -9.028163624092748 -5.691566567496903 7.420065116865002
985 13.415875795589837 6.029599692886708 30.784713223883063
395 -0.4062220894383729 0.5948230839393359 -2.766422357821818
425 -3.8007736086934507 1.6647931346819618 4.606724935645573
1553 -4.0421467427211075 -1.5446550067869373 12.27292996894345
284 -1.402367726457976 5.409453781890476 -1.1377187820401935
391 -1.645975758362884 2.207122307702007 -3.827396376647834
411 -5.1509343718505765 2.8693151070868024 6.537684025023796
375 -1.5755750992917628 0.8100542627356274 -0.8155418254692832
417 23.602834042762492 14.122946515593478 -32.736293878046204
407 1.3687369278378223 2.7572124237625917 4.924514549426812
272 -5.884591280617177 -0.5719643239464136 -9.722346089884539
305 0.396125593641029 1.477608841676682 -1.160579983042315
366 -2.8326960859247325 1.5202049608847679 -2.9275170756085562
697 3.6224023446567983 -44.17502407348045 -7.422839487724331
1522 -6.125487666217742 2.065394314834626 1.0032205130117975
686 2.0163720926832553 -2.9839627271767926 -3.648036366082363
362 0.2846895390885175 4.904630238325624 -2.2426345514543566
665 3.4743775223908595 -7.887943796968011 4.614076162397002
108 1.007088816966078 -1.5074550820557584 2.7149263041310943
632 -3.4404846761855206 -3.9124547093643165 -0.13465430810565504
644 -1.4735982094874862 0.43491309161011454 -0.3840986399243489
751 6.694581684994999 -1.300887076467998 3.4767678320867055
183 1.0004932638629385 7.932748028624276 -5.623464580927845
227 -7.819153356598838 1.7108999356275933 3.1752386568163713
486 -3.550696155751519 8.263498065038009 -3.1555776712946324
190 3.181028691493251 3.869185609740824 -2.2080539180239542
465 -0.023875539229933296 2.023156901351573 2.597101147896476
231 6.366441364673249 2.010695502049133 1.226474787143765
1195 -12.457519657599383 15.541740862279312 -8.179775627726162
506 -7.782895550778007 0.06786058795526125 -3.9619886213908857
507 -5.486825642678808 -2.456775350930502 14.674992600833509
477 -4.344727524969329 7.558278490911986 -3.190728488872225
211 4.7537948964577055 -7.250601537307396 1.4202669611886314
1658 1.8211018193455506 9.354667390171482 -2.3996005844270867
502 -7.865877033397351 0.19903090963444167 2.2859832781414373
469 -6.080231530871286 -2.1779838564017298 -1.5708850498431148
497 -3.272822784067149 1.8892153597887342 -0.8718252358243704
1657 -15.698594228643582 -17.233010413091172 -2.8265888978019
456 -2.53488065673217 -2.3622875546184674 3.563073424178222
539 -12.070954278426292 1.8544233576393598 16.26229321980146
378 -5.346517311909198 -3.5302245103808167 -4.4945908671345745
374 -7.009423748725575 1.152130115336808 -1.132772532164784
387 -6.019593111627674 -4.406787448647121 -2.0248184205320663
481 -6.484077302766553 8.140016122972703 4.6493001357740855
678 3.323448188791292 -1.6017417242059009 10.324366081569536
648 -13.165899072799625 -6.195038231592055 -2.7462835188538146
730 -2.5401725134429216 -3.291985947114688 -4.729962211061744
735 0.4170847625415992 0.4208576103634037 1.5617328590449369
767 -0.07459789761666911 9.176482056391619 -0.021401436008365016
771 -4.003052786269729 14.752883073357276 0.3873060468482142
726 -3.984224567042266 11.006566661863493 0.43956584617549804
743 0.6982121733727219 -2.426323563312997 11.83863831791206
763 1.6728523156278827 -0.3965656825899971 10.31456172809994
232 2.1487327909629634 4.956856156780835 -3.4972294981487626
1002 -0.5463652068654227 -1.977606203210281 7.545472455000364
1001 14.059031340881157 9.634884546622214 33.65923520202627
276 -5.7447188251908035 6.666251757798135 1.2511338321491559
293 13.416122311817395 3.707374354832824 2.617567033777761
485 1.7874075444579927 -4.643003403330345 7.445478122097282
460 0.14598910122241818 5.297745360912438 -0.24482440080663506
501 -1.2491033055041099 3.9964563357484995 9.232231233926594
301 0.25725964754236796 -1.3390709559685254 -2.7621154496418825
452 2.1915860820821824 1.02101524240563 1.3196080925489893
592 3.157158072029327 -5.801135567086916 2.482041433304881
738 -0.22624464542483289 0.5451929606819796 -2.8217882779093397
191 -4.860981341774506 3.39713182990016 0.5732137347793848
739 3.4604230812566072 -3.2716341583410076 11.041928944869333
228 -5.419611500657074 -4.956354728548179 12.56173197310698
571 -15.916313368641747 12.154283499576943 -2.311782121603885
722 2.544824457990478 4.549780258430781 2.9511335244703636
734 8.63896416423318 -0.27225367314203786 4.24947601952929
755 -3.900096011132504 1.839559990100263 -5.2798049613986455
198 5.3179582477384 -1.561481599321958 0.04357602149740593
546 5.164389444038027 3.558546104881819 4.1137016092074585
52 -7.318015666512637 -9.913725231391807 9.717661192932573
498 -2.8288802699561306 4.741191832432763 -2.954450810240443
461 -2.935621739079681 0.9986405410031138 -6.5294453573064715
199 3.7269889148930226 3.868829356852137 -3.051141370503712
215 -0.26715870718134077 1.3519813393351292 -6.91533431104373
182 3.5684599465691176 7.667290861567849 -3.7539680739536774
43 -2.4325072866075543 -8.287479408408865 -9.11527410087598
597 -4.475765120834593 -1.4976485641872699 -27.280664205051195
607 -10.354282712920696 14.612607417375695 9.446321335219384
596 -0.4775841064987663 2.5237267998209085 -1.6430676722466349
1818 1.9912017349902602 1.93960475713806 -0.00976367589555323
1387 0.05597985826528981 9.55813327095325 -17.19482885652417
1389 -1.8878724990427376 -2.9962546052845997 1.4203981409740112
1999 -13.736566928523658 12.261636880032912 0.6269360931078568
15 4.991124890540471 2.669832558799378 1.6836854907464522
1624 11.310375880171918 27.376061407732923 10.131235720019667
65 -0.4926354158574466 -13.580099186839927 4.247243270510519
67 16.86738327866649 -9.908775443952894 -2.9737872705793804
829 -0.5591417675927592 -16.790929482384808 4.551884513049123
831 -3.257454338078181 -6.58249351665979 -1.4521207982410744
336 5.897828540234469 -10.239189584560851 -7.753683860324272
66 -12.355802638706168 15.542092869489021 -18.6966049633271
27 -14.922229166520259 -3.593707461815298 -11.248247721845289
1598 20.989825871623253 -9.18615407678018 -22.47264302623513
335 3.6250164659882516 -5.089794820393395 28.028674779252732
337 -21.167002556366743 10.318626247103003 -15.682602254969463
1597 -5.159230525216605 25.852681013199984 -4.687089205714156
1599 2.816855949046725 0.700332940181886 -4.816102173149863
992 3.8037882834858814 28.63702498853051 7.877811812290765
1487 9.786730330955221 1.4627068576136297 18.098679300304383
449 14.59913269115128 -19.75602721213211 0.6098137936063429
1480 9.943091196061113 -5.961317131526129 -7.430615656449545
1482 -1.9295380922244132 -2.6365068013697783 -1.9068257047614867
1397 -36.942510130850735 -4.873066600971095 0.6827435876877795
859 5.708070779483961 -10.811937844014055 6.992039974015454
1398 2.6986698845362613 6.686816884323672 2.6657337916841475
668 2.3309313005427215 5.305383060740173 0.8746548631546992
1816 5.757429950967765 0.9287902588341443 -2.342621137232346
1817 1.9272638169956307 -17.617963446805845 -1.3724079413958448
1396 -1.9087602366320533 9.649698574656192 7.3379535855592275
146 2.0484858206615244 0.5988072037760419 0.3091570405196633
719 3.2070652698924587 12.356467513309582 -6.115954607884246
1204 -11.357306674588614 -12.498419178470193 -3.605871959354772
1218 0.2762877098174872 -4.317649247577428 0.5358691034989812
653 -3.7964526968743906 -2.515280425973601 5.163337333562755
1217 0.6647880379551349 -5.419166045147198 -1.6057928726996145
1626 5.588150374817612 4.685703858082252 2.2792546700153804
636 -1.830900660023654 -1.845676137062594 -4.5553394904250535
830 5.131967620848787 -2.76207651578164 18.840940700055967
1342 -7.727040167162584 -21.59664281607515 0.8717132859979277
1343 7.054371630915034 9.926857876704913 8.719311425072032
1566 -4.7303945995889265 -3.3664169049518535 -1.9956636075455045
1564 -15.748665709423909 15.049869579002689 -23.238597181155843
147 -2.4865871850946974 9.062401160638242 28.739737786012988
989 -7.015250012378902 29.761306116392035 0.4201964238433536
990 -1.4234837589798264 2.8089985721156716 -0.4317266967057157
1344 5.586647240203441 6.062757701504746 -0.18476539972208414
1625 -2.467242765663706 -1.2271797186422446 5.936501465006579
269 -7.587494155761024 3.02453035944666 12.874022354303776
1595 31.29886400494443 -7.213845267669249 -3.0015822530717413
203 -1.2822211021639114 -2.623142492939787 -1.3452826953643662
1003 -1.2795930549737538 13.071715251283981 0.022202300178212623
988 -2.63739712772125 -1.077643129449068 -13.153531230549428
1004 -12.110732919181514 12.184470749271208 5.785218610099054
133 -3.039610094172028 2.869066564642718 -3.701974952306345
987 0.09972417362109674 5.7082933075761275 3.9548875522842892
96 7.236013344866071 6.097021564557319 -1.0612278453424757
473 0.7321803640891008 -1.4603965757886461 -9.388809566858134
1552 4.971715766679057 22.18935291753577 -26.19252938893856
403 -4.8317624583202585 1.2414278583705585 11.801332362350584
1486 6.267015475584837 34.50265652850273 -14.641251618378663
993 5.956584295487964 0.1841099282576306 -4.161096883269279
1523 14.841878860615235 21.073023912922558 -11.386776157306006
1488 0.46311960075725095 -4.353034476419682 3.5374929313314207
128 3.683521255595227 2.3841512833782605 -5.157260761799481
179 -2.4881215970774404 3.9401081926736627 21.47797490822887
426 14.859833177881134 -13.338226142386906 23.02975104326167
986 -2.0841269441664276 0.3969035123673412 13.216830123487947
1554 -4.751669306153229 -2.6949994929292194 -1.13775211834297
398 -0.9808616769049348 0.7679590629896345 0.2028787813060805
1493 11.980991205879025 -2.860737137385997 7.998123230375028
687 6.138687546614556 8.475502104185173 8.599243490003772
1494 3.605626927643924 -9.225439321462922 1.576050245799021
860 9.904769111690147 7.94477547056521 2.816663767178237
1492 -0.5951300427891681 5.3749934088489955 -25.994651561015743
207 -0.08940212289903139 0.19605608479417555 -1.8552477198182462
237 7.47199581785868 8.104303938697893 -33.21218711051272
898 5.992880063521116 -2.9434432632211585 -22.3535066578684
1099 -19.81524108910165 -3.936585360476106 -9.833859588615034
1100 -8.223055816231268 -32.50783259248029 -4.031494545662184
875 13.530949915993693 -12.13926452504916 3.899141931135736
900 -3.137909380986831 0.375869480404817 3.112068345589875
876 -1.1469475290457944 -0.9346342650152177 5.5145707150041
156 17.77319368372082 5.463514034949252 2.4359712583312474
246 -11.983477939435824 -17.86084595178522 0.21803320412056748
89 17.90625998488114 13.380049714286264 22.789587969081317
1481 -6.683320092225537 3.864880760930767 0.30499944135842744
245 1.0719614054892836 1.1442722410707207 5.974360941260076
223 -7.791441878263913 -9.629597045424328 -0.6543543749596813
874 -3.0648564261297846 -12.325723141028796 13.010773102204457
1101 2.9130911683029375 -7.341267365106372 -1.7324967733294527
1565 5.940478987754117 17.954507677417602 4.795293839903989
1659 -4.224381746933201 5.5102039200131765 -0.12696446942184775
218 -3.3309306038787008 -3.7847926761038564 -2.9100898386341774
186 -0.5032798494278372 -7.401081260467503 -4.935319656595075
899 -11.779703073407955 -15.040722171645207 10.807910934662162
427 -34.72781631021348 8.311071868464731 -5.542443028767467
493 4.555947117257914 6.747752865740952 4.566207502317578
488 1.0809270825990636 1.7147386413856003 8.565650180044976
776 -2.485653565315989 -4.745114038299111 3.118701420794584
787 -14.335393219524983 23.00853635769788 23.316641891173507
1102 -10.135222576248792 0.8974729682490082 19.810184792174294
1104 0.38220774132417606 1.0579847728528233 -4.356626212678981
1673 -11.658190662394874 -15.963979488689468 7.08807559192593
1674 -4.460723853060662 -10.009526251487681 -1.3654313113117604
1437 -2.733823500985441 -3.350877901816328 4.227420137754167
1436 -2.2988531362689697 -16.39978346421084 -5.1193126395842565
777 -5.306995881240946 -15.801199357558422 -7.776467407465432
695 0.6944625746730041 -9.289906844653256 3.5511480634366293
758 2.6543063582387254 2.7865035196987953 1.91314597957863
809 -9.593556178611275 -10.609954796597512 12.647312408249391
890 -1.748368007526167 -17.48404777497991 -1.0177462599225828
1153 4.153056330353891 5.208311630656698 3.6502557384903933
1155 1.1518159516134014 -8.69489794887998 6.535343632459648
1930 5.267748927578937 13.371064444941304 21.17733536552341
696 3.8858859196369626 -8.704580251206176 2.680394001621635
1154 0.09817870567984953 11.948154679146585 2.2005847055463494
236 -2.1661007395429412 3.873642229920628 -1.4169368926295562
31 -0.8514365109808496 1.7318675696116594 -2.4094977282843253
23 4.769788227580467 -11.146809207155481 -4.915759004489701
1390 26.486241634443854 -7.5630999252850915 13.808307327823766
1869 4.948377987229417 1.449143849294285 10.197758322326937
326 -4.894800976559897 -3.9428248253040774 0.986371590566011
38 1.9165652535013917 0.6054712916382631 -3.7451334780351506
327 -0.9642281998469812 -18.249087482985818 8.220509568081756
902 7.07675077049558 20.449738555406885 12.515880891666859
308 -1.635326078385414 -2.2275067011202117 1.1569981989007878
901 -4.672294805282165 2.4279251792088656 19.43622086388728
1392 1.7523592241388448 1.955796124780868 3.9718124133939945
1643 -25.129534683807304 2.355452643970063 -7.907872819948833
1644 -8.115816528834952 -0.47267983701547184 3.262221259913892
1619 30.712196626892826 13.781277338567682 -10.539793046209217
1174 -9.615407468881376 3.532995107741756 16.262842735326153
359 -17.37074777493429 -7.498784239790636 -2.565560124473022
2001 0.48763939389684036 2.173894148792728 -1.1405435401560682
2000 -8.66001925715069 -3.874997173826645 3.5913390956054307
786 28.630827771107786 3.609287384906815 31.580018805294646
1103 -18.182530964986007 -0.3458910625644854 2.8839273774470033
1501 -24.753531550699904 -7.004930815105423 19.899343715551954
1503 3.2426153733886918 2.422377071860363 -0.09113992275567913
1502 18.35952022413322 13.109066166441016 -11.199058621050758
578 -8.772848829908126 -3.087246001438757 -7.893900072903462
583 1.650135813485429 -2.2559662848043875 7.199873651164698
591 -0.14683725507904657 0.39487161582367303 -1.449352525747985
57 19.390828292243796 -12.874960967572482 -2.1749557147245375
56 8.949436231740997 3.705076753196723 -1.8139529819913767
629 -16.549028487445007 -0.9710440848631413 23.50030491227317
1778 29.64566977955221 34.06180423553126 0.5358026392992037
747 -2.0411522565154514 2.6587531749263746 1.9205044667794777
6 -9.902009443244221 -0.21019280680517421 3.8570547242428685
247 19.74940920539577 16.023474273444517 -9.354421460545186
1855 -1.8181307928597035 10.273425718689644 -5.0929722417082015
1856 -11.373967723702838 -0.3103116617285815 4.523363830084426
1857 -3.1066227718602244 7.695089158106566 10.275490436755712
1081 4.34109533570947 -11.938099965082824 -9.50019171441132
1082 -3.222559146660583 -3.4462406710211124 18.54537610459247
1620 -1.5266636390933455 1.1091720784571142 -0.204871115031804
1175 2.960970154128828 15.781432924622258 -7.857055496624835
1388 13.449156802086305 -9.238005616185342 -4.587706034058926
1028 3.665084179222163 -2.209111086685261 -0.8000313407917136
1027 -4.30393937510643 1.2652599937010753 11.377029209592681
1029 6.375642265471535 1.2556398524241987 4.457432763999674
1498 4.914493436065851 -3.519945152513636 3.868179719093709
1500 -1.6847732078220108 -3.0014900338324964 0.2028212320710678
1933 -16.709549138989544 8.454955634402811 3.932493363107996
1935 7.893574073419587 1.2118881113846378 -3.7036993378096796
1934 5.28013195192049 9.927202302559124 14.1380519559447
1264 8.779520504623077 -5.907931654739308 26.527060299611527
1265 1.156454431777823 10.453333667104722 5.742299050604477
1959 -2.564349781425096 3.3970028981770763 -2.183500319226972
1162 3.0383396016966344 4.021009831855632 6.128045596410329
1164 0.04671019383420324 0.06647251634604387 1.2706558970317097
1366 5.840474526225034 -16.09461496720541 -4.371684891491779
1163 4.69791349660944 -3.198784627502829 -3.6380242048181026
1779 -1.7578401294688857 -0.17405003661591922 0.8373070449278766
1093 -10.574410570671146 3.3195312546862414 -11.233513542801846
984 4.161778195451788 -2.907825043853361 -1.9901945256458276
1831 10.054271751719371 6.306824192010339 -5.946979740514553
1833 4.906071077562635 -4.754427082843912 1.569554045641913
1957 10.00919429191022 -9.445758265977434 5.941111285008262
1958 6.27336710528518 -7.331719956205178 3.118358046989921
1048 7.477216367659168 15.24552968069016 20.01304509018182
1050 -8.311389641184935 2.775654830407108 3.202622482304525
1885 3.883699461677809 -1.290252211548089 -18.68212922618479
1886 -17.553354623340873 -12.023260310794864 -16.4961055562771
1887 1.279797877237845 -5.563692216720841 -5.012912880173337
1095 -1.3784211496650849 -0.5253034177809658 0.035331072970618056
982 -23.20210168284414 -16.96082590074473 10.96823585501267
983 -16.24419985790239 -2.924263627020877 -0.6765083241734907
1094 -14.805769721626167 23.14259573035903 7.926314438922758
1464 1.0805401613722512 -1.268061782417651 -1.3891153002344403
1905 -4.498004892963067 -0.24189669902409794 3.461012208155868
1206 4.013362478040036 -7.363417703284013 6.257190919053174
1462 -2.0616746827489676 -17.795626877375064 -10.406321640874541
1205 -5.642000555720909 -13.497176288703946 8.60542173328042
861 4.776196441622709 -7.439416049065642 0.24755431758038185
157 13.874412573629055 -17.950212973901316 12.460071129835304
1463 -11.204137711028537 14.168555429890423 4.182505664018311
903 2.152978732113972 2.6904755821805577 -1.62491141705748
155 3.058786731890262 5.153462913830087 6.640421244282336
1891 -6.085178018736441 -0.6426950331086213 -5.289815669052517
1893 -6.387073134366076 0.8616341771161529 1.4902403280398366
1298 8.07245900375551 8.84727744041293 2.612920399626257
1596 -0.024139477392366424 1.8370252737682171 -3.634130685617253
516 0.9476917858224823 -9.106470312832894 8.57402889538084
1892 6.572160531722774 18.57382495083069 2.512212717970415
1441 1.7057400406550591 -15.749536665308653 32.86071838855504
1117 -9.669167322993374 1.0810073957428268 10.929064678483833
1297 5.49412803208982 12.582388987446738 0.7375900224643736
1416 1.2993486511250714 -0.862644946965697 -1.117672353243937
1594 6.726283397747003 11.691667450701908 14.487167058073176
1219 -16.06068899468818 15.53972986447586 -6.398947247845321
1525 5.533078200579092 -3.476094543283671 5.203667954695382
1526 3.296346838484418 17.725206153377062 0.8124712429387221
1414 -4.620707514325514 -7.248933982328192 9.921575074718213
1527 -2.2475844882628713 4.213766552428759 -0.9526905628365446
1118 -15.696940176620513 -8.23705542230806 4.459068604044302
1299 6.8533145441597325 -4.186829819819922 4.666598190458179
1443 0.8663413120621387 6.961600314239088 5.263468885666553
1383 1.3104364608218968 2.424777521426511 -5.124491286615173
991 18.350367269169283 19.610375626523812 -21.18971563372334
1049 -4.311315967843696 -8.560573754900716 2.3694330669671815
1005 -1.5493892386960402 -3.525304002315352 1.5588761026474909
1220 -11.20296883994127 -2.4511577891285983 19.20971250620254
1832 -11.279157000783089 -5.297215263851041 -11.948674966184603
1638 3.0203589652975915 -0.8805886165911916 -5.876865516560833
1221 4.493475353102024 -0.4923662592973755 -0.23694830236028394
843 -2.1592204871570173 1.369522505935874 -0.06705120195169971
1381 26.385365511697476 6.978606203437851 -7.3429456474589
1415 -14.347462794879617 7.648108795104147 11.694140350014642
1098 0.7059196217867778 1.8547890164995586 -1.629340833028201
1053 4.058680021193379 1.9976887681137276 -4.210434163945381
1798 -5.762456808610206 -5.29034852179246 -0.17589885323751103
841 -6.035034226595905 -9.594626242209685 -2.672229137058054
1652 0.5562571846262144 -2.425942037682156 15.197570886914697
842 -1.4813049738365596 -17.632027081839297 1.770397345953786
1636 12.18764262268594 4.636177005899713 -8.243479598542779
1097 -3.321489151835061 -7.321485640208259 -20.53855059666404
1800 0.02559211301141298 -3.2890709561500033 0.8024244611322127
1637 -2.0318464633513944 -3.63841356308039 -5.056682658908797
1799 8.783392164029863 -2.1669145598174326 -4.751927597265692
1442 -3.6334401477696034 15.710406526179776 -6.7365119366922
517 7.583068192363286 -16.68621975944116 -12.661607595654528
952 3.7591835430557783 13.751256933727477 9.268601620346544
954 1.4803896659953024 -4.304530304673598 5.190187599750754
1216 -7.74312498244672 -2.5312498667745325 -9.256847714715855
1306 9.184300610737072 -0.8575911280788149 11.811458251018005
1307 -23.309545300224112 2.4717127551172258 2.912241405322815
1468 2.266509796326734 -20.036724049665963 -1.8532810932648762
1716 -0.7356534362990966 0.22186881757419294 -5.654258821053095
1106 -12.874951513964604 12.930686861761183 -12.379297368912262
1261 -6.67487641767022 5.013432215061792 9.076198209892027
1714 -0.516727476695199 9.546962979666647 -24.31550561620345
1308 7.314981359098563 -0.5344946323077941 -7.21367013809912
959 -1.2784896854186811 -4.728770920820469 -12.264365869691991
515 -0.029860278527807226 -9.194461798764006 -2.0388237075591404
953 1.626384455026885 -18.826232912086965 13.74786535254346
1240 -1.436329860556907 3.39706312623252 -2.769964820707448
1241 2.5783086532004056 0.6003979148646865 -0.4623929059716952
1838 7.182916411642588 -14.605242821865518 -14.607714365308144
1310 23.515521162073682 0.22914279432275825 -4.813873337617847
1196 17.170590483465258 18.18604491656088 2.3899058211713586
1197 0.25334344362998407 2.4296170355913205 -5.246834748663068
1096 7.924841742650751 7.536998277834192 -16.735542350326646
1382 4.431205599600604 0.2468351404234704 -10.618548137318122
1647 -4.041212409359505 -4.822364740579186 3.375489586195799
1309 -15.321075001340592 14.88542903212561 -1.0658007629789552
1227 4.73661840089885 1.083437154227511 -2.6640375107212484
1311 -1.9348860791968867 -0.2463838915839183 1.2810945817723742
1961 8.427399765319786 16.03847164939417 -10.151849938834689
1946 13.816356354857001 21.644796860761126 4.751241877498487
1664 -8.822634395248608 -5.803760317381248 -1.062851477363682
1947 0.3289970777698604 3.336782473524187 0.2897980231442993
1226 1.627530735595917 -24.655325292812474 -6.877288025075478
891 2.0794221631828815 -2.129269973388489 2.4110740888422306
1645 -6.2559070796396545 8.711608291915976 0.9929230813598888
1653 0.46345166050806347 0.12498485483322519 5.727522586995181
1646 4.598003677427136 4.55393875108094 12.61104781278811
889 -7.0991319922806895 -1.2441843909168169 17.086601417421985
1931 -8.152137054282694 -13.170583735941749 -6.937212758305074
1945 -1.7523831732630426 3.302945126326112 -8.92922378987635
1126 -24.44861650300068 12.835190586473482 -6.696915394190774
1962 7.304764428647596 -3.658359350424739 -3.3184553916390773
945 2.507112284136868 1.386715330474875 -2.4162162503761966
1932 0.5429376559634224 -3.5722637257422503 1.8116369796881044
1262 5.256380185613247 -20.62585053052539 -2.653681421198678
958 6.3553663271089125 2.2589086565740346 0.3866578270995502
960 -5.690427061407326 2.501906572444278 0.5230150296999955
1263 3.2622727110558194 2.890284155362818 -0.9102694027105035
1412 -2.277346388954362 3.7041682117190895 1.3338719849177445
943 16.462272254949625 6.668231727606726 18.424981362382162
1391 2.031122000244043 7.392697829340797 -9.507026711805823
1507 -9.757314491345456 -7.85034674795393 20.061319533507127
1470 -0.4887388694725583 -0.15033104300726144 -4.1721632429332605
1509 -0.7767024598700333 -0.2640140108659825 -7.423447460098047
1868 6.271246216704304 -1.9782783064342935 18.615901832476105
1469 -2.0610270029264677 27.19504671290813 -18.94578024577039
1618 -5.0321477511856365 -7.941810627078436 4.456174369777994
1508 2.0918277503885867 7.613229483698758 -21.766598591827496
1253 -10.268576260500506 13.45572132201926 8.850308345857197
892 18.939105597929498 7.192799808216814 7.644438818320338
893 -5.107062158689655 0.9656675284102023 10.616283506056428
1054 6.614645040677871 -1.6733829613982008 5.093209477017254
1055 5.682842481684032 5.98057720742727 24.967670124917348
1056 -1.4624618239434388 3.9390721448276746 0.851840977455037
1252 0.0006079446621646674 -10.859344495401485 6.860347848364342
1888 14.314801865890406 6.3131506065678735 14.15661629138217
1889 -2.4986904915775967 13.769761677228912 9.644727233669963
894 3.6100063161034384 -1.6456057359440872 -0.10875990400904097
1176 3.9257819126172766 -4.0083959505874285 1.795730139799661
1839 -0.5529440053296213 3.0360841351521075 1.968775585718533
1631 -1.0425023017798225 5.049031081952421 -3.821511077262051
1665 -0.5813602759932284 -0.4041564793699135 -0.9629712916190254
1672 16.88119269189027 4.834721447085756 -10.700400826013038
785 17.532696896857395 -0.4566889465743083 -1.4459047754093248
974 -13.028050320461505 -0.9417968904087812 -8.313860753913966
975 1.4326431076000623 1.2736805352729785 6.456239957190707
1777 -4.9634213562332725 -11.63731226042093 -3.788362394668736
1670 -5.412138164189575 10.54670263851199 -6.349760380027513
1656 -5.150306538909592 -8.524812549621252 -0.9419898219827961
883 -13.783709648326687 -9.122793185767955 8.388505632122015
1671 -1.7435642087661898 -3.833712682373022 -1.2013575182434553
1369 2.983515859356038 -0.8700393990210301 -21.767773343538988
1746 2.960448519845675 -1.638476730681615 -4.936249505828504
944 -2.919993656146569 9.768755372113233 -6.003443663238813
1373 6.89926546134315 -20.439844522946423 -1.964604240374428
1374 -1.7581684263075283 -3.443748181378238 4.446405987662953
1435 0.16205228257543217 8.933989815164573 -7.514811866417126
973 -20.168940333671088 13.477732557037974 -5.090742937133422
1266 -0.0782897628197623 1.5883199442232763 -6.086283347725111
1370 -7.323160496698855 20.94505858605219 -4.346880531901727
1371 0.3503851911929774 1.777381659152882 -7.0411884924001535
1744 -18.747440306438428 6.70633033246561 3.2717128535055506
1745 -13.198454449535149 -3.5749308062185636 0.20422281422518163
885 -0.8532022866403759 1.2391427684827117 -0.33560603745162676
1867 -4.982840041250939 -2.3920118214500556 25.07991516410064
1372 -8.361096525475745 8.999910223670653 2.7685181196682724
1654 -5.972565094600651 0.012538139872531339 1.2555902982168945
1083 -3.8554028505477618 13.837271614586125 1.3901566471674147
1655 7.286541825469748 6.210918113326229 -0.7205718410583063
1046 3.2045885895658484 6.661398351481929 -2.6770715201642834
1047 -1.9535218834290295 3.634954165816231 0.25836446864976315
1228 3.559139943112474 -2.9053745561339683 0.40654565174754037
1230 3.3150848350119193 3.6179461190132334 -1.2624240247728729
1229 11.999116176870743 -3.0906743488593627 11.08207332655701
1810 -0.6997905747514351 0.32642099967038474 12.654135037873058
979 -4.651990649068751 1.119640420957158 -15.098766081413732
1862 -1.041919707673127 -1.4615806535174196 -0.0305926107872795
1874 16.545771251296962 6.7685830972165615 18.019649912569722
1861 5.795451049974719 -7.686311437644244 -19.889440485485693
1863 4.026477472464617 2.923768401061774 -3.2376807231316365
1873 4.955099757728783 4.560265151711434 -8.482192769853196
839 5.896434912758417 7.6619022552781075 2.8543159773503435
1558 4.284452494145549 0.652861002867177 6.549840010899471
994 10.278725414217815 -11.29429089976492 1.0589494350436015
937 2.7600620336631585 -7.998287834378258 -0.08456614190333892
938 -1.1888358532578793 0.5872065158050669 -3.6665413812231202
1875 1.0274137793535627 -0.029080264983292536 0.8361366613791278
838 6.0666087765919 -5.4962842592659 -0.7230698600038061
840 0.9140981618286194 -0.34598295738480206 -1.0536249776679159
1559 5.142707400426627 -8.700851770452111 2.216647417228621
1560 -1.859911990091374 0.4326443778004303 -2.741386826813461
996 -1.1533563004709715 -3.4239325411261983 -4.838550051055859
1449 -0.4162971322314501 -0.7783217156516566 1.4749399142082664
1546 -11.471308738936324 4.050057932642277 2.4056915619907113
1669 10.938324409578838 13.276915899200157 -2.6842073232990047
1548 -0.5671871637994563 -2.06086692696498 -0.9618856436992637
939 0.38584359738913326 -3.7201118598032337 -1.1249601162305618
1448 -6.811553487482588 7.006850122641971 -2.580650139080392
1514 14.226410501947955 -2.6494842182015104 -2.8742970140925186
1547 1.4224185139123062 12.950476464583161 -9.044088787864345
1447 1.9514329718900176 5.294044366216033 -1.0488433727521158
1513 4.148140296345353 -3.2491440722332854 -1.9264937566733848
1515 0.4601111190815663 0.3392945569522068 -0.7613439104559946
1660 6.024352947564132 9.906306020073941 -7.475202297650227
1662 0.365597471406983 1.189982689500256 -2.1236494547390774
1661 5.767848827189043 3.3644723765606863 -17.46591814399658
1368 -1.3242758584688161 2.146516124739082 2.768088135579434
1578 0.826633498395065 -7.031850285619181 3.1938665191441604
971 5.4891398040138535 -6.41779063735447 9.596078460916388
1520 -8.939115563285563 -4.637706592353255 9.338947061387058
1521 -2.4617321747776932 -0.02538609705661272 -2.57294354276956
1577 -0.06838423517848756 3.544870508933462 -10.007019223471712
1015 4.291670702677338 -0.9438555082197904 -5.500253284414789
1576 -8.180577624600984 2.980056325986995 -0.032153102659784376
1009 5.7095850092476965 19.553511652416503 2.980982772332644
1010 15.20472867176178 -6.411952637932131 2.8754675392982123
1011 0.4078696932737428 1.0237967109404202 -5.224468470510124
1519 -4.7508351849523995 4.056003497002556 -4.6433020703164125
1998 -1.5929972286574612 0.1536671894435258 -2.332396376802702
884 7.508390860403648 8.51195124193508 -6.194976122519032
1676 9.272965061077638 2.4902287717939147 6.608535030423807
1834 -6.94588466646742 7.844671682269168 -13.722294686053878
1045 -2.6192155714859338 5.9587625194691745 6.635705003590134
1051 12.148659905524715 5.854620190019429 -3.4002886113244357
1835 -1.0747056330987101 -6.591146100841727 8.459683971525337
1836 -2.147638090916413 -0.4018667375590499 -5.128836903153252
1790 -9.363539607042325 3.854984172167177 -1.2118149074499838
1033 18.329149260641508 3.714518188046963 -9.545428234719475
1402 -14.887691873475893 0.7743656893399877 -6.890089719143243
1404 -0.6405927344051789 0.021745031911594704 0.9226444778058396
1789 -7.5957949437576495 0.5613632285916113 -5.0825324653354365
1035 3.726355628879264 2.9347988855495606 -0.6097229877630762
1791 -4.1132053167499025 2.7647170517206723 -1.6050589954150352
1431 -1.3295609278404468 -6.500054689407083 -0.9637822101270117
1733 -27.291409636794388 -5.595480152439803 -4.585376135515948
1783 4.749934449191853 -11.367887342950988 10.507458280022782
1785 -4.490211366917478 -1.7612768048051173 7.487047097181245
1457 2.3341781293527135 23.060071694155734 -11.113037426185294
1312 -6.39016877609027 -8.104381596016587 8.021782154046361
1019 -11.477362430006222 -10.78138216403376 -1.6616820145738436
1119 4.608433968414706 10.03761301724765 -2.4202429660743765
1755 -1.0998752357296013 2.5027134613968363 0.1430771102796159
1725 -3.137683441000863 0.3965914491065585 -0.40861728767826777
1732 -0.29678829390370065 7.768488081727287 0.49934525435042737
1007 -1.7174698262637214 6.414064376146812 -3.815278078752679
1429 -4.179231888908264 -1.9863762528611866 -2.9419207214020457
1430 -4.133217084570335 3.8020640776675316 -10.505004617481571
1688 1.6253546353271637 -7.948073279538549 10.509391940831376
1689 3.6673697212412653 1.4235180702722268 2.6596506109039133
1694 -3.744812158049608 5.091212168404992 18.21026595893296
1695 -2.887607586240102 -0.13524773136232793 1.685119291423054
1734 5.059004032448874 -1.9488354630728828 -1.6715313078407454
1319 -2.684942788953212 -4.460245429704549 9.224979717170877
1693 7.71521246509067 -4.804356314641406 13.026186766660445
1601 20.266794028119246 1.8826157652451314 -14.49950508976436
1602 -1.087587177569204 1.9008517015900417 2.6436231405507398
1754 0.8244903528654834 4.419778867893936 0.29774331795246817
1724 10.280242046854315 0.3650712582630096 3.3091691297455132
1753 0.6213627051319631 1.8028866027685186 -4.508301088599247
1723 2.3404181388121126 2.085509747302166 1.478662652024588
1367 0.829692778941265 -4.0735376198031155 -0.4965594345839282
1016 -2.532433336534186 3.4172506905011115 6.607750558236946
1017 -2.7759438877925313 -0.651088113272033 2.154135878988563
1996 3.4218916535697006 0.48430018456099044 -15.218357179855655
1997 -6.61603040686031 -0.07286683171288225 1.205699446867287
1249 3.5903335183865646 13.8652479423827 8.263613578038662
1743 1.0759213949711848 -1.599882239020215 -0.28110284508164196
1251 0.8461185394286257 -2.350702135467229 -2.181821668745252
1924 2.760663262424301 -12.39090189636911 5.5593701093177685
1765 -12.063203932875263 1.7150589890689891 -6.4542738671569175
1925 -7.44328466767037 4.742823603922932 -10.382346691622642
1052 7.928633549409498 2.4243587648517297 -6.774260279456422
1403 5.389408993786768 1.3106740212980066 5.0041064279968825
1766 -1.6086444700015698 6.538473640166445 -5.107663410356774
1767 -0.9648379545328124 -2.0337360722192668 -1.2018684204775483
1784 -8.251472326233591 4.590792556348141 15.720353060967728
1499 8.700941996641632 4.529494175988209 -0.5861577913209449
970 3.3905541155923435 0.5050724395308582 3.0308421515769837
1510 2.320631586726894 3.77229319751374 1.7196659861485168
1512 -3.5067859367227805 -0.6379057624704794 0.6929759968316215
1903 -6.051500729706089 -2.9915814335633044 6.030161205818316
1926 1.5294205239526666 -3.381675910798864 -1.793164034136783
1904 1.7376669000860612 0.201047802360238 7.044271555320844
961 -10.920105260711534 1.8653606680208266 -11.84607451344415
962 -1.2266032621400342 9.716155745670621 -7.101526970685301
963 -5.0056057577445605 -2.1807866363823036 -1.6323094907163245
1069 -9.988474445549338 -4.13121483278325 -3.8951569370135575
1511 -12.285437472081421 3.8859277754907513 -2.4531923729397267
1411 -3.358925795658545 6.37415366493282 -0.5531382199377592
1413 2.0068849322341253 1.2173077707814977 1.1772886040639485
1105 13.868043006719788 9.528542233206293 2.631641930583842
1870 3.4315336048955127 4.044247622455058 -16.22756571034103
1872 2.6893083302805505 0.6272870293264969 -0.588644409783375
1518 -3.0903447339398644 -0.07218842558720946 -0.7853204864775248
1107 2.489692168711034 -3.0649413315367546 5.89976056767693
1517 -10.190352962422521 -5.4560904372776005 -6.052412070714325
1691 14.035880885901937 -5.889853843289386 3.727420741674335
1692 -0.013215719808417965 -0.6697845805877698 -0.9578147980490366
1690 -11.412680241732826 -16.528973979344986 4.758124951420152
1516 1.0531646888718136 -4.435635462416801 -2.448874125472362
1378 14.690227550379635 -12.204949037665804 -12.1968550546179
1380 -4.3921527945509045 -3.3566333866305404 3.085961604407341
1837 4.032034734771055 5.530505212851291 -13.15243038624849
1613 -0.6166797749534099 0.05679056476751997 6.028640343550626
1006 3.246348866046793 0.1425796750491902 -10.453834698592702
1008 -3.130852166612563 0.8209504978009131 4.174697190302455
1345 18.035287988643564 5.871800889422523 -1.08268650974997
1346 -4.229165498373086 4.519603183398764 3.9623360882057796
1347 -1.1739392668495874 1.1379299053349345 -5.82977962905456
1379 -20.74317684232881 -2.553199749138421 -4.727168150951232
1612 1.6984316807740933 13.14931910428538 8.648374118819389
1823 -3.0610083615693036 -10.19273994132729 7.431420201616236
1824 0.5805029752954358 -1.0626059874374256 -4.233968493415639
1242 1.688573207637602 -4.9093607022756185 2.0329577688483194
1822 3.2664852553637074 -6.952252853848356 0.14176775105011558
1990 17.449146525617852 -10.23355332814316 -4.071669219946812
1630 -10.605007044869508 -0.7462206956025667 0.8213807909538089
1909 -2.941535277085325 -2.105579755649385 -5.242886438954164
1614 -5.0819975560394255 -3.2077432287739676 1.2040809955645044
1821 -3.090119197646448 -0.4373170808841645 -3.491024295021276
1685 7.30630406833719 -4.305077551832768 2.293214463546842
1820 6.712098354044987 -0.37241810133060865 -16.11130591670273
1686 1.0863477058189803 -4.261249002865495 -0.974955651316059
1910 13.180778283268301 0.39356116203841757 -10.299556543565439
1819 2.534087903226489 2.838368025336383 -10.130050916523533
1031 14.599416177824414 -14.702702535179423 10.259015057817509
1032 -0.3459707534410813 -7.765996799249406 1.9621836733981388
1663 -9.09364841540978 2.211941285307223 -3.261329415281392
1684 10.02284991079648 -9.231367248805578 1.9631671893286744
1911 3.3423417009764074 -1.7805146515837935 -0.5815202312941342
1128 2.348262763670793 -0.8686448099019328 -3.451225438193345
1960 4.631937644389358 18.197134287909783 -2.6359934117734123
1651 -7.642967315547713 -3.210506341605881 0.5337923282190922
934 -1.0250917500933394 -1.285305600023685 0.7032544941503238
935 10.46974255022483 0.42170310473591677 -0.602870336141224
936 -5.1525540844470274 -1.2251814565732304 0.9810043150855718
1127 3.382732679547841 -6.87484372500425 -6.531600606691072
1225 -3.5356884085078875 -9.654222075463846 1.3870675634706928
928 5.2721984077553365 -12.842476691982862 7.416241684787417
1139 -6.357984968653916 -2.7865337114986533 3.755168162745932
1184 -0.9445831087051387 -3.2301959631814414 -10.22816619408901
1994 4.444422848183391 7.250970869517728 -1.6677925886459857
1138 -1.6945674012907435 -2.8029498845679055 -13.544790017247424
1722 -1.6804319256229814 1.3385642188976374 -1.501240281476378
1715 9.192947816039746 -12.070935779999282 -3.526080029708937
929 16.056734472603857 26.828966134625883 -17.448902079570352
930 -3.1151544461776135 3.7690923255734052 4.065352602148418
1890 -0.5575083476408855 -10.102703046346937 -5.655015289893837
1254 -1.7090579430802713 -6.232732768945565 2.744683479383033
1632 3.971647148957876 -0.559047789974717 -2.912253189043806
1991 1.0576662821281664 3.7839360012560674 -0.4077581034759454
1992 -6.237174643309209 1.2022748518190491 2.64575189204087
947 -2.8681884937467776 -0.6331575538738766 5.415441562319269
1675 -5.129851155043677 3.166035242210287 -12.345578758026456
1677 -4.7318491636312014 -4.07651033776339 2.2587646251646665
1993 -5.0899833024665275 -7.523547906985568 13.136279394372124
1339 -2.5374621951667375 -4.924984172073624 -26.80310708462463
1140 -1.0848450180860483 -4.129176526548519 0.9070070483799487
948 -6.123731125512284 1.2035469490782282 0.49954292124535554
946 -9.122926605541322 2.7552929734218075 -1.839507849918096
1057 1.8817111424911872 -2.6055571823781154 -0.7604166845415996
1058 -4.815465868681948 -1.5467065820141033 -10.335457981002445
1059 0.3583834866333492 -0.21361937849346252 0.890752436546856
1340 -3.187793843754297 11.248861541003526 -9.795379611239163
981 -0.15237156228574308 0.5377032738587577 1.2831628510817008
1811 6.769386112730462 2.7927768848476795 7.9782171990621205
980 -5.081862751339468 -7.7255096466142374 8.065694712615452
1108 -5.677314352226083 4.15673783507279 -10.748680822009408
1109 1.4956295935419657 -2.4618420302713315 -1.2230604139255614
1110 0.43041685006690367 4.129666402433974 1.043936501971851
1634 -5.689025194456736 -11.379880657258541 4.314587510883363
1169 0.7090506728881725 0.22310550084556455 1.5461699697291922
1633 -1.5291188635887374 4.774640435370279 9.81124769663156
1424 -4.855073816927892 -3.459725193341052 -6.202349273839433
1170 1.2704752167157247 2.411698648739837 -0.6140431635889363
1795 -7.962784024295283 -6.3535932355328635 2.235898615002172
995 -1.6468486924252264 8.197297763674376 -7.384236881518534
1168 -4.533231571938007 -0.0559438359175398 8.254056338076728
1313 -0.23233421565373755 14.077725468483136 4.652555127355491
1314 -1.7708672628640454 -0.8299304823210815 -0.027060360032376527
1988 -8.39098925293281 5.004863404506976 -3.7609630937872103
1063 5.761361621312647 -0.45214285866456594 2.3532261015367
1065 2.477072333890196 -3.3281811231719782 -3.3670953543795905
1177 -4.125299411699998 -17.945042881722536 -1.7265240670520208
1193 11.099512324409158 -7.576021422989679 6.212759017386984
1406 5.644895075595289 -3.6602908329640993 -8.337550471939432
1475 6.386965489625027 0.3254326354656203 11.116836763855039
1828 9.514485140700708 -8.842631356643086 0.7371542875553289
1192 12.443754214501029 4.957867290066437 -3.799160817429143
1076 -1.0128298614909461 3.812765365514641 12.801185375431295
972 4.957882761049381 0.9140685545056904 1.6907367138395952
1330 -9.534125127945723 4.673059422972169 -7.366810149117198
1331 11.293248323409152 -4.635176488747712 -15.950289560089319
1332 0.7338023853617437 2.7926510353544955 1.5073875190066548
1742 15.315004412264457 4.097801309196866 -3.448733691473965
872 3.136135327613541 -2.037729231795977 1.3852118242521614
873 -2.7929834689946165 1.5919216356429278 0.8679957614493915
1070 -7.379062805790764 0.5892784797738401 7.931029480385334
858 1.8273941560206195 -2.0552729115537027 -2.3741337251707204
1432 9.650059227887336 -3.820089308353687 0.5885643482481091
1071 2.93142083469738 1.9549521632055376 -1.347067574208017
1621 1.252451045765396 -11.738349181640226 0.11357496847087284
871 -6.118945585172139 -2.091936725504941 -7.011614127336951
1696 -2.1982781777030307 13.146044444987362 10.48314047885482
1697 5.169118700389891 3.817487850201758 6.956328091292388
1433 2.546684779676051 4.516430161206205 -15.518307778971021
1812 -0.016444977791020898 -0.9443613218093083 1.2210228384689306
1151 13.047884243124987 2.084433132243699 -3.607351868198096
1635 7.304134641121904 -3.8565535227012364 4.247222240689423
1506 -1.0132188320936342 -4.241658403413973 -0.48183538387916763
1505 0.4586822668708528 3.9959488176790585 0.7928082607464605
1034 -6.8167948269588585 14.03891639628803 -1.2425248588778173
1020 -0.9106888155758548 -0.40822802193219593 -1.5047801485286472
1781 3.949556101713435 9.032474176198177 2.657327906848684
1458 -0.41499712515508747 4.1592365133037 0.5353272426320828
1018 -5.018281006027475 7.769814910961019 7.06119145747175
1951 -0.6732249394575798 -9.39008087387568 2.784268556092769
1987 2.5289694872252406 7.840089835869786 6.1426740384441585
1320 -4.0678450874488465 0.8549976338860376 1.0059045981582033
1648 7.649021480459979 -2.4049020013465316 0.7223895886176239
1649 -8.307050581302608 -0.23596135627228249 4.95539986708063
1650 -1.0781182155716489 -3.6728834755441118 1.226988635240023
1780 4.423497806957363 -9.308830144406265 1.2952746182572927
1782 -1.1868658913032086 4.6438212520739475 -2.6921346524515513
1600 1.450931244112 4.040166273642298 -9.616398886734615
1989 1.2793243194179513 -0.3390088090521389 -1.3993433272435516
1952 -11.512817563762106 3.596152396574711 1.4930214814076526
1194 0.2293609032341764 -3.1439375423401206 4.244449586043507
1741 4.289637004236811 3.3164089817607456 -12.220666654902105
1407 -1.775742374898974 0.5760383497153151 0.055987810505022245
1687 3.869420140758464 -3.882994896988659 10.441179418477223
1211 -2.4633872216816255 0.7070043117752643 3.6356685277597736
1075 -1.4387822792801086 4.864713621284609 -2.890621842108626
1077 -1.4241706858912109 -3.944904426221886 1.7672860491061164
1210 0.21037231387231553 17.68420562944502 4.473404691201716
1212 0.30465789277193406 -0.7176913156324766 1.0530310088856103
857 -11.278253338217057 1.5529371589246934 16.300341831320814
1623 -0.1576460229258215 0.9118771109783834 4.596798471807122
1622 1.9997156721160216 0.5440385051235687 -0.7622033893692953
1394 -3.1289046958237123 -3.4676403150679156 0.4099965409844823
1395 -1.2751543528254565 1.707536776635693 -0.3363325635447923
1393 -9.96177177565117 -2.19899462603913 -3.939696901562666
1250 -3.987642989852118 6.088657346470261 -1.159670427333005
1434 1.5809115607821187 -2.7501562705964204 -4.6992070752703405
1844 -7.194497425836613 4.308837093424431 -15.145094385870822
1845 -0.5627288040584024 2.6005977999754 -5.44413380956444
1351 -2.1583841335789757 0.7561495988022047 2.9204978868802107
1843 -12.156940959794548 -12.1378190572641 0.08386668542430122
1353 -2.219477603394323 2.4462419350269116 -1.2481097726654136
1348 4.7969601198599 -7.631367959635368 1.255034316274975
1152 -0.05016179073683 -3.3181015377434613 2.3336264460638434
1953 -1.5052573968269132 3.1465056457397638 1.6026415395632716
1456 -2.4337201321383954 -9.07200990170143 13.098205777780988
1318 1.8259525278966904 -5.319990048598143 7.802969153303748
1159 15.363902224062109 -0.05764631253485106 -10.762116145799276
1160 12.564492239648343 -4.063442904646484 2.229120651745907
1161 -2.91008209340031 3.167556533471047 -1.500650847136616
1865 2.3897494541371773 -0.8216513994996704 -3.0556499631611813
1866 -3.4331862601383674 1.8783240557207164 4.218386532537573
1871 -0.11840375307972911 4.181365120714518 0.12627941771235637
877 4.004593529580559 -19.984947585067474 -5.751675367879354
878 1.6744778299051257 -3.6899101831012264 0.8916928680422012
1864 -9.344320446136011 -2.237820404745646 -10.328499225757112
1357 -3.9105117734431154 15.423802673707504 -7.92140454011294
1111 1.3902248187249977 -1.9782147930050336 -8.406442919580337
1150 -4.441734475708973 7.254475734863658 0.7123815224490955
1827 2.346448546704036 -2.1264548514697457 0.5963846595850082
879 -2.070855440471887 -0.7458291431967338 0.5994583587700071
1222 -1.2619835928680887 -3.9849503751111737 4.611320883154398
1224 -2.755132299289233 6.1632264180876355 0.08440994863669458
1272 2.351149512646986 0.8471475679293327 -1.210700105874155
1815 0.05822829426970022 0.5488925174511893 -3.4559206635326483
1826 0.9622939808705647 -7.1782677500319885 -10.194509771982572
1728 1.4204396928661134 3.083388353845336 -0.8846454219679133
2005 -0.14532734662092478 0.2173745284609221 -0.16479489164720415
1813 -3.018044211278516 6.947515652405641 4.001780419740834
1271 -0.1320097435216359 6.8658598151044 -7.0936607460944385
1030 12.09853851384745 -16.316291590348523 -9.367030359821623
1352 -8.099642340421003 -4.561668803563629 11.054292302261306
2006 0.9910406768688542 1.4029363437875533 -1.9699567015823332
942 -0.025578815804776077 1.5306560084927898 -0.24413593516659615
1270 8.298478201889228 -8.182645609438264 -2.2682200456251778
1814 -10.553678423951185 2.599834541999921 -8.141125158115118
845 2.7488843645033625 4.5431315531201975 0.3189236650843551
846 -0.5303358358727569 0.07636925148093926 -4.4300520867912585
1739 7.814072557545971 -1.1494862709833147 -9.815141518585166
1740 -0.4024365550530003 -0.8971155936885018 -4.745072828565626
1771 -7.822830697013804 -4.917533000159621 -6.197008643384404
1772 -4.928135789351084 14.789731807363992 -5.371486529213255
1773 2.2757309614096903 1.1746740350400606 -1.2823501998881108
1738 -4.837899430659166 0.1804595712962996 -0.6151827636195172
844 9.661163224269208 -12.023685956247308 -13.943819811709401
940 4.900659288488953 12.474914652108492 -1.7000348324407006
941 -11.687031543311136 5.886158157760832 3.204657748958344
1568 2.2671748409655885 -6.853401609354521 -6.6248433633411095
1922 -3.7754199427195037 -12.744633988721068 -3.345548180707156
1720 -7.760638887127647 12.419919042613095 -6.690353294669904
1183 -0.18852579744894568 6.405343604969642 -0.6722951879855585
1185 2.713978381587203 -3.596390057832003 2.2667587921688384
1721 7.2447992482981105 2.082013891797391 -10.216395221321275
1061 3.6949565526053254 4.305916052560188 -7.417221586843464
1358 -9.364674627644764 -15.08350522738786 -0.6963751941975778
1359 -0.9280655195926047 -3.883952745661336 0.5948962485889437
1303 -1.5597955511157822 1.1258459312420497 10.923967233797404
1062 -2.438273628578405 1.7282223304039066 1.5828401251862363
1239 0.5796029876983512 -0.7839163871408341 -2.4615714335136287
1060 -6.593949886644955 2.969982538038035 9.015022059998428
1238 0.2947918463307115 -5.938817189475997 -10.6983822905885
815 -10.81944667219679 9.890818258658003 1.9760616821038168
816 -0.9367804962633876 -4.582634856713136 -1.632565885324432
1504 3.1506665075773226 3.033345096393824 5.625636072236388
1064 0.9119882909417988 5.5879316398618135 4.336439255179716
1729 -7.657897881430165 -14.053712618681812 2.6594547221754983
1178 -0.6474946828233823 -3.3461830157500825 -8.958155027424198
1545 2.048239247307122 -2.630694196235637 4.6161380497245466
1731 -1.819188987717514 2.2419559543984757 -2.7751965767803966
1730 -7.8407598628366175 5.165784687114264 4.054627978356364
1237 -10.184902700749294 8.435951183714959 -1.52855665709351
1365 0.7136411308257317 0.8115782834988684 -3.7257645458580724
1179 -0.43144106242172486 -1.273784489785359 -2.8879768345230317
920 -7.979076095550241 1.8179441585462595 -1.9985363781836167
1137 1.0970897290131076 -1.6387743343374641 -4.804659238374303
1995 4.455238575384556 -2.605492015095021 1.279407482294549
1135 -8.537622661152353 -9.209820542365772 6.5001010241247625
1136 12.201948854135182 0.3625822598170969 10.114406058105851
1363 12.022479892214047 -12.235550614635267 -1.4731530558994932
1979 -10.061694518450501 2.6523327655912072 -3.3655847031308217
1364 -2.2504263794166013 -0.24264252199785283 10.943119114439316
1116 0.41768948189485594 5.522825401236798 2.1218771067001923
1341 1.6468489444450445 -1.5578951563800856 0.9333578663174499
1978 -3.815476421723826 2.358848896503948 7.728131835317878
1980 -4.420152671533614 0.2927637193142664 -0.6509805819729647
834 -1.3658214605960874 3.0953671156563685 1.6716104962473837
814 7.524220188745646 0.8143212380628526 -3.999475937343618
1425 -1.0115974304292485 -2.2879681013481585 2.4538482841089038
1736 4.088300747564175 -4.190382026492971 -0.5008460970954063
1737 -2.244617588255981 0.5743972107410477 2.50452595008219
1797 2.8766374601530047 -2.8176320390387795 2.7147442564360045
1967 -13.987537755679146 2.5422916328790923 8.684677302405758
1975 -0.16362242423225176 1.6463233869837364 5.597427636479604
1439 2.921183400854953 0.9031327908045983 0.5916059976753663
1900 -6.031923685491163 -3.43380882344851 -17.97334048024383
1147 -6.316808912569067 2.039263348988532 -8.377305550141587
1148 -10.603202033072803 8.35491406078474 -0.15081251953774572
1149 1.6804422179355256 -2.2022516181530434 -0.7239494759154489
976 7.240478070123235 -11.052155757869873 -7.3230937365548465
1590 2.4213457930202176 0.6169762258084976 -2.0723903244489565
1405 17.24373933084123 -6.2509697371840325 0.989067532842916
955 -1.55401562714789 0.9512895621722405 -8.472345727788044
957 1.240687028553329 0.9135422962115616 -1.8147335174040704
1588 -14.152043085662617 -3.592253966807864 -4.588439275853557
1465 2.766415521116392 -8.734691809301552 -1.602012497768972
1829 1.39843604341436 2.333812098410831 -5.555106027203403
812 -1.3845352792186565 18.900658390005475 21.204396635350893
813 3.6136025174826822 -0.5945599043387156 -3.9889000724457215
1024 10.192285262119192 -7.555243458043727 -0.21300777546122912
1591 0.10611000181510322 9.772734738349058 -3.258261829181581
1592 -1.7609918093359664 -6.03187573458188 19.953363228919084
811 3.792436370416201 -0.15525663508981571 6.355693480755799
1589 4.486873659496804 -0.4548515264685606 26.387817010905586
1681 -4.432702382527295 8.33299113055688 -5.3812101603860425
1467 5.435909620205813 5.02131709121482 0.37353326899557987
1593 1.0113082352515341 1.5003224953355259 2.689175264624956
1830 -0.7856930071039188 0.9230664791496068 3.778482428959007
1466 4.088691688855116 7.207857277521894 -0.725197531627317
888 3.07868034632369 -0.6115676488653192 -3.609274403312383
1682 -1.1029482824763144 12.141312409504257 -16.14367668708539
1025 -7.797059974095213 2.598997979111857 14.721522279597462
1446 6.018298813862615 0.19638801650935364 0.21517179320817456
856 -11.330852045543645 14.497597495811826 4.9029676732353185
1444 5.281807092868031 -1.762990075684311 -2.354540667675354
1445 5.04760058907686 -13.271213318383728 -1.1124599994991617
910 7.313204008083473 23.374200923227082 -7.611947880832983
911 -5.704594971960009 16.74581085944086 -1.3649665289520478
1942 8.55821042475716 4.539442611390653 -1.5165198951000836
1944 -1.5099381985413023 -1.324413166415297 -0.34974621374344184
887 -19.34628863372402 -7.5991782920542965 -1.3592031623581624
1698 -2.140127818871089 4.541525359772454 -2.6383398399599303
1121 6.181641743514969 2.916220023072798 1.5320487599880157
1187 8.687540577971038 -1.5729747645005547 -4.802390532814586
1419 1.4400505663172287 1.5812826101692168 -3.0186778539490096
1954 1.3399414874974518 3.3600138229618004 -9.21930906298747
912 2.559741725659948 0.2647976769191736 -0.6991388393368371
1943 6.627920424615575 -1.167760477371431 0.32063675222559934
1122 0.7123082134965865 4.496599481074387 1.1231082833118882
1472 -7.884582491280312 -2.5919128872477506 2.5507159682951284
832 11.616882032719191 -1.3816267190215294 15.97837295399676
1902 2.48272567105077 -1.1749744191057132 -2.0291267733609746
1471 -3.3544447324511535 1.8411242791162732 2.479807812791906
1901 3.8442405350882405 6.464312463897699 -1.059748126774034
1941 -0.6062236963394949 -1.3423806026447733 2.39782951118678
1796 -5.203468693499688 1.6066197913832296 2.3692228935102433
1202 11.380132424835262 4.5356986939646715 4.694340789695952
1735 7.414463920797839 -8.510727155611706 -3.026518804036054
1707 4.198187243328901 -0.9978162630309793 -0.363767568967764
1282 -11.640020298717051 0.5967355956802195 -5.1285679447668455
1336 6.4698563289952125 -3.8484219543809925 -3.5651155832101433
1338 -0.04564415126809875 -0.25452430018330957 0.18293346547546796
1879 -7.135913825457715 4.6983919705777035 4.238780221060573
1880 -2.3026745008233616 11.756535182501448 3.2293439284546674
1881 0.8505632799792073 -1.112794709883182 -0.14189261437084896
1283 2.429285841399798 -2.411026574995574 7.316317939870658
1284 0.12017074346784339 -1.2963685242043572 -0.7388309269785374
977 -4.720835038571026 5.394829017414327 -7.405318726474789
1182 4.146854826494999 1.8409249498374651 -3.6046347866535555
1337 6.371164152200059 -5.122393456017966 5.380814445811301
1399 1.3673707871136445 -2.2675302844690974 3.677302578941657
1705 9.917379023150687 2.2160901677528684 7.359187087766768
1180 1.0096021434160793 -2.571552828762434 -6.884629574343944
1401 0.7713051898514633 -2.815958812848822 2.4997763522625123
978 3.204032583529132 3.5887099021882314 -1.3961634669743805
1181 10.259281647748818 7.604952721115961 2.254008458808883
1706 4.655756749536857 -0.6269497226587778 -1.7725814178458452
1289 5.492351743344041 9.073962519683787 12.159666110001481
1727 -5.41420441373611 1.7824436070510763 -8.857244466832672
1846 11.638604966131693 -2.369735221991695 11.717525264501782
1377 -1.975995100481546 2.0410770419102255 2.1901322261843017
1683 3.134647655632667 0.5008451556601043 1.5661673347896008
2008 -0.753273042684791 2.259315065446455 -2.334180933276537
1541 5.747732551224356 0.9258657402477156 -5.070410329780807
1417 -10.417334256900899 -2.5970521475258788 1.731864137288765
1084 0.5651749420462248 7.44687515458832 -14.570886174898908
1085 -4.219649654260476 -21.272664959301352 15.050875627648423
1086 0.9570361935911809 4.189241893349328 -0.04550185745677292
1290 2.0455995845047554 0.0160606285620212 -0.5928232522126865
1418 4.7653052167985095 -0.5377686207028815 5.191810863621068
886 -0.036856631505464706 -4.064918880600573 -1.0246543734760911
1288 -6.668390827904425 20.14844670516296 5.6541133131627435
1913 6.0096837361309765 -8.191575848349698 -3.533982412244192
1914 1.1807279642759962 1.8133497904473874 0.9874263151326097
1540 1.322756736909834 -0.6878440251536061 12.316748212851333
1452 -0.43562633723202326 0.8777517297205307 2.8189548068608015
965 -3.8763116554883217 -0.01958455633098108 -8.032022517102439
1921 0.06314318367291391 -0.014345253976307272 6.707473869230864
1542 3.2070452652842136 0.18093187105971986 2.598539765544219
1350 0.5381598169578019 -1.1724139783074374 -3.063383198972819
1939 2.3062263324730923 0.091712243663069 8.210427824981327
1201 3.387011773375249 2.2783053565226052 -14.841439136314804
1203 0.7715320350675142 -1.2010227823983215 -0.5145228048228115
1940 -1.2347255813003948 6.327306060194998 0.017897584638260664
1349 14.694032371516617 -3.453127298125809 -4.617297910686562
1335 -0.32541769994078 -2.804378115363283 -0.8144389058886284
823 1.7247784689386774 -0.842401907797819 -7.115937818726665
1333 15.876754265541331 2.6583489255682906 -3.8121365922498844
1334 0.40322102110864677 -1.9530443155495176 -0.16678850853852323
825 0.19595683671887668 -2.0428359830023615 -0.589054392954071
1036 -8.833607411228048 2.268922870405765 2.896792550334788
1066 -8.899994699718956 0.222094530029798 -4.288149851347649
1305 2.546486999448039 -2.438627822525062 -4.045667560529028
1112 6.570283771131158 3.2468611157042733 -11.7434693661762
1304 -12.904478448096967 5.274296246396854 -2.7448487221839426
1628 -4.777806506790581 1.1291013264002159 10.633402498697581
865 1.923746080943082 -0.9474112818215981 8.711707623181333
867 -2.95873765378516 -0.7166858074599859 -2.772195413227134
1247 8.94740673537343 0.1865515471459624 2.487683352150991
1627 2.752157434606598 -6.683171236631507 -5.578254903171744
1629 -0.3602119565816182 -1.0841726537704868 -0.564598054885643
1300 14.737392776118964 2.4860880263712977 3.721334876166085
1246 1.6286187167715815 -6.991239826815201 3.206343175315054
1248 3.3279606408230507 1.7033836704794554 -0.290737323172131
908 14.944447714635062 10.787858594440257 2.4919811271003174
909 0.3202247482444302 1.7084070161353562 1.0752579501728134
1551 -0.3419663657024171 2.7920221727073526 -0.6941890425518864
1825 -1.997191748267775 -5.566526925593037 -10.649035059787836
1726 -4.235102890396711 5.470494793890016 6.003583946236087
1223 4.099324609185429 4.030543818957733 1.5916393933572308
2007 -0.21749390392322004 0.9747969581478061 -0.7632723486104811
1550 1.8887479638092424 -2.043527378659013 3.4167189293532623
1207 -1.0959395762818784 -12.039234140957726 -0.46194071789639807
1375 2.4572713917113465 0.9037825706076523 3.6083367377230577
1376 -8.97901705015423 5.503674117151012 -11.16975290848942
1549 2.2363155719915424 2.5883868700729833 9.78385516924175
1847 -5.051132629450889 -0.7555877076282285 4.889840606568063
1208 -4.356579424463303 -2.0190783714169314 5.4033104285064955
1199 7.9839717452500745 -7.394739885801709 -10.185168940399333
1209 -2.9117803720100794 1.681665998177964 1.3669688668281632
1198 -11.662451611206237 16.035948505144134 5.393906880928623
1543 -5.925858930874609 -0.9981523989229997 -7.932864953406614
1296 -0.5470758493493202 -4.1367874965557645 -5.039818597435254
1567 -3.300730405425211 -12.33307213641931 -4.51330586649356
1569 -0.39746932676625296 4.375845909023187 -3.875355161703062
1912 -10.316621749080896 3.2735825955816207 12.97308927822947
1794 -1.5365868518832593 -3.262327657448275 1.464222851122676
1295 4.606409716868236 -6.5765688660912724 -5.496126656968521
1544 11.714354163650665 -5.274677827450988 1.9407324494879485
1586 5.456982737977144 15.973638573611456 4.085207409448011
1134 2.6928584643916995 0.0729891788655045 -2.6346120553616332
1294 7.136127285846624 -8.158137670600045 -17.649435403276396
1571 -4.6928968187524225 -4.742468434596793 -4.219948512917779
824 0.9016988780208308 3.7897775002294747 0.4388900418563153
851 0.2687046091913782 -14.013053439201546 7.113851978524236
852 -1.2698142337258678 -2.592980923714011 4.691392497884333
1037 -11.655710505452356 -1.8510822949648307 -3.499104486429216
1038 0.9242699877789737 -2.7657654025523724 0.29925417267140364
1923 2.541024395121701 -3.0182741818397116 -3.065220747546741
2002 -3.3960317670974427 1.1805490248693322 6.2273096188318995
2003 0.19559965328657034 1.2980308460086338 -10.67940128281022
2004 -1.5697231708323882 0.5157829532296008 1.625825251750163
850 14.820054838275913 1.5738028486026603 -1.376373403766473
1854 2.4488354359172004 0.046927877570659846 -0.0940160963930725
866 -5.977436666827415 9.571923130225867 0.9397201620852212
1853 9.641521791663296 0.3370384010865344 -10.544399790697332
1113 -0.9224979022309499 0.009343368430189599 0.30485646580434334
1852 -4.975303696554956 -1.8981447958113857 10.364909759693031
1966 -1.1069581128576573 -1.871865187561238 -3.2596914564252404
1968 -0.4878979793577326 -2.0218339054693764 -0.7118563139001437
1423 0.2784540625957326 -2.182184161567701 -1.5752225404544034
1438 0.5735471935614984 2.4827281303915507 -5.930685428636585
1977 -0.8168075103223044 -0.37209302320437304 2.8203982904298117
1440 -0.029021735398272967 -0.6300248113081766 3.4354904027765465
1976 -2.6598828601920665 -3.4879352638521293 0.8007094361926815
1474 0.4814639795974488 -8.320377616238572 0.938769658694845
1476 -2.2000127166221657 2.600886770401214 4.474098579922733
1072 1.9557833909149722 4.178822299356774 6.3126595795653255
1073 4.825747418563271 7.284551748599272 1.3537914108222115
1384 -0.7243851449781451 3.1070446295807543 9.19419085611851
1385 -9.472208505511238 3.2223700867255207 -4.57599773848498
1386 -1.3431443231829459 0.9034647858444026 0.6335306312313375
1963 -1.6508956235925063 -6.596428135865056 -0.9401217166446947
1964 9.140084747572528 3.201970528679918 1.5470516560633893
1965 1.6711230193721032 1.7232131073127948 1.081688440853603
1074 0.45291124714359765 -1.364760608703243 0.3495557583774911
956 -13.521227013324514 2.1124351613238375 -2.3376802036505597
869 -5.048102352121286 0.5176324115569265 3.808954627732519
919 -16.052676319035474 -7.373019517464073 -5.046257403460457
1200 1.9306118252847788 -1.7858502467342081 -1.759810758652608
1585 -17.663049362338597 -13.626766973601677 -1.9291969212434412
1587 -0.24469318818147617 4.36372791609181 1.287092779438556
1792 -4.035550937672634 -4.330573138210023 1.8172661897069102
868 5.805537725577113 -5.1036160674492965 -0.32141675067562525
1133 -5.158078817615797 -10.984313029288922 11.948690985057508
1929 5.813354048624123 -0.8384979722351095 0.8593725028648467
870 -0.9501364982487832 -1.6467642160521385 -0.5252338374750644
1793 -4.995211376622839 13.425629112083795 -2.4717652406705053
1144 -3.049110292149456 -0.44053782174722844 3.05143580256415
921 1.2548276916128644 -2.4082516575709794 -2.104783542315832
1132 -6.511386349821653 19.49461117237475 1.8745782915006162
1115 6.425934671048508 5.472650972924826 8.063960489665526
1146 -1.5233170460349361 1.5075257128442279 -0.13603286955061425
833 5.9637200222985545 -1.9610276259856754 -0.9409882591818434
1145 0.5311302682403077 1.6593406841751148 -4.118901189793384
1114 -6.876290183717929 1.1674757855861635 -13.45637100238102
1120 -0.2676461721607901 12.85877051266321 4.165151352469661
1473 -1.9049206313811562 0.6919168991082668 -3.0332145073561283
1607 12.049720936627782 22.072141328126982 -2.3819642885524583
1608 -1.1215514880006086 5.110796753542707 -0.4099868095535592
1609 -6.482682864046703 -8.929365797412345 -8.16582738621843
1495 -7.392801277966595 8.708198667356717 -8.940549582608083
1841 -3.998625085115697 -18.86234027612696 -3.5482860653964994
1268 -17.01201726086889 -18.160143647447235 -3.159484824822151
1460 -10.44825804385891 -0.8467101127128669 -12.038681961020796
1840 6.3368373421495185 -12.008637477704776 -10.660607234039846
1842 4.912604175912141 5.349330917229588 -1.9721699884875972
1156 -11.486608871261927 -15.41475400636923 -5.173819935561292
848 6.615480722501921 0.7578579309416992 8.57202329769734
849 -4.550356109608997 -1.7014368783693008 0.6122260885024768
1459 -17.591890407009938 -25.121305822400153 -6.467047065386067
1026 1.1296570500758716 -1.6495474269263677 -1.5178557629059817
1040 -9.761066146018328 0.13555071667162133 8.761589516279233
1315 1.9843462574067179 6.163380227443311 32.54282042161977
1937 9.713444842164261 8.964866234089962 -1.6560789856352454
1938 3.423238257304703 1.0881008977317166 1.980273199122129
1850 6.50878180477259 3.6903780977318545 -1.9968722953837041
1851 5.324408542092557 -2.8032848169584583 2.938812580439459
1478 2.59847299340518 -7.358153875394899 -17.92150631738703
1461 1.5965500089417541 1.0856132810619619 4.412732668273568
1849 -6.109774988570446 -5.42889910961001 4.20198313076818
1877 4.556512198033288 9.89410030164473 7.267184686679182
1479 4.5822004777730605 0.30351509328740656 5.009306994009215
1188 0.13118454280615788 -4.656489127112519 1.1367104162103479
1768 -5.610891316550375 0.21244708268847554 -7.314488608176903
1317 0.4188063466107311 5.820490744727048 -0.3750843988421362
1770 -0.8153160156456521 0.6897945457508283 -3.042964018263579
1752 2.410937496308742 4.652472994060578 -2.89266774717693
1769 2.96422766060787 0.5683926093057692 8.85252401909918
1534 -3.259209403066337 2.9436956229852287 5.607028086250028
1751 4.862467027909712 5.260646370516219 -3.3857423478000266
1190 -19.20338067109908 7.309128047083447 -5.358868831708046
1774 -14.919973745256346 1.692470826713505 4.152860313874889
1776 -5.713109450366527 1.5198945971140607 1.2939518999724526
1067 8.146117832853173 2.541831391587339 10.190563600932332
1556 -4.94340783758822 -25.083350134706958 3.5188860305347625
1639 9.34260491612631 -12.874175021354258 1.4570919857577236
1641 -2.652932890993431 2.0757574869855104 -1.3095617437041644
1606 4.763485657471658 7.931823450741408 -15.219534523906676
1125 0.047947285415463274 0.5461021748578819 -4.9713469734953435
1215 -0.6072037519061549 2.5149210599940517 1.1922024165979053
1640 -13.872192295852292 -6.841189645683184 3.404406716723523
1124 6.039461554201033 -28.92848304307281 -6.121132917384859
1400 3.585263690513279 5.175199454302142 2.4870066038458396
1580 -16.69330803120146 -1.8218127555912995 -18.52377208700342
1581 -2.6879453940964626 1.2115465220239392 3.7099849475806126
1701 3.693180328260894 3.990348824238692 -2.688745000202899
835 10.561873984971108 2.3305149615295657 5.885572777378115
837 -5.3758353249875 2.291646458842893 4.5147145706167064
836 2.5751308567344164 -17.366465572151604 -3.6829139920305014
1276 -10.1074956797445 -5.847015562768744 -17.5784881355345
1278 0.9714680927958782 -1.5352500093727306 -3.750528491002369
1700 10.829210023075163 -2.6760768315769528 8.05592687940262
1277 -13.280903276359043 -12.32472035451473 -1.9918355744923706
1806 -2.0544201408705427 -0.1842284360863711 -6.818289191671937
1970 7.492900485419882 9.361099333791925 -14.235361897219402
1971 3.857337639859191 2.069692566513045 -4.986132998781788
1805 1.5233034116195665 -1.2316755687101424 -3.7375946287176833
1760 -11.510426497419589 -9.197594680395893 0.27273616138398754
1761 2.55094687209848 -3.3500434550095797 -1.4134924158243527
1528 -11.048382858374849 -3.5156794515506062 -6.814434144960348
1529 21.448943575287263 5.605109854551165 -1.110593221892059
1451 4.21522593229631 -3.9100182919154083 -13.548968303597462
1087 6.942324728395887 0.28254359864386375 -4.631778482842104
853 9.1604600360084 -8.050052443610088 2.199564926639005
1131 -3.469450287465845 -3.671271949092583 -3.0200177042397716
1709 7.070433212966844 3.546335418518106 -7.862628976129808
1129 7.783958939721156 9.058506717257256 -3.1735767119772564
1279 1.637682854254704 0.7266876215357689 0.3496288886104188
1450 4.89832770413199 16.938733305382037 4.484695822888245
1068 -4.1375737391842575 -1.1727598206561016 -5.504257888903934
966 -0.01853308924354966 3.1434685246110567 -0.9954568710511698
1530 -1.5655616482519026 0.6685235101046015 2.394341485180584
998 -16.05447637420693 6.940057796526978 -6.416137446426757
999 1.4478117149811107 1.3813371518297457 0.24992255085270293
964 -3.063228417948223 0.9000764345046949 -0.0503623191552031
997 -12.77050666649356 9.333350604830049 -3.6277175521764806
1802 -15.77790873486435 2.3161030738471124 1.9799232845407042
1803 1.3063753799408504 -1.8741642395039948 -4.681087568186451
1572 -2.338957922781735 2.5629684895437834 -0.2300853476738241
1328 -8.071080901216003 -2.891138805032388 -10.834659278911555
1801 -1.6607933655862739 2.9246407897792093 2.574553062771615
1570 11.766315339787548 7.649183030679309 10.3885481484285
1667 -15.360481991925603 -1.384678959844203 4.9335989815276164
854 -17.108486753273098 -8.83805194385938 7.479091593396531
907 7.7935413308500845 -10.424654312327965 -10.999762489639425
950 7.76011715803376 -0.36056624463278414 6.250435780212173
1883 3.589331630967151 -1.9087555794306497 -3.990903305633344
1884 3.6886611569104955 2.2846331728688147 -2.8109337571480424
1699 8.92953761865866 -20.76410872159308 -5.899190901835502
1603 9.748218045507413 9.762180288779875 -10.66663660269459
1604 17.053929174958235 -6.355092082841701 12.636440343035344
1605 -1.9078396129684914 -1.1686161978286314 -5.1441647424314425
1969 -17.717018018751673 17.274145071771887 -9.451611957151812
1986 2.6494553111505916 1.1490063350667044 -6.554379074730727
1747 5.078180338130859 -12.898326724905798 16.60396672322817
926 -6.978339543553133 -7.303352358595128 0.8016458228303655
1748 13.469378258304737 0.38926458490336263 -8.180417364162276
1749 3.802250971274106 1.1171381276949133 -1.7814058311742416
925 15.756644100631553 -3.372873828021544 -28.314284450202006
927 -0.7396008477968353 -1.3649465798135794 0.2591582268220741
932 8.550376790676689 2.0741840059876955 7.758268609388078
1984 -4.245061621435035 -14.399750336970289 11.330074255867222
1848 -1.9433301290858853 2.9899538216718953 -4.910022857467521
933 2.4996046187921848 1.6773377549587862 -4.226551427880978
820 23.783305643012106 7.574076875193685 2.241663395966215
1708 6.690918995513104 5.2730328261420425 0.5236833218939431
1710 -2.106261391163334 5.743812878468088 -3.559527884338388
1255 -10.925850396909373 32.83820699514654 14.333358980316016
1858 -11.921688149930654 -13.804330214401478 -0.5100748215010718
1859 19.66492280203796 -6.674026335770005 12.011150116472042
1860 0.28128658066273954 1.1065972810478366 -3.267552326375946
822 1.05823152743611 3.1291480016188 -1.4392780551982043
821 -11.601900969257766 -26.268621965256354 -4.796603884977932
862 -4.298697978625947 -3.748193990373099 1.7078617802760356
863 7.7115084055319025 -11.505687464494086 -15.610932212504906
864 2.1525860063825437 -2.0553154877818183 -1.651262866615739
1927 0.7159649584126868 12.906942537506593 15.888097100811468
1678 2.65581193627898 -9.251208453970081 -1.100192588204008
828 2.3441084327985893 1.7629785102126676 -7.55196638123817
1130 8.720195594224009 14.43258531918217 3.748657377554532
1257 1.1407792608421083 -0.23081848938366745 -4.285625085825029
1703 -17.519867184031206 -21.78603107518073 -23.534115801805015
1454 3.4009530230523537 -12.626114994801492 1.9935721832743725
1575 -4.3204211950503 -0.8094012313838219 -4.1259084290071675
1573 16.854408092142457 12.01316785445157 -13.053346926849693
1574 -20.289598103078934 -16.369889220458884 22.627899923858706
855 0.6136782102573695 2.6271080359422476 -5.777103300511963
1327 1.1568129186093965 8.879412660015173 21.23608865165512
1329 1.794099964381094 4.628621558260017 -0.12636113520888445
1680 -0.6558017546262782 -0.5934761764772986 2.891171593937374
1907 0.1800562434280791 6.785284041929491 -15.329948338806354
1908 2.685146050463034 -1.546097940429145 -2.9422767725383814
1409 -11.747013119277806 -0.3813924440026253 5.450351661249683
1455 -0.5639800443090012 -0.016874677695849542 1.763025006112304
1950 2.9952274523743103 3.1587629702487137 -0.7506819196651158
1668 -3.817678624671314 0.8417007860029623 -0.9763156851658285
1453 -4.9457432535391535 13.959070672407925 -3.0264244391968753
1666 -0.39991348985633046 17.387618698188767 12.285335114926063
1301 -1.1260357846945601 1.4337909696767601 -11.693503258548775
1882 -5.024085041340441 11.98481213564136 -6.1530949791445
1302 -1.8608525351268417 0.11234175005112484 -2.55977977239156
1408 6.756361409585804 -1.1436551474594454 9.933430343921046
1410 1.9491249928346197 -5.437063907028126 -2.7458824164264546
1274 -14.176144780751626 22.21084400468629 10.499129481220681
1273 4.152021017452796 -13.864087915978784 -1.2915553281736514
917 -5.1212909693713495 5.424643819533486 6.005937745475642
1275 -4.007347803830189 1.22819893694498 -3.3099048437925584
918 3.241712350865498 -1.6639034651743818 1.9521654613402142
1497 3.7042541726582066 2.540912864421257 -1.8571644674012557
1496 -0.4189023226736971 7.088800374278356 -8.413121579341261
1713 -1.4497002212075625 -2.5123681772656887 3.0153277580521434
1711 8.111196756565674 -6.178937125734126 -4.512031126805893
1809 3.215677552576756 2.3146919490247635 2.161472340543002
931 -7.651115455640613 30.595381823629364 -6.704967631003388
1269 4.394379597803859 -3.004539219151026 2.1427530782775257
1236 -4.22032104219008 -2.501052925657416 -2.993343262263703
1267 -18.065128025513815 9.487030064963404 -6.952855055748598
1712 -5.431825382514827 -1.1901193746044438 3.050809073434454
1807 5.8624298756444375 17.874982959129298 -1.2113587904191494
1808 8.398789511003525 11.698181388699886 2.405168225431576
1928 13.635592273814982 -20.723165909846166 4.793776223373486
1949 -21.22419057534339 -5.465854587414195 2.82193747161888
1948 30.91776133109375 -6.583118266104053 13.355605251596526
1906 -2.5088644257775994 9.925900515014174 -9.970288559590392
1244 8.512816427449382 -7.313401567701962 15.171419633246161
1245 1.7479745326953837 -0.4392708168619149 -5.638662520327367
1562 6.298298798070206 -7.736788765814183 -3.8473215823288625
1563 2.426489755978374 -2.6826946745112923 -7.3535982823500365
1679 -4.842525533000429 3.6960877939766275 -7.568968065681548
1561 -6.560943791702669 1.8214324412350125 -2.819169987481867
1536 1.6377097582357227 2.1226722707914063 0.4609354466541921
1955 -6.239360773068981 -5.776226248777608 3.706455241275001
1750 -2.0217039911999874 7.318010811250472 -2.875045636419314
1186 5.858302147396298 1.2190276790069092 -2.496513161832091
1956 2.9938047515853863 2.5962881780047953 0.16748233026456721
1535 -2.5602407589875633 -6.967408814927237 9.94172105102843
360 4.132370819080074 -1.1283699919831727 -23.167954900839206
1171 -16.88924097546311 -10.053749027316517 -21.585596750570442
1173 -0.3449820648609136 3.617118891116681 -9.657533518695175
1610 -2.5280402553730945 -15.35452485759372 -6.125597494002088
1899 0.559636016873947 5.499725702371791 2.8582005232327523
1616 14.415584473522406 -11.266836039531528 7.239584839375904
1898 -25.509095192869204 12.066575261810195 -7.232572725058847
1322 -20.67986091391404 -17.80232163416208 19.606362234838894
1172 7.949174517174966 -21.776607384234495 8.604082945046754
847 -8.37067539471715 -16.180355568745377 -3.052139101143439
1897 7.440076628703412 -14.659929407826683 -17.950320613926383
630 19.894235699069757 -15.25506303311374 17.088606607665444
1321 10.58857661025815 -12.642314649783444 -10.702991847717266
1323 0.33347303026259895 -0.8208120191654074 0.1980334391242863
1286 -1.0570237687127941 -41.9582894737337 -4.302585229951743
1936 8.89927446257933 0.7862942358772433 -7.098200598559424
1316 10.667970218076157 0.7815066516098869 10.71783106795398
1021 -44.08898426509971 16.02337813421581 -9.117026714493651
1477 5.93963479391034 7.52413436432651 4.57857460549662
1041 -0.4785386740452111 3.1490495110197765 -5.04816025776135
1293 2.764610937924124 2.274807422018001 -0.4660314770237084
333 -2.4456413944522213 -17.6932557670604 11.393479541108938
1291 0.846336227264594 -3.4528178263433467 -3.5594633513958254
1292 -0.2171496388055252 14.004170873874155 7.224666723783469
1189 20.90213484917414 -18.053008649013577 -12.440665916958691
1191 0.03361507353411763 -0.5487444804320867 5.514970315912896
1483 17.410599604908647 -0.21870362000909443 -20.07780569170592
1484 4.1296852693494435 12.165110177211595 -15.220785485068614
1485 -2.2568222420631074 5.594781094759817 -0.766362228839701
1537 5.100043800120158 10.250909590261339 7.406260645057664
1538 0.03626386608547296 2.083602921215792 6.941259888137269
1539 -2.757395986949401 -0.3049440266560501 3.7394496716383725
1141 18.779732872560334 -6.791517851050949 -6.335534168763975
1143 0.26603819923893207 -0.20012016669536906 3.13903377644091
332 -4.332892754013694 -9.10800461143283 0.06354384670722742
1213 -20.84454393166574 19.443027602550114 6.630392242429417
1611 -5.860746684668989 2.6307286702235113 -1.478494230238369
1775 8.62494505398833 7.30442209255754 -2.1870887249649957
1214 -7.237510240563952 -9.414277448585208 11.240244900966989
595 1.4800425465915006 -0.07283574190802378 4.719555128936726
1287 -0.47619321029185535 0.9491600846253143 -8.504679965833013
1285 2.638913875788217 -13.202019008031488 2.4881327007342664
55 -0.4565921475480531 -4.756617921279515 -5.723305684451384
1981 1.4253946749305761 -16.460928310856378 12.824094144475271
1421 -7.83406381608795 -6.541319052990843 12.415470414180636
1014 1.4388807740998844 -3.974934244538859 3.9221112174851713
1876 -5.733528820368581 -6.679578531409477 19.113251281698997
1983 -0.8990078821766679 0.12657236139726907 1.7502541349382397
1013 11.088459472512957 11.303778845657188 -2.3233664102791804
1878 1.9769375928376527 -2.696707929929507 -1.4014001192359413
1919 -13.440386027517041 6.440790935086618 -8.856146735076331
1039 -2.8341025596726834 -0.42982688832529986 7.851285205972506
1158 -3.283874020656269 -6.1464255329465 -3.489099226143217
1157 -2.458828039525004 -7.815060083318079 -17.529025002288293
1360 -14.559001251293804 -23.84634645810632 -11.826942394348633
1361 -9.452292945925993 -11.622791867441531 -7.247694737039146
1362 1.8189137583546042 -7.762922603732261 0.9645019487901036
1420 5.093638086933936 -12.321431882562198 -1.7210447574783863
1422 2.885636028079823 -2.836073755942831 3.909051317182231
1918 2.182423580227602 18.35614951350938 -2.792408582876218
1920 6.60776449347514 3.671085400837822 0.9562773558691128
1012 19.992322915518066 1.6491698256620277 -17.33640982813264
1089 4.5258393862934385 -1.6434498258209487 -1.6527887785072695
1088 -25.8828833196456 1.3384276888592486 4.401055956235184
1763 17.4918383729491 -20.081928215407398 -7.368517410845232
424 0.6285826328860988 32.010773654522716 -6.794397540269536
1142 10.542279167311456 -14.758127359091645 -9.82594088486116
913 10.945592599009956 -9.481687846288304 2.3971585689293584
914 -0.2998210266729642 -13.167231841083527 -2.057554907442294
915 -0.7014897615264001 -4.449163673120212 -0.2887998534744535
1280 2.6335022816965457 8.363280252249918 9.796769444762491
1281 -3.358816728014219 1.4782377938836493 -2.5374507899428753
1764 -3.5518916059589443 -8.1949668961606 0.8570183192032242
1973 1.576200382605643 13.713778897305126 -4.0353232025592725
1762 1.3820113172824255 8.596854073425579 0.08400283206123213
1256 1.0093135123658816 -3.367200503409565 -3.348015681822099
1531 1.6128344098439278 -1.3956595460275425 -1.2564309785754013
1557 -5.208932206129667 8.550299120084157 9.187192345384185
1233 2.0915092555904087 -1.245107878931406 2.3385233666128613
1985 -7.135099086355897 -9.212318715717549 -6.509101583807391
1757 0.35953659069104443 -1.1319883895966618 25.25745032854442
1758 -2.9150986750101167 -0.9584775539686862 0.3471692315108765
1804 14.000966740579598 12.986788083428701 9.627652123862173
1915 11.78224599237873 -27.91236038655134 -13.71987443099443
1916 32.11431703618085 17.062141709048152 -1.7337011202530803
1917 0.42130468607919763 4.857052980029381 1.2972093384715164
1718 -9.15673244736559 9.868645849439213 21.809542557503587
819 6.578872579637083 2.120316642275875 0.32839903475534615
1972 39.01204162905519 18.594216293403523 20.012400423245282
1974 -4.036320584469213 -1.941620896646091 2.9517077621643817
826 -7.8686729839878 -10.471981320077902 7.712253697182561
684 5.430863521386095 -3.980843847181712 -2.093262984591422
472 -8.009159240626156 -7.9082563827466545 4.375242437842187
1895 27.25842442497907 31.629621539532938 3.9013925691913647
742 -6.566420663220902 -3.323390945996829 -0.9633850883343281
1532 -0.7293127280373934 3.1816666972118974 -18.692432059965697
882 -0.13751630662490935 -1.2016928991894393 -1.624096233000638
818 -6.789072170422949 -1.4291864607047882 -19.7894215085313
1356 7.460955933528634 1.7374983307481506 -6.111693847955248
1231 -18.440132934892084 4.878441007992206 9.098536982894604
1043 -11.529402999762073 -6.545817692872875 18.66731513766876
1579 -4.66935311790609 -24.675696297623748 -7.484123243514016
1533 -1.308735085535384 -0.07553519782850525 -6.891234250638531
904 16.958754405297707 -1.0083589678061795 -17.356755365457886
906 5.18618653145668 5.021891443420917 -2.9932719973574553
905 1.5042672544154583 15.054537957278296 0.9326760646653581
881 -18.62213992678098 12.847807225285274 18.319763123111468
1232 -9.652892956804608 -7.198357734573654 -5.255372722320742
1042 -17.8476087595684 24.345599611440477 -15.442530289024985
1787 16.030113050506063 15.844445067692437 -10.718988522408504
1584 6.626274198932403 -4.2943232377218745 -0.1402665829095302
1582 16.328133600735605 2.159992983995997 -11.299078158481908
1583 8.726534253084328 2.285738596146422 -3.119197513781809
1717 4.0621211573149605 5.877446888622113 -0.20119562530288254
922 -21.661593586466246 -0.43178871737234376 30.010616227763396
916 -3.858909690409773 5.710090267304175 22.012535377102836
1079 -8.072252916318565 3.9382893930268192 -5.809302732239413
1259 -6.325418676235774 -6.119072616408108 7.574010594440103
1260 3.169368765760894 -5.269628245726213 -1.0006052733409017
923 0.638873274896782 5.934178718734475 14.214598534745804
1078 31.474836861450594 4.800220943795977 -8.115226390707933
1080 -6.466257670219432 -2.6595197914234574 -1.2714295310576318
1258 9.430819026232626 7.609386687123615 0.3522160296767257
1719 -0.3259356154074405 -1.971532500576598 3.114880523084394
817 -1.7577166498627257 -10.120053331054967 8.535679438717517
782 -3.774902613148774 2.483001873983661 -3.845337757115117
1355 -15.979907634648136 3.761603996807301 -0.8782905714178508
1702 -8.255489345376436 8.116384213041744 25.451940337829225
1243 -4.399879670723865 -2.210047499785722 8.606767212614836
1167 -2.4774281447715687 -1.4152705086632675 5.007698386704304
1092 -4.968859144385317 -1.3384425535395374 2.6773410969639957
1091 12.632703546469871 -1.0901118530444789 6.988688403182902
242 -5.022919787406626 3.822153196975418 -0.8121165215585954
243 -17.038173783206393 25.340288218429826 -0.5698691510517077
783 -20.196270572052125 11.665030200698533 -8.39184589505544
784 7.450118983683086 5.673051563768831 -5.352330440307797
810 9.185684578089488 -1.6738870116739495 11.024885461921398
244 10.756786028773162 22.548337671255116 -6.542942200176493
1896 -2.218735145723457 -4.768414912025933 -6.0474493249390795
270 -13.889444493219191 5.529896036899325 3.052185538138093
951 4.699475196828875 1.4934696302170862 -1.1901948027993847
897 -4.070630583737372 -0.9918081309939075 10.518046409544953
949 -16.098549124173065 19.034035111905933 -13.724510893828077
1786 -12.10904493709964 7.030953558489731 -18.17841080147502
1788 4.624361528661585 -0.019241460957896233 6.852409044493096
