LAMMPS data file via write_data, version 2 Aug 2023, timestep = 2000, units = metal

2008 atoms
9 atom types

0.11659374618068163 20.420620253819425 xlo xhi
-0.06122338282279749 18.643918382822854 ylo yhi
0.7603692198110856 57.16323578018893 zlo zhi
8.239749637290442 0.2965243029720343 0.5648827658618404 xy xz yz

Masses

1 40.08
2 12.01
3 1.0078
4 1.0078
5 16
6 16
7 16
8 16
9 28.086

Atoms # atomic

271 9 3.479562521892107 1.9108443865558957 3.929743058813669 0 0 0
275 9 2.836376217528763 4.214323677431683 1.8934542152992606 0 0 0
292 6 3.1074231128625898 2.7405297842129706 2.5017880727855655 0 0 0
296 6 4.063674687826596 0.4859884740943019 3.3429422282935057 0 0 0
1615 3 4.256494114129152 0.6731200883351195 57.100651924764946 0 0 0
1617 5 11.560467456511384 19.14688862463001 56.97180780031864 0 -1 0
304 6 2.2012362841792585 1.3920922908279965 4.783811794621141 0 0 0
300 6 4.4692578032210974 2.8484379358191574 4.827237585213296 0 0 0
602 5 6.8143634824209 1.7766702175025748 2.4764612784185336 0 0 0
603 3 7.482080373704955 2.287851403749807 2.0148281466275337 0 0 0
604 3 7.161401864327195 0.8738672211430056 2.4883863417492433 0 0 0
586 6 7.187094993097391 4.391642528392829 4.591718436312677 0 0 0
582 6 8.835050281508599 5.215904655169034 2.480277888945314 0 0 0
1322 3 7.202329855830405 5.94834218416525 55.67967271792885 0 0 -1
557 1 6.730558903061065 2.23140956911992 5.255293888698954 0 0 0
574 6 9.087940933719015 1.3373413918736579 5.036646099274044 0 0 0
545 9 10.028979264009863 4.153127632826843 2.187251923910515 0 0 0
562 6 9.746116064290625 2.7030993946372637 2.8388535566556046 0 0 0
62 5 13.367413696446294 2.51974693962672 2.6852194121404054 0 0 0
64 3 13.446169953989234 1.672437740180979 2.1916147677278586 0 0 0
541 9 10.334940282514035 1.9556842801988519 4.235994861053371 0 0 0
566 6 11.231257677976341 0.791168361424542 3.4430635293755976 0 0 0
570 6 11.342474268746361 2.8664872648186313 5.187714756429324 0 0 0
1324 3 12.135825636562457 1.9623246799555711 56.01963132727806 0 0 -1
17 1 13.573973393152269 2.231091960788449 5.149800847507125 0 0 0
46 6 13.822064241900858 4.553840058885234 4.896919989829079 0 0 0
1022 3 13.659030967488828 6.014538024079059 55.926840645178444 0 0 0
63 3 14.20589170597241 2.980261569420406 2.502267797808306 0 0 0
1 9 16.963371688188715 1.95015377568985 3.9911720510964908 0 0 0
5 9 16.487439811515834 4.288614047242132 2.023379250828823 0 0 0
22 6 16.36819023928083 2.8494784253638064 2.6878488414641337 0 0 0
26 6 17.56231501219387 0.6250728415378672 3.2585139768471922 0 0 0
967 3 16.09192467849753 0.6396730417091361 0.9099441821414019 0 0 0
968 3 16.860523617225738 2.5179436497113796 56.75681913276881 0 0 0
30 6 17.99904524776099 2.789300371275719 4.846276527390097 0 0 0
34 6 15.77588706617812 1.5238117906342186 4.965902167973535 0 0 0
333 3 20.045321815484705 1.7216577885325228 1.5138752480889517 0 0 1
332 5 20.455377867109767 1.9469115202460423 2.392553180645179 0 0 1
334 3 0.9826269647395172 1.507842109527771 2.355800026589418 1 0 1
316 6 20.399013361287317 4.63050964320835 4.6612165685129305 0 0 0
287 1 20.400197466121078 2.4201286258603805 4.998803108675611 0 0 0
594 8 4.030410045280375 5.232973194489923 2.265542656381632 0 0 0
595 4 4.210532762000203 5.820946981700307 1.510509085270305 0 0 0
694 3 23.22002011893025 9.629805698427633 2.22383448817829 -1 0 0
556 1 4.694806992327873 5.320913036957918 4.755173010412358 0 0 0
152 5 9.053402603156588 8.544201774219022 2.2744239310214445 0 0 0
153 3 8.331568560424905 8.144498022201468 1.6780490689880638 0 0 0
549 9 8.05850066380517 5.531200340551616 3.9211962793309714 0 0 0
631 9 6.220046562165005 8.201497983217651 3.987504650607122 0 0 0
652 6 6.1263432658713235 8.803370329148281 2.461164500139772 0 0 0
656 6 6.915831289616104 6.73605391653716 3.6482985035617626 0 0 0
664 6 4.703180106426579 7.927469369891868 4.649743708601623 0 0 0
1286 3 8.58341374931638 6.604083903742482 56.75253669991761 0 0 0
660 6 7.125881578913517 9.033373263807858 5.073887063705504 0 0 0
680 6 9.108386100469211 6.11110973279123 5.045859116692045 0 0 0
107 1 9.368347312811053 8.506162880139666 5.265294733916341 0 0 0
54 8 11.439552772647355 4.842310924082891 2.829204655351816 0 0 0
55 4 12.190609849462614 4.140459980285725 2.7951745722196715 0 0 1
154 3 9.88518340592126 8.112490956944617 1.9462073190068558 0 0 0
91 9 12.882570630854625 8.094260341079522 4.031565792841577 0 0 0
112 6 12.270692287424298 8.693681033931425 2.6760001156423234 0 0 0
116 6 13.85352785849967 6.8528118400193065 3.514510039643867 0 0 0
124 6 11.678359622877355 7.550829739616018 4.9902731638525415 0 0 0
1981 3 13.431499855104992 7.428976059440413 0.8528322097759868 0 0 0
120 6 13.769833719452024 9.138422913983224 4.789128199754976 0 0 0
16 1 11.351997966575663 5.222018672128459 5.268731720597374 0 0 0
1982 3 14.752519620338832 6.948875046088084 1.2198316581036412 0 0 0
9 9 14.745069924983088 5.619995955307514 4.06949125829173 0 0 0
42 6 15.258581354396956 5.18887632527301 2.5059960123391365 0 0 0
324 8 17.879625053053225 5.055037659238752 2.7264569527422378 0 0 0
325 4 18.74772667565206 4.803682533527476 2.3320120395566866 0 0 0
422 5 16.254691060663475 8.202468023036754 2.2734821888158647 0 0 0
423 3 17.220978865163573 8.428863950277384 2.3047801226939955 0 0 0
424 3 15.920424105012577 9.01415604749799 1.7804104309759972 0 0 0
140 6 16.011664538570578 6.140333042988853 5.024753594989042 0 0 0
394 6 18.533300707426186 7.706515626834021 4.801255441683663 0 0 0
1972 3 19.88215299499634 7.339261407949489 0.9812871795749526 0 0 1
382 6 19.04069857843121 8.887883565579324 2.393030168060248 0 0 0
286 1 18.005150667537222 5.332350326409413 5.218715804172386 0 0 0
279 9 21.27168736990682 5.643108316616576 3.707439416710882 0 0 0
312 6 21.7475448704757 4.950698240266681 2.2704912091949074 0 0 0
361 9 19.719866467423678 8.204682840697084 3.808013693651057 0 0 0
386 6 20.541053663949228 6.935272804669557 3.115650471549042 0 0 0
390 6 20.64453821664955 9.124780517534548 4.792324229253446 0 0 0
692 5 22.747921210701172 8.770412872650198 2.3120066040034097 0 0 0
693 3 22.560994433967643 8.552846134556615 1.3866048192038352 0 0 0
1555 3 22.23738665260921 8.107061545917931 55.95688407672394 0 0 0
410 6 22.6179482245906 6.103961176669391 4.613806326374373 0 0 0
647 1 22.889968770014704 8.5105974598037 4.837396955876485 0 0 0
144 8 7.483065272439701 11.007315511049402 2.8404988500241113 0 0 0
145 4 8.276718720432065 11.20063098066891 2.3447032489138735 0 0 0
635 9 6.143627850613504 10.377132601615973 2.0253235071345044 0 0 0
1043 3 9.722107403370286 12.977795466377332 56.759745416940305 0 0 -1
1044 5 10.174392386779498 13.819110473813847 56.884799170680196 1 0 0
1042 3 10.236566009159423 12.98804290528067 1.324508713225256 0 0 1
214 6 7.661707778064388 13.909654182200141 5.039963332663873 0 0 0
106 1 7.441604469418694 11.498441329365665 5.392247767214523 0 0 0
136 6 9.722666490564436 10.857066218356186 5.012883850784655 0 0 0
95 9 12.111207921578252 10.168448784554517 2.0635565986048765 0 0 0
99 9 10.579117808301259 11.952943901174837 4.074303320518229 0 0 0
132 6 10.949310502231045 11.02511970277288 2.7728817908994956 0 0 0
206 6 9.683701094868534 13.146940449340763 3.440351914160034 0 0 0
414 8 13.580035728196025 11.021554667262693 2.2169007093916453 0 0 0
415 4 13.726018662278866 11.857895890610191 1.669503389092093 0 0 0
514 3 11.304700071930638 15.235696422495364 2.5308771471853304 0 0 0
1490 3 14.703586162727909 14.066506062333254 56.1698891898333 0 0 0
484 6 14.555112882861804 14.012481820263012 4.888115760195514 0 0 0
230 6 11.846614491708372 12.504052354624132 4.861650763096058 0 0 0
376 1 14.126833533984444 11.459585898417851 4.829473944135399 0 0 0
1491 5 15.087369817026348 13.39865709229956 56.886795466740566 0 0 0
365 9 19.066170853707554 10.381472702381425 1.726622451190154 0 0 0
369 9 17.33085204658895 11.729038966642435 3.7985534796118667 0 0 0
402 6 17.80274793817297 11.132610983237155 2.31345968561448 0 0 0
476 6 16.505681784436895 13.105175481723245 3.165928318209814 0 0 0
1489 3 15.299240704227946 13.453938931601874 1.0242210925604383 0 0 1
818 3 19.130677635475273 17.046476229162437 55.86062993104562 0 0 -1
406 6 16.39706812556973 10.854104232107888 4.699082487969006 0 0 0
500 6 18.655557885659427 12.302799112379034 4.585984000512703 0 0 0
684 8 20.372641959401378 11.344300032997099 2.052603774228804 0 0 0
685 4 21.18639809256797 10.741504636682325 1.9748767766350739 0 0 0
746 6 23.593011433336287 13.271110479319841 3.341329387545194 0 0 0
676 6 23.19736857969533 10.844761336831786 4.541348525279419 0 0 0
754 6 21.276547840212473 13.943030825757866 4.764943549732263 0 0 0
646 1 20.869843358589378 11.723759455791905 4.84995631430783 0 0 0
639 9 24.348273529180886 11.892580394996939 3.869633659521146 0 0 0
672 6 25.08507025808646 11.172458766783974 2.5103206661283592 0 0 0
1895 3 24.824730954390063 14.379371430782292 1.8421370131629482 0 0 1
770 6 25.50081361508917 12.172995731746996 5.021498254893937 0 0 0
181 9 8.87171503792814 14.473178879254885 4.068299526669035 0 0 0
185 9 8.55234501117992 16.858428886393447 2.042934322955797 0 0 0
202 6 8.44642012511996 15.340786043498008 2.7312043647744364 0 0 0
512 5 12.011300706349454 14.784817293423494 2.878062331229896 0 0 0
513 3 12.753559231205328 14.778590934166541 2.2959232447255555 0 0 0
459 9 13.339012464917428 18.109134134141065 3.9341083365966556 0 0 0
492 6 13.82531082294099 17.401749262760376 2.526360578556239 0 0 0
504 8 9.82204575284452 17.673117884960725 2.6101791492723443 0 0 0
505 4 10.408016575524336 18.111308889136083 1.9469883227924782 0 0 0
210 6 9.941648412801335 15.36751075369152 4.908238156575238 0 0 0
466 1 10.216760710750505 17.820096275648325 5.01289580538254 0 0 0
496 6 12.558298797335542 17.090416931252435 4.923488966813627 0 0 0
467 1 12.264077496648556 14.75961858574409 5.131715353649791 0 0 0
451 9 15.679463020272042 14.416341343756118 3.811735637418143 0 0 0
1355 3 18.708777068064457 14.832497162791705 1.2683455995903046 0 0 0
1356 5 18.720624891898026 14.350998933911667 2.0922208589072055 0 0 0
455 9 15.070731295027503 16.63705760787247 1.869856287306147 0 0 0
472 6 15.117581509151487 15.12109775838936 2.4363187368254144 0 0 0
774 8 16.360927360574358 17.65527520016701 2.3394864491034317 0 0 0
775 4 17.26003367124953 17.439854323643907 2.117706878511515 0 0 0
1090 3 19.857276296671444 18.792852803972515 57.147069332915095 0 0 -1
1092 5 11.36235792859269 0.5501422426239282 56.35247343121635 0 1 0
320 6 14.658718487550544 18.61332478173518 4.6433404615375675 0 0 0
766 6 19.400783813217515 17.07279970573991 4.6796677192790135 0 0 0
480 6 16.72334222718049 15.405377193277804 4.570714193961582 0 0 0
736 1 16.94164673967603 17.69406417964497 4.9715232281286275 0 0 0
737 1 19.144041177841736 14.711173344316917 4.77923158107846 0 0 0
1354 3 18.30338655004084 13.527638893936821 1.8594847957928744 0 0 0
234 8 23.12322130201742 17.393968894480828 1.3214851447712777 0 0 0
721 9 22.58916769891637 14.519858887603267 3.9472768704301235 0 0 0
725 9 21.69748697014265 16.619487859339074 1.65384178427116 0 0 0
729 9 20.29543503143806 18.185082589653014 3.9299243038049694 0 0 0
742 6 22.200222556341267 15.445201833653728 2.7111799424639083 0 0 0
762 6 20.681049205670988 17.569622469734348 2.3968210397778345 0 0 0
196 1 23.869800816149386 17.722972480439473 5.169080572282853 0 0 0
590 6 21.646122993002386 18.560124198604925 4.725137528495571 0 0 0
750 6 23.49874998419478 15.376731496132802 4.931498325417536 0 0 0
189 9 26.921678862760857 18.187920207870178 3.807611576832742 0 0 0
222 6 27.46052618700645 17.628615126248206 2.335625569665879 0 0 0
226 6 26.190064544464754 17.10579429793645 4.69683165520062 0 0 0
1894 3 24.683291068339393 15.800221021998272 1.7827423414335275 0 0 1
1896 5 25.31696945968958 15.151641951824818 2.091307119001587 0 0 1
50 6 19.857587124221865 0.11175082019987959 4.741584367896329 0 1 0
197 1 25.83947573440303 14.704980261260731 5.183915913891475 0 0 0
283 1 3.23442717574168 2.099144214808773 6.996691873163111 0 0 0
577 6 3.5176448730053904 4.5117395160041305 7.413098450001992 0 0 0
303 6 11.274454718672732 18.544296407418344 7.2621711187126134 0 0 0
330 8 3.0689198425063173 1.8443834953816687 9.622465284512671 0 0 0
331 4 3.250063145667521 2.759136437448526 10.030533225144804 0 0 0
552 9 6.501538931737288 2.519751399785406 8.22685734188123 0 0 0
569 6 5.601886581311389 3.7833981804914876 8.79247087973292 0 0 0
589 6 5.493152982061619 1.6064431061128854 7.4468418926584885 0 0 0
593 6 7.790102948553739 2.9824495900380037 7.331322598347698 0 0 0
585 6 7.116299881615002 1.7965873590052939 9.572567701942866 0 0 0
612 3 8.219026927043393 4.5780637296805375 9.679760935971286 0 0 0
12 9 13.172741898883196 2.2686586743032437 8.342755479037574 0 0 0
29 6 12.146780976011037 3.5568376621602953 8.72130577594366 0 0 0
37 6 10.166634852599273 4.632846876931905 7.50558336696831 0 0 0
45 6 13.50250226437901 1.6424877294361675 9.911254934045328 0 0 0
49 6 12.265357330337226 1.2137543887341227 7.4663058495278625 0 0 0
553 1 10.1174616373866 2.073743440352792 7.426394053182693 0 0 0
13 1 16.75051832922822 2.074914278506589 7.170941736558049 0 0 0
25 6 15.675472288910248 0.28928938255765146 9.31105027912239 0 0 0
53 6 14.492740025362693 2.9517868653079216 7.649565464056566 0 0 0
307 6 17.07889877756304 4.476074174789022 7.447935256162045 0 0 0
299 6 19.43280740005904 3.9748340023059443 8.974214179398697 0 0 0
72 3 14.303547754106066 4.255571371354509 9.47070603011788 0 0 0
319 6 18.979233969323744 1.4877753126842803 7.650352372733232 0 0 0
282 9 20.05310072355747 2.463404461743633 8.377374217745736 0 0 0
323 6 21.254962417221506 3.0077609230964817 7.2851909048529055 0 0 0
315 6 20.653660830137582 1.8805073410877946 9.856433469305141 0 0 0
655 6 4.518824080943477 5.978843549241508 9.488900292410442 0 0 0
613 3 7.280370820181297 5.655607565909161 10.018738835882408 0 0 0
544 9 4.857014027534342 5.096271385029292 8.132387575568535 0 0 0
611 5 7.9849366458578395 5.468081484395065 9.4194651793736 0 0 0
102 9 9.220276835053104 8.697526981342705 8.415947032013598 0 0 0
139 6 8.158029813303964 7.817518984023904 7.73449531041448 0 0 0
560 1 7.996481398761606 5.343437915502766 7.066097118504441 0 0 0
643 1 5.894569073196861 8.43870975603435 7.01414836441974 0 0 0
663 6 5.711100579707989 5.923747033789125 6.976055298255468 0 0 0
690 8 5.610595548026096 8.366132122267365 9.333321522682983 0 0 0
4 9 11.543565908727066 4.96040178153524 8.270807759548717 0 0 0
103 1 12.500542494340172 8.586791747073917 6.999328403170745 0 0 0
115 6 11.38253759855059 5.894416103861929 9.70441514551803 0 0 0
123 6 12.525554281346276 5.733094308001959 7.218662779615882 0 0 0
150 8 12.624138744312488 8.231670162759002 9.537851241695844 0 0 0
143 6 10.41035537050436 9.243256779614738 7.2796241202472824 0 0 0
135 6 9.881381299538933 8.213545958447076 9.830854470606146 0 0 0
98 9 11.260533871802785 7.413487717929417 10.317482424152768 0 0 0
151 4 12.972360820343402 8.967357410653104 10.077572863951882 0 0 0
71 5 14.648463789314949 5.147961060836542 9.67131254043726 0 0 0
377 1 16.245559239524262 8.440423175260728 5.083593254399465 0 0 0
20 1 14.815989637851095 5.6152387862618225 7.195703060391372 0 0 0
274 9 18.339965606116863 5.117214885628253 8.303523728315461 0 0 0
372 9 15.9820565110133 8.911151968223502 8.290935322625483 0 0 0
409 6 15.074631512369049 7.862081629193853 7.366661769067083 0 0 0
413 6 17.292209968036282 9.214096259987626 7.309951530845654 0 0 0
73 3 15.519071477843305 4.895945819018865 10.16751540609056 0 0 0
385 6 17.929401792479915 5.89419905796709 9.741983163945065 0 0 0
420 8 19.092758794800872 8.236023562676538 9.713665713995269 0 0 0
405 6 16.39319298446167 8.076033619408124 9.657958032469473 0 0 0
393 6 19.24718375210579 6.072684283341587 7.305831689093384 0 0 0
290 1 21.65754189883502 5.391885952154394 6.686587745918592 0 0 0
373 1 19.703973428195248 8.568604785868555 7.132125550623932 0 0 0
642 9 22.863605785259956 8.726197012279215 8.00868281465262 0 0 0
675 6 23.257643465523273 8.089872055789348 9.491703181429205 0 0 0
679 6 22.033530194522065 7.583655337381345 7.022014954023483 0 0 0
683 6 24.07316239915248 9.446410639124498 7.2457729641468465 0 0 0
94 9 7.625406353043084 11.345300113805646 8.414690388487834 0 0 0
119 6 8.612812350607456 10.173621467806033 8.99570277931862 0 0 0
127 6 6.406042390500986 10.834934385841041 7.542172662788592 0 0 0
213 6 8.515149512543122 12.318449419143695 7.508912715979406 0 0 0
205 6 7.049876157987194 12.071070089416201 9.78929822913308 0 0 0
110 1 10.80847249746588 11.742739810358398 7.441393406348037 0 0 0
397 6 12.961324789752261 10.917098815323422 7.53073417530528 0 0 0
475 6 14.213008829395974 12.18619966451927 9.795365573736923 0 0 0
364 9 14.31654092132699 11.491922395366066 8.290567462467234 0 0 0
499 6 11.001889302774442 14.022874623998918 7.414783897516632 0 0 0
163 3 11.824280303709841 11.532094178511167 10.379097694121382 0 0 0
161 5 10.917686306833016 11.756098820012932 10.00308407988542 0 0 0
495 6 12.754515140935569 14.492735124848595 9.57606935611928 0 0 0
380 1 17.719090690479383 11.59487660725473 6.970185240127537 0 0 0
389 6 15.190868424186233 10.194518712381221 8.840292283182661 0 0 0
483 6 15.228914763593231 12.481400286611063 7.331720122144201 0 0 0
431 5 17.543141208596985 11.701846429106427 9.684391232398669 0 0 0
769 6 17.78852605143711 13.918539915766928 7.136173066721778 0 0 0
433 3 16.600385596109376 12.064649472742934 9.81589109334093 0 0 0
634 9 21.2315690430923 11.391238445600838 7.9900561922527285 0 0 0
659 6 21.690452723797016 9.843234647003811 8.382733437412497 0 0 0
667 6 19.973765452802077 11.066981459562475 7.086037698959402 0 0 0
753 6 22.32830767408027 12.3961497868683 7.306705039989455 0 0 0
765 6 19.299948688703275 14.104535667895677 9.343447321258164 0 0 0
745 6 20.85567123506292 11.987619348286369 9.487189213749154 0 0 0
702 3 23.262709602751734 12.346940367167774 9.24655779838801 -1 0 0
701 5 24.053267915787103 12.080935436281422 9.760753166266625 0 0 0
650 1 24.614491559876605 11.615252836497906 7.2316792384777 0 0 0
229 6 24.613583278498552 14.231370694801514 7.2982803394187785 0 0 0
225 6 25.944426756881533 14.102258054871784 9.709891078659709 0 0 0
193 1 8.827062916257471 14.549630378784322 7.106054090713177 0 0 0
487 6 9.164963918745803 17.002149479224393 7.381932069199219 0 0 0
240 8 8.42258053305311 14.339357378744422 9.82788130896621 0 0 0
295 6 9.891198354614154 18.341530179418413 9.670483187370124 0 0 0
454 9 10.35596900995292 17.569267079170245 8.200992091523208 0 0 0
462 9 12.082622577039345 15.036205460279078 8.137329801496797 0 0 0
470 1 13.629460457809612 17.872708298777198 7.097506996623031 0 0 0
479 6 11.152731679814474 16.25694756683567 8.712510209556378 0 0 0
503 6 13.290295183940904 15.47855290204096 7.149332448418556 0 0 0
463 1 15.471827824919425 14.784652273868845 6.958232301543349 0 0 0
573 6 18.240684817251086 18.374118915502073 7.378469987107648 0 0 0
724 9 17.173964151350617 17.464660792170335 8.122105605929555 0 0 0
732 9 18.759418002736368 14.898082821873956 8.030673258047004 0 0 0
749 6 17.8837324375547 16.084719281169463 8.673760228076379 0 0 0
757 6 15.9116952653785 17.17563593769703 7.120524110662034 0 0 0
510 8 15.431499572182153 14.668738623001635 9.477122643568741 0 0 0
565 6 16.48296059624436 18.13226176056004 9.520182787603561 0 0 0
511 4 16.36124739484206 14.389423106862273 9.328857651863117 0 0 0
217 6 22.75973509107567 17.132487276009385 7.439360063748799 0 0 0
733 1 22.346089666606993 14.899055196315528 7.130969027705727 0 0 0
740 1 20.399597081309416 17.805352682026573 7.041315638366934 0 0 0
773 6 20.00402184627059 15.427671033570423 7.19129366859241 0 0 0
781 4 22.57950091289753 14.532880237708934 10.39366757975081 0 0 0
780 8 21.948340393645246 14.507145726860124 9.575075051003525 0 0 0
791 5 20.757660473494084 17.1239690590465 9.843927156234624 0 0 0
184 9 24.057099944177487 17.688534696957525 8.19368125789033 0 0 0
33 6 24.998464493404093 18.438257091729824 7.150220947992877 0 0 0
192 9 25.590048167212387 15.017954542992475 8.319521869054423 0 0 0
200 1 27.224592421382162 17.87390669415965 6.893907911531304 0 0 0
209 6 24.821106951844598 16.40901926449731 8.9338205824493 0 0 0
233 6 26.98813424283655 15.461190705093928 7.565831660653208 0 0 0
278 9 1.7927833114219407 1.1644810968377255 10.346513741630613 0 0 0
310 6 1.8190942443389335 1.2278928595817766 11.940576647622034 0 0 0
353 5 4.468941047416038 0.8150141388102656 12.875123308660523 0 0 0
355 3 3.482206718998874 1.122247738419693 12.561929140472387 0 0 0
614 5 4.619954553029295 3.6797270573332432 11.251654551892248 0 0 0
354 3 4.391645156026957 0.7528239795362852 13.820479168544376 0 1 0
615 3 4.553227188372874 4.447028275035218 11.78570582279779 0 0 0
616 3 4.779908419357951 3.8521710764653116 10.312205088108064 0 0 0
81 3 7.2699109875711 5.192071870510685 12.238946799657707 0 0 0
82 3 8.425556675735228 4.136083570822536 12.847502014877133 0 0 0
548 9 8.242559429250248 0.9025474659473168 10.339237001132105 0 0 0
561 1 6.321827672691806 2.1872314421829224 12.36800804125529 0 0 0
580 6 7.899159650364901 0.6520951757589859 11.85671691921221 0 0 0
600 8 9.712063035697364 1.657151855415503 9.871229131913747 0 0 0
620 5 7.66414720270615 4.235204163448441 12.222103328907641 0 0 0
581 6 6.287523343032698 2.471820704688829 14.572566458248184 0 0 0
74 5 13.12579616893044 3.9920196430529415 12.496244888157413 0 0 0
76 3 13.314342898954166 3.2982589055000773 13.200333876395737 0 0 0
86 5 9.725190018548403 3.4350176196561466 13.76119701509877 0 0 0
87 3 10.255734414750929 4.240829416648845 13.929701919803835 0 0 0
601 4 10.312182743444621 1.718064321169456 10.695907605104178 0 0 0
75 3 12.74661088677709 3.4783720766825117 11.733095563737809 0 0 0
88 3 10.374020350715837 2.8042998916594977 13.561078416046474 0 0 0
61 4 15.459470353529829 2.5243449076722464 11.990969008818182 0 0 0
168 3 10.512968308765693 6.363516053528623 14.802547113936292 0 0 0
352 3 15.726886878112316 0.9472634504799897 14.773823110847447 0 0 0
8 9 14.829401405817466 0.8554804022873326 10.536152411269164 0 0 0
60 8 15.783619418801074 2.0375382867283798 11.184703180793115 0 0 0
80 5 24.26567399207228 18.69057035350606 14.876225381054612 0 -1 0
83 5 18.558985632956983 1.46997111023541 12.177736905771338 0 0 0
84 3 19.161394801122178 2.0181209420799333 11.634624036652442 0 0 0
344 5 18.03360907276545 4.631483892123121 12.248274729835195 0 0 0
345 3 18.42711815063724 3.7962385074615868 12.630584017301539 0 0 0
85 3 17.696331475324378 1.521302728035085 11.757504653397879 0 1 0
346 3 18.389312022404155 4.85794701720714 11.325162350181518 0 0 0
351 3 24.345869527892923 18.4834588397731 15.759867778550452 0 -1 0
174 3 14.708610588757693 4.4029511582765695 14.69473588075655 0 0 0
358 3 16.760079214082047 3.639401495538873 14.765912669490058 0 0 0
622 3 21.249522516749245 3.19281727958096 11.704873269240752 0 0 0
291 1 20.58959625239725 0.4523948151477246 13.4056936358014 0 0 0
350 5 20.838824848459453 3.794669672247971 12.417062877191192 0 0 0
621 3 20.728395801297907 3.221980690026209 13.353635261666932 0 0 0
311 6 20.467129519831545 2.4123712350989206 14.542540762337484 0 0 0
638 9 4.404582291826741 7.473940069048678 10.112171359746728 0 0 0
670 6 4.384705596174993 7.549033646066293 11.702310533697219 0 0 0
804 3 4.7024961680718596 9.321678163004997 11.791597802091154 1 0 0
708 3 21.856419884358495 4.916091646760601 13.43559635370809 0 0 0
709 3 2.972769223216069 5.215874528636612 14.223717346565554 1 0 0
707 5 22.330379276342534 5.487496966159412 14.106892798247932 0 0 0
628 3 5.0177254217139176 3.7729894725979944 14.486506750856869 0 0 0
176 5 9.316518999372574 7.133439607135463 13.541984226354634 0 0 0
177 3 9.337205348438687 8.084863158960353 13.771721278950453 0 0 0
691 4 5.882830104395713 9.230224470648373 9.767232621922021 0 0 0
713 5 6.944275030219963 6.841623501604508 12.02458936976297 0 0 0
714 3 5.994371251753383 7.112128412379001 12.190047634509295 0 0 0
715 3 7.508855300571197 7.067959068106314 12.81421589908232 0 0 0
699 3 4.915155946079399 9.402183969215914 14.428893059781476 0 0 0
172 3 9.207810213681604 10.138595984315787 12.95102833254643 0 0 0
178 3 10.169350380178125 7.163775119409606 12.782573232087223 0 0 0
111 1 12.925984254521001 6.4647381146222065 13.197479519311885 0 0 0
130 6 11.352876220591835 7.386227361134131 11.893458363448188 0 0 0
159 3 13.22391347809146 8.537084764563525 15.172431385784654 0 0 0
160 3 11.782660209997958 8.81498391921586 14.499476789048673 0 0 0
436 3 14.089848187502714 6.802691111363991 10.913164211677081 0 0 0
173 5 14.620952978960892 5.47210599009808 14.53973123282355 0 0 0
368 9 17.780713726189553 7.437161852365449 10.285052969262575 0 0 0
381 1 16.918016101517168 6.424626760127669 13.589716257011688 0 0 0
400 6 17.808424160738525 7.590872710759843 11.936150841277678 0 0 0
434 5 14.39164862232777 7.263525370657323 11.72096465576827 0 0 0
435 3 14.9247320772263 8.024807741337106 11.41437047707506 0 0 0
447 3 15.228530194793883 9.352579002641095 13.58287921783163 0 0 0
446 5 15.126888929040497 9.785058641898386 12.68521848025794 0 0 0
401 6 15.724055389264095 8.096985200871421 14.599842417010704 0 0 0
437 5 18.94824555604366 6.7496347231011855 14.645467813979453 0 0 0
421 4 19.945258619724086 8.110664398759715 10.141307085407908 0 0 0
341 5 20.87928860943044 6.806734355522149 11.911399148873246 0 0 0
342 3 19.913734091476307 7.127928373458209 12.204656470107844 0 0 0
343 3 20.906876125171458 5.818944639962533 12.016859488685112 0 0 0
651 1 22.705142692754464 7.928447305235923 12.965130811840906 0 0 0
445 3 19.725805246100634 9.42818217207475 13.319094941443787 0 0 0
443 5 20.56200076421068 9.114835182836423 13.808057944859922 0 0 0
438 3 19.506130966017594 7.52503966383569 14.427605464640823 0 0 0
671 6 23.621463286843593 9.041675736517355 14.599546926280292 0 0 0
698 5 5.977395488236218 9.445476234262287 14.455834342786021 0 0 0
803 5 4.983031163690225 10.23392945296418 11.515260661212748 1 0 0
171 3 8.71035552643059 9.708362956129292 11.52480117195969 0 0 0
188 9 7.02136474803997 13.611816879361777 10.440641555924328 0 0 0
201 1 6.405824215212246 11.452255989130373 12.926082882581081 0 0 0
220 6 6.732989109198301 13.535272238732446 12.017634447475261 0 0 0
710 5 8.62450416489891 10.41738065096369 12.220255850382397 0 0 0
531 3 9.647453741275536 14.76270439302586 12.51452329417576 0 0 0
532 3 8.037542992213947 14.37905386671523 12.578208861113092 0 0 0
258 3 9.003499640898738 12.167339727243425 14.54625810399197 0 0 0
441 3 13.59902948412347 10.6963892764661 11.91919193167034 0 0 0
442 3 12.406934297649004 10.152522647725643 12.529376213347179 0 0 0
162 3 10.265333126414978 11.152507326348262 10.44196426340419 0 0 0
170 5 12.646296804050476 10.927386902302244 11.987183533229123 0 0 0
164 5 10.909042340549696 13.991022044670201 11.767479719051977 0 0 0
165 3 10.541374402808895 13.281053597025654 11.165653112644254 0 0 0
458 9 14.192043048406836 13.7956037608911 10.21043787697776 0 0 0
471 1 12.655335744756874 13.04908723236544 13.226555599878132 0 0 0
490 6 14.058763714174518 13.958821128151431 11.786242080904808 0 0 0
166 3 11.548409090295843 14.616315880911978 11.298211420749775 0 0 0
527 5 14.346939965166955 12.144876314358791 14.790765010123222 0 0 0
717 3 18.00382265788459 9.52708883632701 11.984287778285603 0 0 0
448 3 16.02119667759772 10.217166054098675 12.535196128562513 0 0 0
440 5 16.46022046966872 12.924469978405655 13.154635058827937 0 0 0
711 3 15.76358049447122 13.246313002644996 12.511887320134187 0 0 0
712 3 15.866814330718263 12.638439788252944 13.86223482348111 0 0 0
716 5 18.176244576088685 10.478445298551211 12.192319732463304 0 0 0
432 3 18.063165242194742 12.50230196473629 9.38735027512279 0 0 0
741 1 18.88220351060739 13.028100343971094 13.052736094231284 0 0 0
794 5 17.814129386600065 14.79733972680072 11.685484885329297 0 0 0
795 3 17.176931242719213 15.43185689277296 12.130694335770578 0 0 0
704 5 22.467551560269776 9.964330016306992 11.680190045405164 0 0 0
706 3 22.118117151223395 9.875849126998297 10.782104258374705 0 0 0
718 3 18.10809436770043 10.906094526850488 11.32435918494537 0 0 0
705 3 22.18341659136844 10.818552908892926 12.012148032222953 0 0 0
728 9 20.66298314443099 13.520674648274138 10.0376139238898 0 0 0
760 6 20.525149495337068 13.44978896810264 11.572467083075585 0 0 0
256 3 24.123153181230755 14.082442889651428 12.126828464856976 0 0 0
797 5 21.16964155344867 12.223117974099795 14.010877095124329 0 0 0
799 3 21.663215304787713 13.060823970149247 13.90233350643984 0 0 0
703 3 24.62938978523909 12.877417396025864 9.838832876279069 -1 0 0
266 5 24.707355773348297 12.364266479565233 14.033146126609761 0 0 0
268 3 24.28545617329346 11.944733542608178 14.813234259188423 0 0 0
805 3 24.4930937794581 10.517498850432716 11.081883279105563 0 0 0
267 3 24.7770292034268 13.346113465098515 14.252340644547482 0 0 0
241 4 9.038268146435321 14.86683177484093 10.361369669722524 0 0 0
252 3 8.2635378354036 16.576419896489654 12.056549027090798 0 0 0
260 5 8.723730558557978 15.07750705051665 12.83994185011546 0 0 0
251 5 8.120972339548075 17.512902494223326 11.746202136270865 0 0 0
253 3 8.648766395236429 17.776529041293543 10.897748150825569 0 0 0
349 3 10.239700765616988 16.814785093095026 14.405546403705145 0 0 0
522 3 13.052460500810243 17.040380568617337 10.275011095764988 0 0 0
521 5 13.67891562413697 17.445348717781307 9.61818549240178 0 0 0
523 3 14.495882094475071 16.93958045575655 9.755313285348455 0 0 0
536 5 12.802929112931514 16.551944978626253 12.427739234218098 0 0 0
537 3 12.506291350467558 16.050583536241447 13.283042805850426 0 0 0
538 3 12.548822764712085 17.472885996518855 12.652414388452714 0 0 0
347 5 10.140411735545994 17.762184246867214 14.46660736594391 0 0 0
491 6 12.387580510114166 14.840701070399646 14.499394591360744 0 0 0
525 3 14.50011138356104 17.642424793782453 14.212948839528593 0 0 0
530 5 15.583255501092896 16.855069538911806 12.645961674557002 0 0 0
796 3 18.4011980876751 15.417481666118148 11.253265083532776 0 0 0
801 3 15.794721644316237 17.787506578499787 12.160467468749593 0 0 0
802 3 14.793005569944777 16.528032324970233 12.162036401281618 0 0 0
806 5 18.468042869217854 17.562650818175285 13.645635701308104 0 0 0
807 3 17.92703997178203 16.8100142465007 13.933241140331633 0 0 0
808 3 17.73476336545381 18.152947134519287 13.470007096020138 0 0 0
524 5 14.008224968368015 17.952080638139314 14.975240466802124 0 0 0
623 5 11.674950923813526 1.6011602741758426 11.862856971996898 0 0 0
254 5 23.943145473029233 14.939340579000081 11.715043802468227 0 0 0
625 3 12.004473316380357 0.7564665637037997 12.224274194386497 0 1 0
624 3 12.266393162593502 1.6747338856361913 11.062500642952175 0 1 0
793 3 21.3322966935569 16.309619349464832 9.748261723295427 0 0 0
21 1 23.281391172071757 16.990170028472185 13.281385590904256 0 0 0
40 6 22.480786858141954 18.468007318354445 11.613725544674718 0 0 0
261 3 21.153335718678157 15.193318055905566 12.275363197035546 0 0 0
262 3 20.545488753114995 15.514958751256257 13.76491542610788 0 0 0
792 3 21.30078128951712 17.652056695195206 10.517240527246996 0 0 0
800 5 21.229267563152902 15.750387962707627 13.103284080142394 0 0 0
761 6 19.24696924438446 14.700335891858671 14.465945671773374 0 0 0
255 3 24.819984337718807 14.989304313417344 11.26098255331566 0 0 0
77 5 25.560912131535254 16.92957895045417 11.903396844445506 0 0 0
78 3 26.35924513630016 17.19852051213566 12.450667418652897 0 0 0
79 3 25.760307466885777 17.415816901089528 11.062989318916626 0 0 0
221 6 24.78589095331968 14.847039913170597 14.718526430389463 0 0 0
273 9 0.6050493832566106 0.3105871963847583 18.018183933039186 0 0 0
302 6 1.6627993975610849 1.04002465875256 18.975883267360366 0 0 0
329 4 22.059808818223757 4.03281288707116 15.866983188143095 -1 0 0
338 5 3.6297938735509874 0.8340674122013206 16.54159333623396 0 0 0
339 3 3.272597090229423 1.7444496798858664 16.380901653857215 0 0 0
340 3 4.515133431837587 0.7967121460853532 16.193585750100347 0 0 0
588 6 4.119633143769371 3.054586134478346 18.762922407692162 0 0 0
284 1 1.9077474849028793 3.692555441971307 19.129316685845033 0 0 0
289 1 3.9209966645273098 0.624263715102155 19.044300213243957 0 0 0
328 8 21.76746906632065 3.4774641555891015 16.600899600435486 0 0 0
599 4 9.08664665421307 2.991966165416396 15.21325673070429 0 0 0
543 9 7.387416615287878 0.303002802893343 18.14388255411487 0 0 0
547 9 6.967950257984493 2.4754399095617488 16.014267142223257 0 0 0
551 9 5.149958871278716 4.151923753518345 18.101113665974854 0 0 0
564 6 6.690823805016635 0.9324792395772086 16.67558635164201 0 0 0
584 6 6.194445971192706 3.5851774174730466 16.95026500918996 0 0 0
598 8 8.587527666669352 2.7392952922530203 16.054801505196934 0 0 0
572 6 8.281692702909076 1.4206356683274155 18.956971112188324 0 0 0
576 6 14.48193843129912 18.467595171326032 19.139174645745612 0 -1 0
554 1 8.8823474390415 3.7738687482080704 19.02302297844692 0 0 0
682 6 6.1389874787527035 4.7533863028281065 19.28832783806097 0 0 0
7 9 14.160483881843252 2.8184178827958055 16.227127614682825 0 0 0
11 9 12.063955665029766 4.1579863202489395 18.123115199951936 0 0 0
44 6 12.721793180326138 3.522486566330728 16.742359967645093 0 0 0
48 6 11.023083771523616 2.9900215955952345 18.673602016494396 0 0 0
617 5 10.564448598544631 0.7032335185799002 16.53013690378834 0 0 0
618 3 9.763688083133937 0.29849170492943433 16.159898309066023 0 0 0
619 3 10.513612955287448 1.5794071882450624 16.19034981369667 0 1 0
142 6 13.10356167426956 4.6715997958718845 19.213849275729444 0 0 0
24 6 14.024752844679652 1.2849887577324226 16.782709185923853 0 0 0
41 6 14.541796941022042 2.9504191817421335 14.619635507612871 0 0 0
3 9 14.476055631090883 0.3903911667046433 18.141278802565004 0 0 0
559 1 10.932201707212402 0.6396025001094809 19.01126848125663 0 0 0
356 5 17.343684894109302 4.295759381309563 15.165546769332902 0 0 0
58 8 15.40321093310727 3.6621791614624906 17.00540511172085 0 0 0
59 4 16.125364554924296 4.099465466190796 16.490445979230834 0 0 0
318 6 17.72201883733789 2.960051908673732 19.108445293023696 0 0 0
281 9 18.682649293380045 4.001183708751592 18.213136194000104 0 0 0
32 6 15.322276500221806 1.258233686141431 19.18476569746764 0 0 0
357 3 18.059952619480917 3.7681404151236113 15.570859736968853 0 0 0
277 9 20.47389254353329 2.6022371973193787 16.10112641798616 0 0 0
294 6 20.611148160364664 1.1510180305966011 16.649165704128304 0 0 0
314 6 19.165763187446764 3.266141832407123 16.744614105803944 0 0 0
412 6 19.92100678565179 4.544604798566594 19.133093062864226 0 0 0
633 9 3.504646367663797 6.684966051341057 18.156583105505522 0 0 0
658 6 4.270079121071815 5.4080535978458455 17.43265719060004 0 0 0
662 6 4.538235555568928 7.612209121609293 19.088967262766243 0 0 0
626 5 4.630731113426254 4.698610119857155 14.321597463916017 0 0 0
627 3 5.141521054999252 5.157524594061762 15.054028405835652 0 0 0
700 3 6.118660185358447 8.700343602775611 15.120068917591064 0 0 0
126 6 9.088631325729962 6.2812974848970535 18.929904907124566 0 0 0
138 6 7.036629966320398 9.156928029713344 19.08943757199875 0 0 0
114 6 10.104903617212212 7.548614627269322 16.795228363737646 0 0 0
131 6 10.349699940369725 9.573366483801145 14.86132422818434 0 0 0
97 9 10.012845480077043 9.24063202940492 16.375483131900268 0 0 0
167 5 11.186572433405638 5.6599516074607985 14.750176593655905 0 0 0
169 3 11.312485737029004 5.381781659367336 15.697466340826326 0 0 0
93 9 10.391830393346835 6.756067208365859 18.160436486098156 0 0 0
118 6 11.130705091914754 5.334165634442279 17.488656117246887 0 0 0
158 5 12.69999104807378 8.49361288337146 14.315578748627109 0 0 0
408 6 13.792627760649882 9.298793574993162 19.13392608029971 0 0 0
122 6 11.309338506455619 7.580079332067249 19.27919460451791 0 0 0
175 3 14.97304773473486 5.836073055872522 15.348138130375384 0 0 0
363 9 17.034504546348202 6.6750907761027 18.352369204353753 0 0 0
367 9 16.082191477587514 8.514327987587235 16.108965146566433 0 0 0
384 6 16.22767153953697 7.181058486713497 17.04152646896586 0 0 0
388 6 17.786355436835258 5.283875714069093 17.746269640534415 0 0 0
392 6 18.164930110956142 7.662002684809537 19.09345926441006 0 0 0
418 8 17.59511861984104 9.244470130706326 16.24087977862661 0 0 0
419 4 18.24885737228243 8.5565754597381 16.129748919905698 0 0 0
439 3 19.38916040404041 6.327692826576257 15.421375275221582 0 0 0
396 6 15.850503677191893 6.273591044546521 19.407450586873804 0 0 0
654 6 23.189925110578557 7.5166808554719164 16.84194649768298 -1 0 0
428 5 20.339196164712526 6.496954025974088 16.927038310165578 0 0 0
429 3 20.796130221640198 5.655728969898887 16.802215924142082 0 0 0
430 3 21.003932264229746 7.1289285827169415 16.652173657577052 0 0 0
637 9 23.439058865541632 8.993773105338132 16.211307278177678 0 0 0
666 6 22.59137101696293 6.080847001754084 19.10470456440682 0 0 0
678 6 20.69889123531972 9.23581538320713 19.115957488562483 0 0 0
444 3 20.92837681452516 9.901835199725086 14.244391019413646 0 0 0
379 1 20.483742396311712 6.84106905866039 19.459123160353197 0 0 0
134 6 8.45930237768069 9.51499235835631 16.77323283753223 0 0 0
101 9 7.903085997290185 10.136170149834642 18.20325723909049 0 0 0
183 9 6.27593345355693 12.69558704041218 18.05020847414717 0 0 0
208 6 6.9557586012348045 11.332839378742205 17.51874256814117 0 0 0
257 5 8.005711445222232 12.016431121997526 14.624825755924892 0 0 0
259 3 7.726207300631231 12.071800538032846 15.596660783926755 0 0 0
248 5 8.958524162452878 13.71327251565398 16.441364240136885 0 0 0
249 3 8.204640488166406 14.289375032502939 16.210142493388503 0 0 0
212 6 7.162316330753787 13.70853326907198 18.893776840312942 0 0 0
232 6 9.155370540824709 10.685497345356836 19.09471299995716 0 0 0
199 1 9.377217290526257 13.132102584474211 19.183110618012808 0 0 0
689 4 5.143377502568584 9.912759282093129 16.42118668301901 0 0 0
264 3 10.581907468385516 10.993523379316613 14.625821955495717 0 0 0
263 5 10.95501986448911 11.982721826742146 14.675435182716555 0 0 0
529 3 14.455921356963401 11.21882751583221 15.20055382024422 0 0 0
265 3 11.023084672390004 12.049601328399822 15.66715914170284 0 0 0
148 8 11.263130145657307 9.973989998015087 17.236112073039237 0 0 0
149 4 12.106469572735156 10.321577146367426 16.89424351414921 0 0 0
453 9 12.936301338820586 12.966699670127914 18.347389895860623 0 0 0
474 6 12.535433696835957 13.581542056871358 16.859435355314837 0 0 0
478 6 14.010747963162174 11.695465794458315 17.986651972027335 0 0 0
486 6 11.620749373626822 12.418838118274673 19.109414535733926 0 0 0
482 6 13.782811468337062 13.965169118925669 19.288442748951713 0 0 0
528 3 14.352546098666304 12.632643519328013 15.61367648801693 0 0 0
533 5 18.725620705112647 11.50862201493206 15.00512183232487 0 0 0
535 3 18.400925246961506 10.64694444509513 15.295173151176161 0 0 0
371 9 14.758849274801484 10.22467638766481 18.27283282575004 0 0 0
404 6 14.936678198696294 9.488844687154735 16.803799755648747 0 0 0
502 6 16.171075167007977 10.59210301949095 18.88713103396815 0 0 0
534 3 19.360887287643962 11.665884682505878 15.701326285328927 0 0 0
756 6 18.47366019231984 12.340528988601601 19.081538850657918 0 0 0
518 5 15.961380940916976 13.53031257148756 16.452742438182696 0 0 0
374 1 18.506690927870757 9.970247389582411 19.220049672055747 0 0 0
469 1 16.285359799340554 13.074682372855234 19.094140288962432 0 0 0
674 6 21.961753950142587 9.6651228798586 16.685700219306504 0 0 0
641 9 21.499857620080526 10.306743730443149 18.1810604498988 0 0 0
723 9 19.74093985658589 12.829796489841682 18.242038743648113 0 0 0
744 6 19.39492306690922 13.511955565374462 16.831447077725556 0 0 0
748 6 20.397819031913308 11.388211279577552 17.68876939192608 0 0 0
788 5 22.57286364658085 13.78165906945248 16.399820281029086 0 0 0
789 3 23.359608802830017 14.081598457928717 15.87917777528312 0 0 0
798 3 20.905379403711514 12.341486009049488 14.972098558901582 0 0 0
752 6 20.808855815326126 13.576760226995672 19.263056858421965 0 0 0
772 6 22.682319000445503 11.000252249322788 19.047441303677417 0 0 0
739 1 23.197060194970774 13.357747138542157 19.107537237939137 0 0 0
688 8 24.715550179263914 9.720257573517399 16.980114572090407 -1 0 0
204 6 26.140609554096145 13.374809164590632 16.558850735971234 0 0 0
216 6 25.22288972700258 12.296971378935073 19.01239829754228 0 0 0
250 3 9.736541734057862 14.283206228472368 16.608443046416298 0 0 0
239 4 7.556571635196829 15.441500620741067 14.847480905878742 1 0 0
298 6 9.464279862145206 17.55765952465505 17.443660438436297 0 0 0
498 6 9.564788550740506 15.393748826548208 19.043603740610575 0 0 0
238 8 6.973519007834521 15.475734270043032 15.680278931414545 1 0 0
348 3 10.02660975848355 17.918427968754443 15.43164738330899 0 0 0
322 6 11.562873026440316 17.09356522046322 19.281616578852375 0 0 0
457 9 12.357581323182409 15.073598835615694 16.079600150469297 0 0 0
461 9 10.451158451319763 16.47827319117389 18.17594426914701 0 0 0
494 6 11.09188015193323 15.853937112610122 16.719644382310697 0 0 0
508 8 13.844166521771493 15.807349880833103 16.56586230542287 0 0 0
509 4 13.997629697816853 16.56607120732388 15.9388767336845 0 0 0
464 1 13.921789129800132 16.248913138935244 19.317412005237173 0 0 0
519 3 15.678415956019562 14.484251240325564 16.63175064536122 0 0 0
520 3 16.8241861206944 13.625304849016283 15.9988864705025 0 0 0
526 3 14.642286886426612 18.508166393977106 15.459277169250983 0 0 0
568 6 16.622815115443068 17.876639024110496 17.459396703601815 0 0 0
731 9 17.402735369229312 16.50396427623592 17.96682965537632 0 0 0
764 6 18.052869781109713 15.776871524469145 16.53076509545391 0 0 0
768 6 16.430224293158204 15.500793402955766 18.832257588822078 0 0 0
592 6 18.652232335026774 16.97941343797752 18.89074320855244 0 0 0
609 3 20.710468958733614 17.892466590035816 14.392387216703554 0 0 0
790 3 22.071583162777394 14.612066604133163 16.450291204674297 0 0 0
610 3 21.53965879197063 18.664447944649325 15.483811301793589 0 -1 0
28 6 23.604055376112257 17.920950326135916 17.385906407310852 0 0 0
608 5 21.473910268688037 17.791765889769515 14.926752987783814 0 0 0
727 9 19.327955848731584 14.97029696621745 16.05433192344805 0 0 0
778 8 20.708366893154277 15.778827346736927 16.709537860394924 0 0 0
779 4 21.130174453728117 16.545763320331552 16.158813891870974 0 0 0
228 6 23.22560673486319 15.576623229533784 18.662383942730028 0 0 0
36 6 21.393309178125804 18.346130366538972 18.753394833323885 0 -1 0
734 1 20.939803915856764 16.170496589036496 19.25530516577409 0 0 0
68 5 27.001670922338192 17.94831608643046 14.61660517049786 0 -1 0
69 3 27.03124751165882 17.11545458493542 15.15041293663948 0 0 0
306 6 27.77079276138432 18.646030730371827 18.869506299818198 0 0 0
194 1 27.472700631071078 16.017350384216428 19.13691940496103 -1 0 0
70 3 26.153077733579764 18.3452602205505 14.790186163521287 0 -1 0
187 9 25.790417983996655 14.818185976181226 15.938283827599022 0 0 0
191 9 24.358188167355614 16.52259055150718 18.141066011372633 0 0 0
224 6 25.357037735208465 15.840360096396997 17.095022009685778 0 0 0
52 6 25.31596512161733 17.032543345000725 19.38655453821549 0 0 0
272 9 2.2208935699893453 3.3765702488884486 22.298333674051488 0 0 0
280 9 3.883938728529168 0.6976476040089656 22.493004566971887 0 0 0
285 1 0.49643352630238613 0.6110022183655346 21.18466869409087 0 0 0
297 6 3.0204008481150435 2.034842178889834 23.018693412210173 0 0 0
391 6 3.2749948527256603 4.3915996959066534 21.520935826652366 0 0 0
326 8 20.484536498649163 0.2679261413176825 23.599064852637888 0 0 0
321 6 5.130662076034815 1.3189057729662481 21.631274805986205 0 0 0
542 9 9.045446088204127 3.437736147258346 22.204340199902564 0 0 0
555 1 7.348024259974803 0.6127395862849924 21.117642614475663 0 0 0
558 1 5.549629691934152 3.841610789027338 21.41639740825326 0 0 0
575 6 7.77841462103361 3.014676022552235 21.357033699681427 0 0 0
596 8 7.0261923687105075 0.25357871992742503 23.607548454275374 0 0 0
653 6 8.383485968241816 4.144769215732624 23.589169204714054 0 0 0
597 4 7.910208932494705 0.240704812479891 24.136663086372 0 0 0
605 5 5.843734585289406 3.1592184088155455 24.026341320225697 0 0 0
18 1 12.424308074036738 3.926168623336306 21.41870303871607 0 0 0
550 9 10.58392648018955 0.8964719326491505 22.14374137092964 0 0 0
567 6 9.835503410523044 2.187205133651932 22.836337692944856 0 0 0
591 6 11.943260344468158 1.393917214805096 21.406036663857385 0 0 0
661 6 9.99830480539731 4.401840096122476 21.33340611590565 0 0 0
15 1 14.107379764375906 0.7519320855970625 21.28353748109953 0 0 0
35 6 14.64555962260551 2.9825512889120827 21.649642848976544 0 0 0
56 8 13.676214136751264 0.42687372388954226 23.610302977183785 0 0 0
831 5 12.135560746179538 3.8497583936987785 23.894959982333265 0 0 0
830 3 13.079420298092883 3.8561137802586023 24.232684193077283 0 0 0
19 1 17.517217591318555 0.6548341677345512 19.60851480044887 0 0 0
2 9 15.88241889695255 3.5604621536855183 22.557517694891324 0 0 0
10 9 17.44717920240125 0.9911829060065194 22.696623040812604 0 0 0
14 1 15.459993333542572 3.7458187308611492 19.3094049623229 0 0 0
27 6 16.54483047373879 2.259339005341137 23.336153025090738 0 0 0
43 6 17.9603631357593 0.32503345366717773 24.13104641189516 0 0 0
51 6 18.59671127997091 1.6581973505721783 21.69291752762911 0 0 0
121 6 16.775182008707453 4.375132890170245 21.556083714145377 0 0 0
288 1 19.054935532238716 3.756803540789458 21.38620442000313 0 0 0
113 6 15.227639605966274 4.364068689260079 23.891832064067135 0 0 0
47 6 24.750559388871366 18.816685624609974 21.68004196089792 0 -1 0
1524 5 19.116919979308257 4.000876158321179 24.100113490524027 0 0 0
305 6 21.354075163661754 2.8883398310259425 21.27718288619206 0 0 0
383 6 21.846374483606944 4.185122437272346 23.702067130467288 0 0 0
1522 3 20.10079327770741 4.0842000570559875 24.050715566233052 0 0 0
645 1 3.4793434951941196 6.849123492016026 21.462553710795422 0 0 0
640 9 6.830330728570727 7.151004354305158 22.603971032785854 0 0 0
649 1 6.900880601578222 6.890598356387922 19.503159824345317 0 0 0
657 6 5.957129421044827 8.511877718292416 23.154667815871765 0 0 0
677 6 5.756398607276766 6.159879002194176 21.882300530882844 0 0 0
681 6 7.962479437454468 7.6170877502129555 21.51746343215044 0 0 0
673 6 7.516720667503858 6.697512141584639 24.05179558644721 0 0 0
100 9 13.528524568279023 7.2978915023135285 22.657482923810882 0 0 0
105 1 10.1980767923581 6.706114443143408 21.358818659734236 0 0 0
109 1 13.662804532196441 6.898063407112123 19.437592380571438 0 0 0
117 6 12.637896048814305 8.578192576203529 23.15938123616814 0 0 0
137 6 12.622314571270202 6.262952985615524 21.81272551510436 0 0 0
125 6 10.57906733640714 9.186565313486648 21.556569995135817 0 0 0
146 8 10.090916848247245 6.24963736212249 23.660080783525277 0 0 0
147 4 10.850589066409098 5.626973925077279 23.87427126493118 0 0 0
133 6 14.033011450965182 6.7240270363797645 24.13357837087984 0 0 0
141 6 14.766767656987728 7.826965408472705 21.657566950194994 0 0 0
375 1 16.808057511906682 6.848250331147225 21.413267712309075 0 0 0
387 6 19.55423335153712 8.532769944692225 23.24472128566546 0 0 0
407 6 19.195856893019275 6.191706642097323 21.898991487654218 0 0 0
686 8 3.2448991673344723 6.317159778411956 23.720164943780865 1 0 0
370 9 20.27943492840788 7.169619002052279 22.58050760095015 0 0 0
411 6 21.485073855211496 7.520154333626511 21.578027334075074 0 0 0
403 6 20.893408393370557 6.5097200276398555 24.046911789254626 0 0 0
665 6 23.966020112981873 9.272438275258798 21.70031593854231 0 0 0
644 1 4.733222946845908 9.992486612793801 19.27105160479683 0 0 0
632 9 5.000052107112502 9.774433691778693 22.477839556869686 0 0 0
108 1 8.27618767870466 9.982681936037281 21.281972307513968 0 0 0
227 6 8.377382276422933 12.771366605339749 21.3896651567855 0 0 0
751 6 5.885517816129032 10.632755853661985 21.410118932210228 0 0 0
190 9 9.435168182988763 13.542698408940083 22.340628779601744 0 0 0
218 8 8.647618778470578 10.242747677333965 24.016099837175368 0 0 0
104 1 11.533683428312253 10.097923617528254 19.591874376889333 0 0 0
92 9 11.748474814882385 9.80709244714363 22.52593018180512 0 0 0
211 6 12.728020234188689 10.720325738883938 21.668902974385976 0 0 0
223 6 9.757668355511658 12.75260177475653 23.7899086980329 0 0 0
465 1 13.02557899061255 13.069643817134471 21.57480775198159 0 0 0
231 6 10.817419233122738 13.803053723457918 21.55158518521466 0 0 0
203 6 11.235098215394551 10.467412898030016 24.028710293960277 0 0 0
395 6 17.32834434231168 9.064158813931863 21.757407124209124 0 0 0
362 9 18.61890761923403 9.630526034710636 22.48037880344893 0 0 0
378 1 15.184200426477544 10.011914337746262 21.19947322812691 0 0 0
460 9 16.19624466047138 13.432260490453222 22.280578846297647 0 0 0
493 6 16.889718049024985 12.770457728676448 23.582243211936635 0 0 0
497 6 15.39103889911959 12.335302078444863 21.411409116874818 0 0 0
501 6 17.3832752299791 14.066447542145003 21.373191844703225 0 0 0
473 6 18.310698243651487 10.57189270254014 23.869016761725153 0 0 0
776 8 19.43239270054886 13.080741195334294 23.930084193325115 0 0 0
1658 3 16.053062582111856 9.691316560375967 23.94713354260266 0 0 0
1659 5 15.134777106270796 9.977869299272589 23.73136129230905 0 0 0
456 9 18.147745869646002 12.138863186973735 24.367898000159368 0 0 0
481 6 19.264710478789247 10.706030170800727 21.404980501664728 0 0 0
648 1 21.713117381319123 10.033232803949161 21.099668212013636 0 0 0
730 9 22.81690906926312 13.388650216084416 22.29279530725366 0 0 0
735 1 19.64529938994592 13.059041474841795 21.272190887421203 0 0 0
767 6 21.889925285341633 12.167761444231694 21.81821532336827 0 0 0
763 6 23.514354005304725 12.962079090212198 23.773325617628544 0 0 0
771 6 24.101443592033007 13.844633046172218 21.26595758932384 0 0 0
195 1 6.091580659449867 12.97717649965943 21.248410419050057 0 0 0
743 6 24.911408426265176 10.64045697727349 23.839348615588065 -1 0 0
236 8 26.20096349214861 13.092058554842113 23.788317898799953 0 0 0
31 6 8.385802754893525 17.125739463851865 21.224635358894744 0 0 0
182 9 7.639630077445101 16.12288669910363 22.216619198420936 0 0 0
207 6 8.848538725605176 15.092888880934341 22.83287176011639 0 0 0
313 6 12.623645567241573 18.636934744023563 23.941311919596547 0 -1 0
317 6 11.111374616086438 18.4918598026196 21.63965427832244 0 -1 0
293 6 14.1977266208196 16.533313197203114 23.929156890627265 0 0 0
468 1 10.689023271513198 16.280641894622455 21.170786406269507 0 0 0
485 6 12.861339377421366 15.77723801437206 21.65357127516222 0 0 0
452 9 14.309614371977048 15.925945882700479 22.37572211708515 0 0 0
276 9 14.074949957865377 18.150839940755752 24.413544821542235 0 0 0
587 6 17.870893741113633 18.733161660674256 21.2053686569772 0 -1 0
301 6 15.199878292436956 16.784628790735887 21.39707922394953 0 0 0
477 6 14.969198198465653 14.454205014047712 22.685106411234873 0 0 0
738 1 17.674493066594003 16.390132860864632 21.037800924489094 0 0 0
785 5 17.24316657516274 16.340624747638245 23.787925713768832 0 0 0
786 3 16.625183711645334 16.350646987997422 24.600251125002934 0 0 0
583 6 19.112273979918307 18.78159445260824 23.684269395922055 0 -1 0
747 6 21.923118307167407 14.644139963847639 22.753420902246287 0 0 0
571 6 22.25259510748412 16.960886965130577 21.33613085399095 0 0 0
722 9 21.186851653680577 16.04171179542748 22.20577036001079 0 0 0
755 6 19.851078232771535 15.608186315573075 21.395786251802715 0 0 0
563 6 20.69814920154058 16.664738202338917 23.63309532575549 0 0 0
245 5 24.471247470133775 15.883709157080252 24.039316137400593 0 0 0
247 3 24.585452755935172 16.648038410564936 24.653584322563106 0 0 0
246 3 23.70242654216466 15.329273128190376 24.429663030379718 0 0 0
23 6 27.259802658376188 16.731754344309046 23.570906369747618 -1 0 0
198 1 24.429248043607707 16.344420847152094 21.57943751765094 0 0 0
215 6 26.786552015016667 15.330204879979597 21.423697364928366 -1 0 0
902 3 4.354325624256294 2.5673384490839974 27.03201568773744 0 0 0
1000 3 2.924913878970777 2.5001956832805328 25.15370667556697 0 0 0
1001 3 2.0333077299357374 2.153589257561352 26.39894089489843 0 0 0
1002 5 2.7798440188359788 2.7126491453449804 26.09904682019194 0 0 0
903 5 5.2084702469240645 2.120236622475488 27.177644375543696 0 0 0
606 3 5.490340833881924 2.297209219137079 23.839271380479026 0 0 0
901 3 5.017049485417769 1.2404203055748224 26.745506542078424 0 0 0
607 3 6.8316359896096674 2.9811904739992316 24.06207471014791 0 0 0
1816 3 7.8498869661751485 3.7681275402725545 26.062077146395378 0 0 0
1817 3 6.6627934945900265 2.813617574279456 26.608589411423193 0 0 0
1818 5 7.598887654136338 3.008345124221794 26.574976545350193 0 0 0
1999 3 8.333689597126321 1.463286868787149 25.839280650128718 0 0 0
2001 5 8.880304666850938 0.7897295583732009 25.421618065941892 0 0 0
1175 3 9.535106914170976 2.5612994219164653 29.157903461158945 0 0 0
1176 5 9.7189407895485 2.7405841412119205 28.179368018384558 0 0 0
1174 3 8.86537946908391 3.0490864364589445 27.817815630291836 0 1 0
1387 3 10.059241923001771 4.676711025190393 28.673340302572385 0 0 0
829 3 11.755708230467983 2.985648682173109 24.13648680286283 0 0 0
1777 3 11.082903134970469 2.3635090492485764 27.165075917653937 0 0 0
1778 3 12.636615521125488 2.389660887787162 27.361942108792384 0 0 0
1779 5 11.92903604948725 2.215762345260806 26.69711971805959 0 0 0
57 4 14.148571364609593 0.8499381723517053 24.370469404268352 0 1 0
65 5 14.931011053079795 1.7264824167585446 25.325975419377084 0 0 0
629 4 12.270718386442729 0.5078027319325022 26.24509404235296 0 1 0
1265 3 14.745343118904563 2.1010593710344923 28.758583054893634 0 0 0
66 3 14.41972075089915 2.412046795210822 25.807885053564824 0 0 0
67 3 15.644132618244326 2.1141801516920804 24.871500173070565 0 0 0
335 5 18.413315107963648 2.2958082046692083 25.997538716034946 0 0 0
336 3 18.13170838745811 1.5802448586150764 25.382941641241842 0 0 0
1487 3 17.04841942694972 2.703391049714005 27.072883400267035 0 0 0
1488 5 16.455995170308015 3.216207674470827 27.68984330669198 0 0 0
1523 3 18.78805590839606 3.4452752500962687 24.878596094442063 0 0 0
1486 3 15.895381024737386 3.7838317729018685 27.17716655078548 0 0 0
337 3 19.210818258849507 2.0268783585452987 26.589521751114976 0 0 0
1083 5 20.530951407658826 1.5050872290133863 27.441977403428574 0 0 0
1081 3 20.87405815146304 1.8567749874475443 28.280257856369992 0 0 0
1082 3 20.407365625584454 0.5734605155094525 27.64856692304185 0 0 0
449 4 2.241062699264956 4.637727078966062 26.326978677677765 1 0 0
687 4 3.876803061254683 6.25657663693688 24.452405682606592 1 0 0
1480 3 4.1578847836126425 8.319160376825206 26.383243421648185 1 0 0
1398 5 4.916663195841985 6.727068127786185 26.26641787933384 0 0 0
1462 3 3.995608073981409 5.772706846016234 29.27598942475674 0 0 0
1464 5 4.772116393290766 6.151394210986343 28.851661530346643 0 0 0
1204 3 7.028265176440549 8.809769046046478 25.912363268664762 0 0 0
1396 3 4.788599582660641 6.29337810344652 27.12876980009269 0 0 0
1397 3 5.813670248858685 7.063162405912569 26.220325671440424 0 0 0
636 9 8.703632694995433 5.623431037702548 24.326849157247725 0 0 0
668 8 8.778708526124907 5.275485021079659 25.936042510211948 0 0 0
719 4 8.440600652304882 6.142115543001599 26.39559663347024 0 0 0
1891 3 8.78234322990139 8.23701009281917 27.482377927528557 0 0 0
1893 5 7.98033060474604 7.623246638352171 27.182550209981315 0 0 0
1892 3 7.362250688137414 7.533217711145755 27.919217241448667 0 0 0
1388 3 8.913972103471002 5.610019928938231 29.262822929447044 0 0 0
1566 5 10.020461472153338 9.161685268453306 27.544565893725014 0 0 0
1564 3 10.497099497189707 8.568748446953347 26.87665000013505 0 0 0
1342 3 11.095578267220565 5.91286191558109 26.30246261085077 0 0 0
1343 3 10.562886452102141 6.3342188640347965 27.598939147188094 0 0 0
1344 5 11.179771395069032 6.670708756482398 26.875780146864972 0 0 0
1624 3 14.549363559951574 6.5515305387478335 27.43658176410689 0 0 0
1565 3 9.63365642619296 9.950640618220971 27.044130373437817 0 0 0
989 3 12.744503012360623 8.259154243283616 25.67144921786438 0 0 0
990 5 12.882173832844186 9.181355914559626 25.993321836576143 0 0 0
1389 5 9.869617854289693 5.58071332848956 29.06893559459384 0 0 0
1625 3 13.374086472976833 7.469259477882648 27.619419650560033 0 0 0
1626 5 14.260957515460392 7.241547219135212 28.07772736851496 0 0 0
416 8 16.663539823365106 6.782536187605727 24.027681470672356 0 0 0
96 9 15.37319957144648 5.931387083594458 24.552322283233437 0 0 0
128 8 15.459882197723257 5.660566869870618 26.144255971617753 0 0 0
179 4 16.310508571236312 6.014673194352223 26.61406799776463 0 0 0
417 4 17.58974337017574 6.4317383150136145 24.31465505871805 0 0 0
985 3 19.646822411426278 7.617172853012224 29.176015710797977 0 0 0
425 5 17.55602915589143 6.533249264346332 27.414263439322923 0 0 0
427 3 18.117223627766016 6.072250205284348 28.089834617168005 0 0 0
426 3 17.89080995022448 7.453716283905889 27.212881833945012 0 0 0
986 3 20.387173830249296 6.234275546143057 29.031997958728926 0 0 0
987 5 19.481633357977927 6.606725228745981 29.196376854612097 0 0 0
398 8 22.36818455972663 5.549122874132253 26.033590031951487 0 0 0
366 9 22.23232339555716 5.641776344280353 24.376787048841 0 0 0
696 3 22.243203125527153 9.022166868265952 25.751508776158463 0 0 0
1482 5 23.88482455251679 9.109714913346624 26.323054142315012 0 0 0
1493 3 22.116829520458026 6.109882875293629 27.79742715548765 0 0 0
1494 5 22.138016337139845 6.007633942114313 28.770832437261365 0 0 0
860 3 22.91758593466208 8.907586848274855 28.01061233114328 0 0 0
1492 3 22.271746708561516 5.095732122690209 29.03684527305729 0 0 0
697 3 20.90484527220739 8.823504568519366 25.173511929555453 0 0 0
237 4 25.99018164459749 14.04243952499495 23.646031212690342 -1 0 0
1206 5 6.503346597409091 9.60743896848084 25.785132819532524 0 0 0
1205 3 5.9406871064396976 9.543676964326519 24.969814529452762 0 0 0
1099 3 6.78966439302856 12.301173818785756 26.34551360373686 0 0 0
1100 3 7.4521376343259895 13.461400241371978 27.22004932371421 0 0 0
1101 5 7.506669301419957 12.519877806218883 26.935706227371043 0 0 0
269 4 7.8651790768391985 9.992322514219566 24.59607349285766 0 0 0
507 4 8.942352159687848 11.983912474008054 26.341952642233718 0 0 0
1216 3 7.067328081893031 10.998390903767888 28.06112860123163 0 0 0
1218 5 7.026235265370533 10.828690508040625 29.056411562090975 0 0 0
1657 3 14.570573126569181 9.489643267268937 24.354875941302375 0 0 0
988 3 12.23740309462513 9.726962105202393 25.507537109544742 0 0 0
186 9 9.878972335284594 11.283985063839165 24.443884707340423 0 0 0
506 8 9.752010295519645 11.431894050069069 26.12276174673638 0 0 0
1442 3 10.63638802224818 10.156410402149902 29.118668382534743 0 0 0
1003 3 14.676529035821886 9.769699027813012 27.41847677324651 0 0 0
1005 5 15.350828816194158 10.275755200333291 27.91469871046047 0 0 0
488 8 17.821185953117954 12.11791025107792 26.03499269687492 0 0 0
539 4 16.838962444489468 12.270401708951503 26.206378077304063 0 0 0
1552 3 17.582370195701813 9.611996269728559 26.561858186390477 0 0 0
1554 5 18.289178538286635 8.942555438695452 26.544801543206063 0 0 0
1645 3 18.264893125884527 12.597620399017723 27.794962220967808 0 0 0
1102 3 14.544552269474613 11.510085748970296 24.46790429732039 0 0 0
1103 3 14.914628249095891 12.941404745799272 24.81264297323442 0 0 0
1104 5 14.272033969108474 12.170957223563441 25.144151222927334 0 0 0
1553 3 18.86999202020717 9.172359257759066 25.798318714709982 0 0 0
695 5 21.31274389815458 9.337502858200343 25.872761611266952 0 0 0
777 4 20.301763105855308 12.92557756369766 24.361705367863433 0 0 0
890 3 21.289345489353487 12.840234438414228 27.393225582191715 0 0 0
891 5 20.970053902792657 13.459485220934695 28.047562305707707 0 0 0
1153 3 21.458674529857568 10.846483908832246 26.006195976893874 0 0 0
1154 3 22.21138240633607 12.157436849315191 25.466439478798623 0 0 0
1155 5 21.466215174728276 11.825039453829646 26.079389186214186 0 0 0
1798 3 19.31949044443507 9.398033002848761 28.322524877418065 0 0 0
1481 3 24.443597483240374 9.930919688271159 26.433708276453828 0 0 0
758 8 24.834797878599723 12.173261070374668 25.905385227349086 0 0 0
809 4 24.472854541563365 13.086392514497978 26.195364854849267 0 0 0
726 9 24.850448648892836 12.194867181921094 24.26066868613642 0 0 0
327 4 9.268309359608507 18.754599307686092 24.035482896019946 0 0 0
874 3 9.050666852214377 15.456162621785179 24.475031613319555 0 0 0
89 4 7.765455391158162 16.909679196236844 26.240815116362842 1 0 0
516 3 8.236333413036538 14.36423363557034 29.101426597497305 0 0 0
515 5 7.7657442081135954 14.792068744974738 28.378719437871386 0 0 0
517 3 6.879119719501956 15.22514413641362 28.61969504105577 0 0 0
1869 5 8.809180260302044 17.537230639004832 28.373396542079377 1 0 0
1868 3 8.658913831154486 16.59386949755956 28.575616828848503 1 0 0
1391 3 10.129564635715386 17.43771511964568 26.084839217609524 0 0 0
875 3 10.002392880461706 15.138036843777359 25.60524408052826 0 0 0
876 5 9.39489371331384 15.845722011116383 25.306735627098337 0 0 0
898 3 12.952447481801851 14.959576755066168 24.648607950045264 0 0 0
900 5 12.508788626356942 14.292739604788085 25.204949793286413 0 0 0
899 3 12.794645408126957 13.400331483755366 25.00678211808466 0 0 0
1390 3 11.190766768848615 18.007103856319517 25.23201534987754 0 0 0
1392 5 10.40350480077524 18.293053952767757 25.675433054262434 0 0 0
308 8 14.008954629662345 18.36856114210937 26.014304459717824 0 0 0
1642 3 3.1509682134078343 0.34735759158757257 27.597280891399752 0 1 0
1643 3 11.068395983698759 18.045863762447546 28.50842867261262 0 0 0
1644 5 11.790106433259451 18.632653622963403 28.378540874408145 0 0 0
1195 3 12.552388053787446 14.544639605494977 27.1086524385997 0 0 0
1197 5 12.731614499235372 14.344713796728335 28.049346720005815 0 0 0
359 4 14.990110525480668 18.193763260294602 26.387696600320787 0 0 0
787 3 18.120799022034575 16.504392614348582 24.205903952822787 0 0 0
2000 3 9.488204144406064 1.2991986011743726 24.860536744940102 0 0 0
1501 3 17.067401662093076 17.917600712076045 26.41713361457307 0 0 0
1503 5 16.57183743194284 17.086221838285446 26.51730334929088 0 0 0
1502 3 16.892897075501715 16.59793828512983 27.301604458490345 0 0 0
1673 3 18.56561301215826 15.579949731038115 28.2357192982177 0 0 0
1674 5 17.65063081578525 15.514697829664703 28.47552684156998 0 0 0
889 3 20.82684068751101 14.283175203839734 27.553741097233264 0 0 0
1436 3 20.44006836519891 16.182550569374463 26.654037411343666 0 0 0
546 9 20.595754450014944 18.272563171447423 24.16365354233646 0 0 0
578 8 20.763317087889064 18.338652132976932 25.802215548753036 0 0 0
1373 3 22.76708907439628 17.839360654806754 26.128666005940246 0 0 0
1374 5 23.615366656289382 17.42456680742947 26.297595260674512 0 0 0
1437 5 20.53867342816401 15.82460610064023 27.552265120999056 0 0 0
1855 3 26.667141377605297 18.14541533227097 27.030787333799484 0 0 0
1372 3 24.198745934777357 17.98979535899874 26.80820571421914 0 0 0
944 3 23.767681663308664 15.3583952960865 26.915071730230355 0 0 0
945 5 23.731316886613868 14.41996782391754 27.015547582131813 0 0 0
6 9 27.54176249352423 18.14618812284155 24.30638690967912 0 0 0
38 8 27.687059181083775 17.768519813532855 25.901430892453725 0 0 0
943 3 23.544497139521127 14.251965600398355 27.976172724199504 0 0 0
1027 3 3.89198223445331 2.1277596806779435 31.690037400027933 0 0 0
1029 5 3.757672072566357 1.4383052620166785 31.00393288775347 0 0 0
1619 3 2.2788593015680565 0.3599374445508664 30.700105398275507 0 0 0
1620 5 9.645453127057072 18.615476337662166 30.8632265018797 0 -1 0
1028 3 4.614143397780208 1.0869011461463098 30.642656989790105 0 0 0
1885 3 3.118949000498422 3.0054499258797955 29.4420739681242 1 0 0
1053 5 3.022422774229985 4.533388960242226 32.394552913562976 0 0 0
1253 3 6.742308090747381 1.4012220209423103 29.782085022020034 0 0 0
1254 5 5.990650797205617 0.7272677767752641 29.749432379237298 0 0 0
1448 3 18.339208306377294 18.608874383798607 31.128147471067642 0 -1 0
1934 3 8.796623604148103 1.7278490127078976 30.775843856995394 0 0 0
1935 5 8.324430916660443 2.595236390979343 30.504400756583863 0 0 0
1252 3 5.625669919135462 0.9210725753594305 28.871117986132788 0 1 0
1933 3 8.613020606117725 3.306724835435573 31.098555829898604 0 0 0
1264 3 13.675022013726931 2.5802578273203074 29.80215442921357 0 0 0
1266 5 13.784884085775735 2.2378212602025145 28.879717790900433 0 0 0
1548 5 13.74707262097115 4.172106433444111 31.332098316989583 0 0 0
1369 3 13.452994576934026 0.23886032777374272 28.97964174343424 0 1 0
1162 3 14.492907511938254 4.480061707318197 32.835802207099164 0 0 0
1514 3 12.625842861915608 0.8309015582306518 33.65593431347706 0 0 0
1856 3 25.992833746169325 18.854550236282797 28.3804943664194 0 0 0
1546 3 14.694714268010856 4.366823723664677 30.98635064622921 0 0 0
1599 5 16.376958708367084 4.233649425985897 30.437694428239368 0 0 0
1669 3 16.837307655858133 2.1915628386713886 30.69855087746833 0 0 0
1671 5 16.861942770938697 1.3474702511184058 30.19402863101648 0 0 0
1598 3 16.5969303847698 4.1331082793675 29.471221567333618 0 0 0
1670 3 16.82638753111307 0.6376641914888577 30.853699620174893 0 1 0
1832 3 18.895905502519902 1.334994121935554 30.569023450317342 0 0 0
1618 3 0.7137197088190439 0.6388074272084083 30.771980954973188 0 0 0
1831 3 19.7489452577393 2.4633035738756064 31.272095368488923 0 0 0
1833 5 19.784952219131164 1.7793084210484182 30.546929229225523 0 0 0
1886 3 2.2014926763707843 3.6506671079449173 30.510184972590384 1 0 0
1887 5 2.3195113341855578 3.536508451537044 29.560852638464702 1 0 0
1404 5 4.723075062640507 6.668567201341297 31.793405376481118 0 0 0
1403 3 4.334959672152544 5.919235228466634 32.294934283194294 0 0 0
1463 3 5.471114724740167 5.956094767681467 29.49226341385759 0 0 0
1498 3 7.162012768547866 4.148726896050845 29.78025962856443 0 0 0
1500 5 7.1709942585558775 5.111067800732771 30.084482875316013 0 0 0
155 5 6.752922996267566 8.382388611017658 29.63027476545027 0 0 0
156 3 6.795376950254136 9.39233594823825 29.332990276298165 0 0 0
157 3 5.846148204753123 8.026372708317814 29.604065161907535 0 0 0
1499 3 7.38132472503529 5.184274924051137 31.02074066987045 0 0 0
1733 3 6.82931352966867 9.04826676018335 31.81434426760604 0 0 0
1298 3 8.64628462536662 9.396658855078625 30.601908105898254 0 0 0
1429 3 9.662222628240507 5.485085765704066 31.96563087915219 0 0 0
1595 3 13.185695789276958 6.679725600498162 29.439290086451237 0 0 0
1547 3 13.329848295230587 5.058561193850327 31.084849650350534 0 0 0
1299 5 9.335605842654534 9.745796841228291 31.213377211491125 0 0 0
1117 3 11.173863551206116 7.32247583250647 31.349216491843325 0 0 0
1118 3 11.100965441766116 7.598372893892823 32.90286293917714 0 0 0
1119 5 10.499270407718845 7.39249167310947 32.09569786857384 0 0 0
1297 3 9.851908204757002 8.91691572244247 31.42607456430656 0 0 0
1414 3 13.838482019620129 7.539654007635729 31.234709539007373 0 0 0
1416 5 14.377082955523889 8.27541540361124 31.57291463679256 0 0 0
1594 3 11.802764675649449 6.294027228952935 29.89839672536109 0 0 0
1596 5 12.634321432613563 6.6697010485829376 30.291829211781973 0 0 0
1597 3 16.795652506572132 5.042540973095582 30.728281442497174 0 0 0
991 3 18.305081158356813 6.72481424487357 30.500432918719486 0 0 0
992 3 16.981027708279875 7.481085169714278 30.479113715437922 0 0 0
993 5 17.457180219366734 6.776057614262709 31.00604383795107 0 0 0
1093 3 17.199124476904252 6.3559036629461465 33.179745966108115 0 0 0
1219 3 15.485014125044076 8.775868164609584 30.311096470026293 0 0 0
1221 5 16.33999899309508 8.977145314090707 29.883590729915902 0 0 0
841 3 20.066439560804135 9.169156344101598 30.984082212265257 0 0 0
859 3 22.69406694258238 8.065551972809349 29.335047700572737 0 0 0
861 5 22.62316176037482 8.959534501696051 28.95393870431604 0 0 0
1048 3 20.120502840749538 5.862777807265075 31.218039505590855 0 0 0
1049 3 20.140022542415096 6.8186889178218 32.39455147205919 0 0 0
1050 5 20.208072118019643 5.87566710647581 32.162242955924555 0 0 0
843 5 20.230707388383394 8.746673808427024 31.832251305083002 0 0 0
842 3 21.19656854012471 8.588761236025638 32.00907883390285 0 0 0
1636 3 23.24941308391231 7.392751140708856 32.01069512298376 0 0 0
1638 5 22.722240281089718 8.062160785154889 32.52698742044764 0 0 0
1799 3 20.798958414109727 9.047151669221519 28.816422387215958 0 0 0
954 5 8.85079617216331 12.958416426209782 30.628458340540085 0 0 0
1217 3 6.225431215061088 11.303023242447633 29.36170630334758 0 0 0
1306 3 7.91575007216561 12.394780792964541 31.870058500112208 0 0 0
1307 3 7.149357250318353 11.338284512739131 32.72678908953064 0 0 0
1308 5 7.580525799098777 12.221676723343274 32.81074479440322 0 0 0
1734 5 6.8149478000636785 9.311163262123307 32.7423747869797 0 0 0
1106 3 6.084345219760763 13.350758042823651 33.129839033272034 1 0 0
1411 3 5.065212177734136 9.825349311578064 32.94799406839984 0 0 0
1196 3 13.234600575649093 13.499794731748429 28.12593712063279 0 0 0
952 3 8.810891658295269 12.214967145305993 29.996910484821747 0 0 0
953 3 9.761693426435118 13.43932209405865 30.50742104399118 0 0 0
1381 3 13.668497733738878 11.449854549378141 31.258729557708076 0 0 0
1383 5 14.017342740280636 11.265094697786793 32.1541187053697 0 0 0
1415 3 13.799590052380307 8.804093567789606 32.15322770317493 0 0 0
1441 3 10.966703082963614 10.853548621707779 30.432129042378055 0 0 0
1443 5 11.289872271887022 10.834924403186552 29.524297402191173 0 0 0
1526 3 12.985202263710319 11.507394154956136 29.11055711548194 0 0 0
1527 5 13.836002059652964 11.971100436594433 29.34754775263942 0 0 0
1007 3 9.529654236764745 10.587941898484123 33.15289922050168 0 0 0
1345 3 12.484591862047546 12.145827891643783 33.1090006480415 0 0 0
1004 3 15.795361678934555 9.61516485966102 28.498013975461706 0 0 0
1652 3 18.83123159432204 8.785508133010875 32.709179659610136 0 0 0
1525 3 14.408091269912031 11.415687695226175 28.772902933476917 0 0 0
1382 3 14.692322225961734 11.975327892818278 32.35548815997531 0 0 0
1646 3 19.306180969439936 12.94984127168495 28.747374410277374 0 0 0
1220 3 16.697569299553813 9.748543223870545 30.353180834994678 0 0 0
1096 3 17.153730375143958 11.751575443555957 31.814349895954546 0 0 0
1097 3 17.651910832990687 11.830328437987676 30.240088385149676 0 0 0
1098 5 17.335010035489802 11.205378523550818 30.978345213641116 0 0 0
1631 3 16.771021217689572 13.635518454369278 32.94473381853602 0 0 0
1632 5 16.440450454327724 12.716228478861924 33.18500743195415 0 0 0
1647 5 18.38410602077353 12.752395073250424 28.75748088975357 0 0 0
1930 3 21.938157965415698 13.15209252378249 29.726068635729877 0 0 0
1931 3 22.41901769736519 12.518647536090423 31.159285653406084 0 0 0
1932 5 22.689415088731295 12.855264492603531 30.288026136474368 0 0 0
1226 3 19.191334846481887 11.580459129516457 31.511944726842007 0 0 0
1227 5 19.948089580205767 11.987673075631234 32.04847939071712 0 0 0
1714 3 24.17413219704389 10.323980783375653 29.532519449201832 0 0 0
1800 5 19.856094484208413 9.263265648361065 29.09433265436025 0 0 0
1945 3 20.393855794928974 13.719243558632865 32.32048030743897 0 0 0
1225 3 19.973915164577477 11.44567156480486 32.837899433090854 0 0 0
1960 3 23.105442007874657 11.37066241658111 33.008539609770665 0 0 0
1962 5 22.702717260382087 12.248847419925408 32.80410430340231 0 0 0
1715 3 24.019795008989043 11.798237648966248 29.871380235601144 0 0 0
1716 5 24.6557883638989 11.100814229683236 29.831198010559227 0 0 0
1412 3 24.633747925291544 10.669841094636618 31.766035458816724 0 0 0
1413 5 24.503481614012777 10.15181056617825 32.636085637446 0 0 0
1107 5 25.73457821487839 14.078979353741111 33.190590911059445 0 0 0
1867 3 9.000478830944722 17.789066616950443 29.28123623211169 1 -1 0
1054 3 9.43627464970174 17.0795803351523 31.74362681783875 0 0 0
1056 5 9.329538971744466 16.353317591128885 32.38034025520422 0 0 0
1310 3 13.741078777837261 15.569980455485327 29.580642631674202 0 0 0
1055 3 10.22111156099393 15.888045774972452 32.35450198808397 0 0 0
1311 5 14.048448767814582 16.354433457120514 30.06349635179216 0 0 0
1837 3 11.613372906257704 14.698372263647832 30.80991868910318 0 0 0
1838 3 11.53437642547773 14.168301632179208 29.37125595633828 0 0 0
1839 5 11.015282919451723 14.308832545180131 30.177115934594074 0 0 0
1888 3 14.044783870076861 17.162269451911357 31.37202730188613 0 0 0
1890 5 13.952284383410145 17.298422316681368 32.366107953970555 0 0 0
1309 3 14.016976763650966 17.09447543528983 29.447355103066197 0 0 0
1378 3 11.937242184530815 14.493635749913086 33.223945639316455 0 0 0
1380 5 11.866487805510683 15.377113145790032 32.78366094869382 0 0 0
1379 3 12.745039290305911 15.766588224932017 32.71269227536942 0 0 0
1449 5 10.00465444398567 0.4749338728654793 31.90603226040693 0 0 0
1889 3 14.749371197107516 17.809846736403472 32.644837154860056 0 0 0
973 3 19.87601660134048 17.753474535821717 29.489884481010925 0 -1 0
974 3 18.425103976567904 17.013397565416554 29.496183705067004 0 0 0
975 5 18.876541682920305 17.79798456512023 29.687933526734145 0 0 0
1663 3 17.710339123925024 15.653355466622905 33.70155484943943 0 0 0
1664 3 18.659922820166017 14.80461234679033 32.904530507909925 0 0 0
1665 5 17.725236701394692 15.109113734808965 32.906462531978605 0 0 0
1672 3 17.54805036539637 14.581939094951023 28.721970359218727 0 0 0
1435 3 21.046423533486845 16.426536346338494 28.093638988967292 0 0 0
1370 3 21.826215184640233 17.600656479465115 29.961497551641195 0 0 0
1371 5 21.495188157956214 17.979409906363543 29.09016028065055 0 0 0
1744 3 22.110768613450134 17.641987053045348 32.49879598631847 0 0 0
1745 3 22.838081783181693 16.58982633951316 31.570156491570494 0 0 0
1746 5 21.96922431984826 17.029924399207736 31.714841310679237 0 0 0
1946 3 20.694944425583373 15.288135233984278 32.10095481630424 0 0 0
1947 5 20.446355096731644 14.618358652735424 32.759659529214815 0 0 0
1857 5 25.8511221998332 18.201632081069206 27.69128802919463 0 0 0
958 3 25.425417460585713 16.48918246903223 28.62195144384234 0 0 0
1262 3 23.425950395424167 14.445658846782605 31.021862385919672 0 0 0
959 3 25.190856719206103 15.363372486720213 29.747131488148703 0 0 0
960 5 25.619451749895568 15.59182546685883 28.880724497387764 0 0 0
1261 3 24.668324508075102 14.673929295604056 31.894616696080462 0 0 0
1263 5 24.287607107314813 14.91532968460279 31.023395566247046 0 0 0
979 3 3.6810909500566686 1.3539381993271318 37.47700624731506 0 0 0
1045 3 3.4780251637792206 1.6254350808977578 33.85524596290324 0 0 0
1047 5 3.840354755255503 2.5226104602208164 34.01160523706916 0 0 0
1834 3 1.9039061117851834 3.1069123994080847 36.89858435898054 0 0 0
1052 3 3.305234236588747 3.8339584656957797 33.09725698100861 0 0 0
982 3 19.870793486221736 2.4778384794188324 34.15468178749438 0 0 0
981 5 3.015765338692544 1.9240565836461012 37.79770060851229 0 0 0
1046 3 4.817584096101137 2.3850137497946995 34.07470422809625 0 0 0
1790 3 4.2286709251334225 3.5106704226092202 36.705768637074584 0 0 0
1228 3 5.432365122282588 0.6748214320240801 36.009297383014996 0 0 0
937 3 8.859652449888836 3.6225494515777807 35.886802008923055 0 0 0
938 3 9.126998156499319 2.167411495303089 36.29865035087772 0 0 0
939 5 8.460091315558556 2.857841796637077 36.31749909910492 0 0 0
1861 3 7.14903668297638 2.3375895936139197 35.377939103780506 0 0 0
1862 3 7.153931317559366 1.2710183561726458 34.28113940611408 0 0 0
1863 5 6.467328265507415 1.8398865879139361 34.81368067589818 0 0 0
1789 3 5.234341425572895 4.4411105636517965 37.405046573815156 0 0 0
1447 3 10.80865869157278 0.7190216603334383 32.43970490738586 0 0 0
1689 5 10.357438623610571 4.305203001696187 34.9731418682632 0 0 0
1515 5 12.05513759548623 1.5939772957771967 33.35731293802428 0 0 0
1513 3 12.470221361948038 2.3566464722735807 33.84168971417438 0 0 0
1725 5 14.349561956110378 2.330568360152785 37.106979419604244 0 0 0
1753 3 13.48380344836532 2.7774530576968512 35.818627944768295 0 0 0
1755 5 13.033223333134547 3.179107555110496 35.04409862624364 0 0 0
1687 3 11.10974056921108 3.746544032387394 35.30961220342729 0 0 0
1754 3 13.621365117672447 3.8762792762228897 34.62074014454055 0 0 0
1164 5 14.90414318119723 4.5089786631200575 33.753943247370785 0 0 0
1958 3 16.11699348439023 3.43433765484148 34.20226574970877 0 0 0
1959 5 16.9933323754464 3.0817181281413966 34.45537735434341 0 0 0
1010 3 18.25515649754263 3.387229080136262 33.318597814969706 0 0 0
1957 3 17.253154908088554 3.7346663379150637 35.17805825567561 0 0 0
1367 3 24.527970993322697 18.744120396270112 35.98428009594652 0 -1 0
1368 5 16.432530551477804 0.3775379941600737 35.06318647053632 0 0 0
971 3 19.1050508932244 4.751998624842717 37.56069121337272 0 0 0
1366 3 16.713694629418754 1.3539289574409281 35.05183446047111 0 0 0
1521 5 17.51297970908096 5.0064106462995595 36.491068537303065 0 0 0
1051 3 22.4667601366571 4.963853952784055 32.72645228937843 -1 0 0
1835 3 21.25985977281907 3.1241951799068057 35.60161709034952 0 0 0
1836 5 21.720578836459097 3.711093722064002 36.28840243345269 0 0 0
984 5 20.620848592833383 2.04107266239737 34.561820430192725 0 0 0
983 3 20.390134703944817 1.1516285282477738 34.86447300510824 0 0 0
1009 3 19.108237842525988 4.606555405098161 32.797016103134396 0 0 0
970 3 20.61953425226698 4.3270778594060655 37.30558691201067 0 0 0
972 5 19.968670019110967 4.748255518728892 37.986702182157885 0 0 0
1011 5 19.103646632162906 3.604266572157294 32.818774865456604 0 0 0
1402 3 5.195518953352185 7.12159286664462 32.5493277587586 0 0 0
1765 3 3.8102782603880834 6.463618656959213 34.610324497058215 0 0 0
1767 5 4.729618402463563 6.444330541780219 34.900514474532955 0 0 0
1431 5 9.326163683078182 4.575740886534254 32.09968563443263 0 0 0
1766 3 4.797808249336805 5.663738823973868 35.50268515815347 0 0 0
1791 5 4.972390544626138 4.06760256481009 36.49930536808104 0 0 0
1019 3 8.811343037910415 6.945571756444145 35.52877205754898 0 0 0
1020 5 9.538671920614753 6.850413922017701 36.16087079473712 0 0 0
1430 3 9.690529369646153 4.325924100160497 32.93863500254923 0 0 0
1688 3 10.337474552565373 5.202584679086715 35.33222867651311 0 0 0
1783 3 7.237465490943167 6.067098784159887 33.52348884811653 0 0 0
1784 3 6.276437830365972 6.878516419508726 34.35622000050937 0 0 0
1785 5 7.2037463892150475 6.965680943076085 33.93789526098763 0 0 0
1952 3 4.753514381365664 8.509733162687377 35.71266139080596 0 0 0
1018 3 9.960243333720777 7.716456612139647 36.247298979449 0 0 0
1732 3 7.082036948148852 8.464090624783097 33.21876539751614 0 0 0
1456 3 6.836072768839016 10.59114814614054 35.38378395416618 0 0 0
1951 3 5.10525261935381 9.752816728602966 36.66909091845807 0 0 0
1163 3 14.736516373088525 5.379778932378995 34.19350873549695 0 0 0
1613 3 12.377481438386067 8.25044234813594 34.94798655297856 0 0 0
1614 5 11.980207745758472 8.469310191906303 34.046926351801545 0 0 0
1693 3 13.35511119434828 7.265373342116091 37.73838297687145 0 0 0
1694 3 14.07199018124796 7.535798288939238 36.26056408117607 0 0 0
1695 5 13.727678359776087 7.959169940957851 37.129579193118914 0 0 0
1612 3 11.472551608557954 9.273705144019619 34.28004877511269 0 0 0
1094 3 17.688629312646796 7.533515167219205 33.928307228632605 0 0 0
1095 5 17.49792609755216 6.59285236418541 34.07463326360258 0 0 0
1519 3 16.689537408891027 4.980093807126978 37.019255328322984 0 0 0
1520 3 17.499380500500962 5.818073406924679 35.9011995534338 0 0 0
1016 3 18.651888441691455 8.124249578543493 36.41074097284314 0 0 0
1393 3 17.485192224774927 10.429977444354925 37.16965066217537 0 0 0
1394 3 16.869988144326406 9.231486981712079 38.05892305509359 0 0 0
1395 5 17.619198044752352 9.483775448303417 37.51337161325904 0 0 0
1996 3 14.888281435989878 8.197836674816314 34.7032825363043 0 0 0
1997 3 15.734532839924046 6.8400442796753 34.77341593593759 0 0 0
1998 5 14.797757218285362 7.2210947293399235 34.90032207957792 0 0 0
1844 3 14.74771112902549 8.358458409371119 38.44787754021749 0 0 0
1845 5 15.509303245718096 8.532344066383716 39.07466231840863 0 0 0
1017 5 19.401256115661617 7.736620045049029 35.98228958822216 0 0 0
1637 3 23.386229461364458 8.82301272425094 32.51563609239987 0 0 0
1925 3 22.094149689915 5.322807243931961 35.35664429667291 0 0 0
1015 3 20.108445275483213 7.7524877524430655 36.671025280585525 0 0 0
1510 3 22.26433050620347 7.480560074469313 36.33694988619595 0 0 0
1512 5 22.300722492182175 8.096697290136248 37.09196002954464 0 0 0
1924 3 21.175232547363166 6.390712472142129 34.67375693297741 0 0 0
1926 5 22.091102101282658 6.12590661851935 34.76776969719022 0 0 0
1511 3 22.073795614118552 7.49631057189963 37.82410604636709 0 0 0
1457 3 7.850891797509487 10.82100266364841 36.56147800162982 0 0 0
1458 5 7.501379075991147 11.242383105478273 35.7080118256665 0 0 0
1953 5 5.07784570294486 9.427887719129929 35.705693781194725 0 0 0
1468 3 8.01977916492357 13.73097675761872 34.54027317107851 0 0 0
1470 5 8.539956824723433 14.149859820246936 35.267799087048644 0 0 0
1319 3 11.327612744301794 10.009030411047018 37.05859060154286 0 0 0
929 3 6.318317989170392 12.773608133395683 36.25248586488054 1 0 0
1517 3 9.049811969656187 13.300030498159817 36.634450933349285 0 0 0
1006 3 9.286428754230018 11.298099869107233 34.5204314172352 0 0 0
1008 5 9.960198925951564 10.71728094984142 34.09205565332314 0 0 0
1346 3 11.133848683203214 12.206271053030573 34.04726690026193 0 0 0
1347 5 12.018257165455124 12.647553334462067 33.78008936463996 0 0 0
1823 3 12.822389191467506 12.767201646641288 35.4798160284635 0 0 0
1824 5 12.944937689660032 13.12265917486509 36.365403425094115 0 0 0
1990 3 14.618903145020646 13.576052795868854 36.59453870240567 0 0 0
1653 5 18.06386098302825 9.008252006705886 33.29581667877689 0 0 0
1651 3 17.370149714435527 9.259886349956254 32.62743604752139 0 0 0
1250 3 14.552611408534657 10.228838339189885 33.96295130490911 0 0 0
1251 5 14.795095436247673 9.927913676884836 34.88557433675855 0 0 0
1630 3 16.955502228818496 12.481547867915493 33.99692636077407 0 0 0
1684 3 15.624475791911584 10.466229220702116 35.10663754113445 0 0 0
1686 5 19.23005246469986 12.264718187453663 36.65021487767174 0 0 0
1819 3 17.75644848376298 12.146575349949966 36.043087029091865 0 0 0
1821 5 16.848838944231602 11.795917517153644 35.7111403723771 0 0 0
1820 3 16.306848494722274 12.586731531292909 35.98443130307072 0 0 0
1992 5 15.56363751445226 13.864308989052622 36.71020888364065 0 0 0
1961 3 21.776788947955744 12.146186349219949 33.08523833322043 0 0 0
934 3 19.77917914614192 10.432251586700735 39.52250562284293 0 0 0
1126 3 19.806657669445435 9.94269544449407 34.40760544817721 0 0 0
1685 3 19.764003640489165 11.837539191870809 35.862062121669055 0 0 0
1030 3 19.289424500158013 13.253348919600095 36.64012683575676 0 0 0
1903 3 23.60512742799508 10.635531923237957 35.69905890838625 0 0 0
1905 5 22.74513506006675 10.84073902393504 36.12679183520828 0 0 0
1904 3 22.565596400331003 9.9527498597587 36.51175203508727 0 0 0
935 3 20.32011498182075 10.929111289968455 38.150724335139216 0 0 0
936 5 20.576607307687482 10.95117214984328 39.11346257775422 0 0 0
1127 3 21.079486967021218 10.314435743607305 35.13122468988739 0 0 0
1128 5 20.385477475065095 10.727775173977442 34.53240614005013 0 0 0
946 3 23.067090966082247 12.68355526267091 36.56783737292565 0 0 0
947 3 22.987804213956892 14.092349053164899 35.87914027012155 0 0 0
948 5 23.385085724940033 13.55076958274842 36.672323405390514 0 0 0
1105 3 25.37994419397689 13.874676528426477 34.09251668591871 0 0 0
928 3 25.189169641857468 13.40623151361238 36.38531258267858 0 0 0
930 5 26.048108416519227 13.522897966779144 35.9298389225371 0 0 0
1058 3 26.62269654671136 15.334578624959699 36.30464407295014 0 0 0
1508 3 7.7271511232073955 16.537645842711193 32.96180975956027 0 0 0
1811 3 9.504258089264109 18.128210022748156 37.38966450591731 1 -1 0
1469 3 9.200624181559204 14.70106181088617 34.785230014804426 0 0 0
1229 3 12.565477885922826 18.42193971329445 35.588877770511516 0 0 0
1230 5 13.031840499252585 18.746667448064812 36.44323181559325 0 -1 0
1822 3 12.25934105119226 13.730660333071242 36.34291075948916 0 0 0
892 3 11.1213135473886 17.8036038741579 33.436376295621784 0 0 0
893 3 12.643349731953528 18.073820282734133 33.35098133320655 0 0 0
894 5 11.842078802068352 18.29075678652329 33.91798469571434 0 0 0
1240 3 11.562720927267296 16.07103823285501 34.92885441144132 0 0 0
1241 3 11.423315785017607 16.43420247574801 36.37713740778115 0 0 0
1242 5 11.1971171870694 15.699589957227332 35.762546309367096 0 0 0
1874 3 14.494729158954058 17.357554044192376 36.41321921365453 0 0 0
839 3 8.68735765541761 0.4360225762820179 32.62177625988315 0 1 0
840 5 16.15272838003815 18.78537277113125 33.19264504928002 0 0 0
1660 3 11.11978707118765 1.2002968787895054 34.907092736390865 0 0 0
1662 5 10.667755911427477 1.0430056972585384 35.76133097882776 0 0 0
1875 5 15.390717467965706 16.980985920143056 36.35854796474386 0 0 0
1991 3 15.758754726390947 14.722828399947188 36.276098586878646 0 0 0
838 3 16.558520036618752 18.15687787794686 33.76604921854265 0 0 0
1031 3 18.98938627820032 15.853755836501481 35.94488203432687 0 0 0
1558 3 17.8651036133722 18.03711870858635 34.92737854181901 0 0 0
1559 3 16.75736703471558 16.928519274203374 35.53013869225285 0 0 0
1560 5 17.62161993537608 17.098739887300262 35.07791881895224 0 0 0
1661 3 11.393276136095885 0.8043795783933034 36.35808181308154 0 1 0
883 3 22.88068951642341 18.408108471426942 34.704363334935366 0 -1 0
1676 3 21.741785051109957 18.31138896184472 37.22999395148739 0 -1 0
885 5 22.0459912876316 18.113803271956357 34.343276843160154 0 0 0
1032 5 19.449037641629268 15.050985378808932 36.2709515863412 0 0 0
1909 3 21.69945102478419 14.975884847620716 34.17489585973843 0 0 0
1910 3 21.144346224813617 15.113984392460669 35.53326544445581 0 0 0
1911 5 22.01191364951375 15.266184632057136 35.05156564969775 0 0 0
884 3 22.026423142330714 17.15390359745672 34.629400595943636 0 0 0
1675 3 20.732856429855353 17.52168669581937 38.00856207946616 0 0 0
1677 5 20.819638541921833 18.320427834682697 37.471957150367174 0 0 0
1139 3 19.853827355749395 15.395460551053214 37.15958397129762 0 0 0
1341 5 24.259308212795723 17.553341143779235 37.40421989671404 0 0 0
1655 3 24.979452058032663 18.55956609781355 33.38843018959602 0 0 0
1507 3 26.74071318517845 15.650354931880143 33.27943761820326 -1 0 0
1509 5 27.07532119992065 16.54921683423347 33.21569990329775 -1 0 0
1654 3 25.593979279412892 17.621041254323046 32.35749945982461 0 0 0
1656 5 24.9098026028435 18.322359137082742 32.43048204712777 0 0 0
1577 3 19.63189107980407 0.6008733001994719 37.51866684133151 0 0 0
1578 5 28.341070748187683 18.882372799254334 36.714055776880244 0 -1 0
1057 3 26.76813118530302 16.35787217810592 35.15591094729447 0 0 0
1059 5 26.63562058714072 16.26819207835726 36.121994976514685 0 0 0
1340 3 24.860657469448192 17.006633653037206 36.89487086130116 0 0 0
1576 3 27.721945715193108 18.232831795216185 36.333354413616604 0 0 0
980 3 3.3186487257614927 2.1752026836635534 38.645942625555264 0 0 0
1034 3 4.767347822896515 4.4935195568470245 39.82129303412006 0 0 0
1109 3 3.8102344623086655 2.2511651122521807 40.92383075807015 0 0 0
1110 5 4.45534115140177 2.6286786385852707 40.265547006686745 0 0 0
1506 5 2.6959863250118024 1.7902049637528181 42.17984137607941 0 0 0
1108 3 5.390941062963002 2.37067769791957 40.42661305121126 0 0 0
994 3 8.432160812458465 2.868929038622872 38.42450690393623 0 0 0
995 3 8.384533074031912 2.9122191127418398 40.11167689202287 0 0 0
996 5 8.893811036587513 3.157684046860863 39.239834362069615 0 0 0
1977 5 7.4901044911608325 2.217357313345599 41.16896338353176 0 0 0
1975 3 7.429229069222282 1.2423042877883732 41.14543320786001 0 0 0
1313 3 8.484800338079665 5.208781521609835 39.01112403502954 0 0 0
1976 3 7.64549741931343 2.1528038606734516 42.15072411723126 0 0 0
1178 3 10.520056911807666 1.919332450663752 39.41989704033992 0 0 0
1168 3 16.055893254242875 18.131322112384396 41.84916705632628 0 -1 0
1170 5 15.212863540002445 18.242113059552338 41.382284510931385 0 -1 0
1724 3 13.801060677995482 2.7240257451181837 37.84990280187637 0 0 0
1064 3 11.405541639470378 1.7146963106822866 41.53417515739807 0 0 0
1177 3 11.626957969693924 0.7717939807097898 39.66552771850678 0 0 0
1179 5 11.454599703754159 1.7354130240910617 39.6597202935167 0 0 0
1192 3 14.171460001483206 3.2481878772852117 40.068499146487156 0 0 0
1193 3 12.633125877856811 2.910628521928365 39.74582736574517 0 0 0
1194 5 13.425520488327134 3.493130703909226 39.47557050640603 0 0 0
1723 3 15.262573689027656 2.554437503060487 37.45191807316402 0 0 0
1115 3 14.979296739101022 1.3249712613103362 41.30366084543358 0 0 0
1116 5 15.423046753324906 2.165503277495906 41.00772750936504 0 0 0
1743 5 16.656621142338473 2.962368001900459 38.66791678359127 0 0 0
1114 3 15.951723145541887 2.3334109896888635 41.8530484920868 0 0 0
1330 3 19.515470664547436 1.8591257312445686 39.793116323336676 0 0 0
1331 3 18.243108567488434 2.083406204942877 38.824545563912565 0 0 0
1332 5 19.022032754852937 1.4879797368024756 38.9880775580897 0 0 0
1742 3 16.222549135755095 2.5834078269850775 39.44157563334018 0 0 0
1741 3 16.68210371046589 3.957824743183231 38.91688023190943 0 0 0
1505 3 1.8427070273759494 1.7707986701779213 41.768231245932384 1 0 0
871 3 20.836700355650443 3.2660822458488856 40.90143154565767 0 0 0
873 5 20.49192966454539 2.32962823211976 41.10047204673212 0 0 0
872 3 19.95176749005074 2.4859683322595654 41.973726222206636 0 0 0
1035 5 4.698211638664993 5.296824830083976 39.3368309379305 0 0 0
1033 3 5.365751467936349 5.895888302674374 39.704188364773415 0 0 0
1648 3 6.198373489583272 8.49142537868401 38.8609101888631 0 0 0
1988 3 6.662449839186707 7.752481249867706 41.147204728752854 0 0 0
1312 3 8.960274985887493 6.313404159606946 37.96493840091307 0 0 0
1781 3 8.986379167986884 6.601192543125426 40.49864052375041 0 0 0
1314 5 8.666013893023427 6.172571697762509 38.851169077494745 0 0 0
1649 3 7.411544044610234 7.408503356703876 39.06795799280265 0 0 0
1650 5 6.494356189690928 7.699705516824109 39.33164921897156 0 0 0
1780 3 8.73103724160752 7.2013749635912365 41.90353256386895 0 0 0
1782 5 9.343903466915993 6.599125745393304 41.415996293034866 0 0 0
1866 5 8.893053164164025 9.717442616801463 40.665633055981615 0 0 0
1865 3 8.526491287334153 10.499673494388592 40.23353120921283 0 0 0
1161 5 5.535575602451346 10.609404327763134 38.14537054259689 0 0 0
1320 5 11.45200691596176 9.125067601246128 36.597330217114774 0 0 0
1211 3 12.596166902606871 5.5818641777592575 39.137856146875535 0 0 0
1210 3 12.717019708972122 6.898095187908148 39.87962608929196 0 0 0
1212 5 13.1521845014796 6.361269908683049 39.17109771721704 0 0 0
1600 3 11.709256717761662 8.543574625651676 41.16543506676439 0 0 0
1601 3 10.884117295357791 7.174111468331192 41.10764458912803 0 0 0
1602 5 11.798807404817659 7.570292796116209 41.12513797787332 0 0 0
1621 3 15.097638846074272 5.682229822124697 38.92704608386326 0 0 0
858 5 16.556141481967252 6.224755903161347 41.86938235121734 0 0 0
1351 3 18.623022871592482 8.434524680942067 38.677862452637385 0 0 0
1352 3 19.356420207543977 7.162198483948211 39.13636677244048 0 0 0
1353 5 19.01880624779519 8.004778878636946 39.44658630964069 0 0 0
1433 3 18.2272947613748 6.173262285910603 42.14075243258385 0 0 0
1434 5 19.133250108193742 6.072795215878922 42.47828148678879 0 0 0
1622 3 16.164524374351693 5.686774117568996 40.05592662971408 0 0 0
1623 5 16.0904159060744 5.547121053302769 39.06560350196574 0 0 0
1843 3 15.947402894569723 7.673696898840707 39.34890136866325 0 0 0
2006 7 16.174117049750734 8.969299330274133 42.768971541766064 0 0 0
857 3 16.415346062891068 7.173176500338045 42.0575676048157 0 0 0
1070 3 20.275601148946585 5.016270714903712 39.513662204681 0 0 0
1071 5 20.598351027609816 5.306780349469456 40.42923405915623 0 0 0
1432 3 19.6903423782232 5.874477005533484 41.64722995010486 0 0 0
1922 3 20.06197662077893 8.213527112747139 40.97213207620216 0 0 0
1921 3 19.75309355017359 7.7178060336390875 42.39809341368965 0 0 0
1923 5 20.138078781304877 8.48301708302397 41.898298405780054 0 0 0
962 3 3.102925858289025 6.061219075307457 39.22588415959295 1 0 0
961 3 22.67991143448164 7.352823358236725 39.87139103977381 0 0 0
963 5 22.518023511960507 6.476384261765303 39.43423223496828 0 0 0
1069 3 21.50294360686236 5.8387650305682115 40.22275668930662 0 0 0
1348 3 22.08947536867511 8.634104614155866 41.55556595127989 0 0 0
1349 3 23.697566912605943 8.833911711580333 41.36904384375123 0 0 0
1350 5 22.83611943753975 8.72691742797617 40.92458102859956 0 0 0
1939 3 22.483937396384285 7.139615362071174 44.34454777033072 0 0 0
1160 3 25.12140184695818 10.70348356135667 38.78503301919892 -1 0 0
1518 5 9.470708593013372 12.925709756653774 37.46069156145872 0 0 0
1159 3 6.34153511684097 11.062931045449185 38.48719903442979 0 0 0
1864 3 9.60151715514169 10.002570002739365 41.288526276469156 0 0 0
1870 3 8.246528984558088 12.050383639935282 38.73399710957602 0 0 0
1871 3 7.379189658204293 12.233648928905058 40.12522498726881 0 0 0
1872 5 7.705325038917043 11.567622557405807 39.40168743314011 0 0 0
1516 3 9.685158354633316 13.698179313930847 37.98228226344936 0 0 0
1062 5 6.610339659678177 13.145780047457967 41.39718061640062 1 0 0
1060 3 6.837611390710531 14.084502186815415 41.48853110308336 1 0 0
1318 3 12.438628978171133 8.90356928554654 36.74581105698631 0 0 0
1224 5 11.569789139240287 10.344151730656185 41.32795599591451 0 0 0
1222 3 11.954776073200943 10.765842435686858 40.50832560143435 0 0 0
1223 3 12.23481269797191 10.418391701481417 42.05328019304751 0 0 0
1270 3 13.020702039282707 12.053002592096018 37.941991159356476 0 0 0
1271 3 13.817607314272577 11.32803681599851 39.09677172067201 0 0 0
1272 5 12.830757338942366 11.584495873859263 38.81715142327755 0 0 0
1814 3 12.872658449596184 13.193580651094505 39.813782426285414 0 0 0
1815 5 13.25028179389732 13.474308896840906 40.645052449391954 0 0 0
1813 3 14.318525111709128 13.544060788099841 40.65502707598198 0 0 0
1150 3 12.381892671537628 15.16960491541251 40.878025368383874 0 0 0
1152 5 11.754914706345279 15.934090418646383 40.822670328667016 0 0 0
940 3 16.061081628679013 13.858060941611821 38.61351736775657 0 0 0
2005 7 14.434728809739452 10.41075341364812 42.56804047673546 0 0 0
1773 5 15.308821487124336 10.867090592455646 40.125718841880655 0 0 0
1249 3 15.481900712767306 9.946867486651962 39.81196088852458 0 0 0
845 3 18.36424444981315 11.957734488235408 41.517602879326134 0 0 0
846 5 18.153876379596092 12.70515517595584 40.89537440613039 0 0 0
1739 3 17.47026780929182 9.919920336356983 42.483394617876215 0 0 0
1740 5 18.312505718122516 10.487547005513417 42.4229144314113 0 0 0
1771 3 16.17855811671955 11.379119266841133 40.02788198697972 0 0 0
1772 3 14.86481639553409 10.572453432991539 41.64237358044582 0 0 0
1738 3 19.060236420996993 9.914150898415778 42.11908235817796 0 0 0
844 3 19.05098224213785 13.030193743833921 40.6073621407279 0 0 0
941 3 16.768582466915703 13.637941332536121 39.909143142141616 0 0 0
942 5 15.927542295094952 13.96694731738208 39.598018565334556 0 0 0
1722 5 23.51670939136612 10.867921665848497 39.44795740255573 0 0 0
1994 3 23.228820790224752 14.677642804193278 38.06249952997163 0 0 0
1721 3 23.0870100864611 10.096298226929443 39.84629215685689 0 0 0
1183 3 21.27243709090584 13.378684693239174 41.04599391017037 0 0 0
1184 3 20.773597395349142 12.46259827977819 39.88454384396189 0 0 0
1185 5 20.702109349370026 13.372749131858296 40.27327562420115 0 0 0
1357 3 23.342154505934268 11.908366424106315 41.1347639292092 0 0 0
1358 3 23.54758555552995 12.96519684867375 42.24441582257417 0 0 0
1359 5 23.06712505589072 12.144250526935611 42.03714471070066 0 0 0
1138 3 20.205121620685254 15.079639586791666 39.06202214477685 0 0 0
1238 3 23.292207408278998 15.05689061586777 40.097996290519276 0 0 0
1720 3 22.895663713283483 11.2462447352883 38.82973429769949 0 0 0
1239 5 23.76637185115139 14.865103000832251 40.964800499266076 0 0 0
1690 3 9.79226055660972 16.02178997853563 38.225619486981415 0 0 0
1692 5 9.790231208230969 15.351091613254171 38.90957716885609 0 0 0
815 3 8.1285949452742 15.22821557042904 40.10579580175863 1 0 0
816 5 7.485420579896373 15.581416645383156 40.75031842341551 1 0 0
833 3 8.92603261154981 16.1057932560621 42.083737152181314 1 0 0
1810 3 10.74261329323314 18.815970778513254 37.99484966217176 0 0 0
1812 5 10.341259950628539 17.9172038568384 37.91777266743466 0 0 0
1691 3 10.568048896097965 15.453711076654171 39.479866245555485 0 0 0
1634 3 12.465169033563866 18.83260453991172 43.14325088714335 0 -1 0
1151 3 12.046794050574187 16.7963768440652 41.1461515364409 0 0 0
1635 5 12.769758008581874 17.9777901011865 42.637118728029705 0 0 0
1873 3 15.745842603901117 16.925874733188266 37.315713737225806 0 0 0
1169 3 15.358141722670185 17.824809074691885 40.458551606391254 0 -1 0
1729 3 16.0888239036439 15.839844456418863 39.28203246801205 0 0 0
1730 3 16.842763966893756 17.155746832078066 38.782695079118454 0 0 0
1731 5 15.96818290838712 16.776665493158184 39.029093231769295 0 0 0
1363 3 18.948894388522447 17.044192407476515 38.36373214268724 0 0 0
1364 3 18.58836520902723 18.27973703341737 37.59763324369534 0 0 0
1365 5 18.18752472258263 17.612481798072793 38.196597599292616 0 0 0
1132 3 19.60750960223976 17.489268402637997 41.314096851171755 0 0 0
1207 3 17.654721435342886 14.13330414214041 41.89676804231743 0 0 0
1545 5 18.440278231605014 17.093895172026855 42.23277225268387 0 0 0
1543 3 17.971123279964054 16.183340718538005 42.12938948295431 0 0 0
1237 3 24.46271635379007 15.474933718241248 40.96804050947799 0 0 0
1993 3 21.946149607163356 15.71022781674316 38.51988086375336 0 0 0
1995 5 22.94307762715168 15.507286123173007 38.586026860521855 0 0 0
1133 3 20.359989783224023 17.24441482016516 39.82550782882207 0 0 0
1136 3 21.70511855884076 18.319290461287608 41.41428234220234 0 0 0
1137 5 22.535679658692352 18.666189673734785 41.89910560995044 0 0 0
1140 5 20.295226558544492 15.9104250025778 38.52132194686517 0 0 0
1144 3 23.988851703866665 17.689265490261555 42.18857392710774 0 0 0
1146 5 24.89045748846275 17.38718087925068 42.50278367260151 0 0 0
1339 3 23.713374272341177 16.996654295202262 38.0124913863187 0 0 0
1134 5 20.37903781269418 17.787493117153417 40.662749527949074 0 0 0
1145 3 25.441258873464747 17.51759702989004 41.705503295905174 0 0 0
1978 3 26.602786829894477 18.400200691571264 39.442507419912815 0 -1 0
814 3 27.42296367330112 16.31922359839568 40.132873430683006 0 0 0
1979 3 25.640054702694407 17.456404958691053 38.693278381176526 0 0 0
1980 5 26.089749214099605 17.554993453924155 39.513300326446924 0 0 0
1504 3 2.4158458646163616 2.4151914827589804 42.88866412015756 0 0 0
1423 3 5.473197237421877 1.9899022803865556 45.882497975316 0 0 0
1424 3 4.22720377899409 1.7040857484275735 44.9612735711835 0 0 0
1425 5 5.116538424163511 1.4400200402804726 45.15117865089303 0 0 0
1795 3 4.421737009507472 4.412259750287566 42.176067625933584 0 0 0
1797 5 4.0942473687676015 4.482721638603414 43.10154570944448 0 0 0
1796 3 3.6072834628007797 5.322966012815979 43.3121521347865 1 0 0
1471 3 21.041141345514404 1.7374516970373035 47.91996357500847 0 1 0
1438 3 9.211144140182453 3.3104509444912877 45.83894032682356 0 0 0
1439 3 7.685020724752007 3.6355116378621846 45.42488642879745 0 0 0
1440 5 8.298636723456832 2.914094442384232 45.66199667427125 0 0 0
1474 3 8.325127063653087 1.8276329139741931 44.31323368405714 0 0 0
1475 3 9.309667363960115 1.1987681863979576 43.22112041902639 0 0 0
1476 5 8.44731343469962 1.1147171844678363 43.58538122843379 0 0 0
1590 5 10.594858965382537 4.696094127368345 46.00697222426335 0 0 0
1588 3 11.559978015230422 4.437251316918707 46.15458622071887 0 0 0
1063 3 10.614606744105055 2.657509354758006 42.352951743356385 0 0 0
1065 5 11.088458262672457 1.7906038103740984 42.43588915073188 0 0 0
955 3 14.272960330283754 4.033217094132374 46.55775328179867 0 0 0
956 3 13.503997854687654 2.959160516176997 45.91654860652824 0 0 0
957 5 13.350815407667868 3.753751389889585 46.44394877641065 0 0 0
1446 5 15.407257173862568 1.5104155767830034 47.26060028451937 0 0 0
920 3 12.761506941734478 1.654540697652628 43.832071731029814 0 0 0
1445 3 15.362001113452704 0.6029572376061929 47.68458132120786 0 0 0
921 5 13.642134524499077 1.5762052707535315 44.198475516678144 0 1 0
1587 5 10.230567433249163 1.3400576777675837 48.015509190556756 0 1 0
912 5 16.474412272774728 2.756021883060691 43.559358532582365 0 0 0
1444 3 15.62327859403457 1.2436508060632376 46.33401534218295 0 0 0
910 3 16.44595716700112 1.9502924282195835 44.16392960810596 0 0 0
911 3 15.84144403337601 3.448906538034107 43.930411156725114 0 0 0
1187 3 19.31219744804004 3.6525415203344664 46.82983903039087 0 0 0
1188 5 19.35727117336399 2.70451301140718 46.9782920416536 0 0 0
1300 3 19.377022981937834 0.9563091743218335 46.4410899788725 0 1 0
1697 3 18.28103853735348 3.2299108186036367 43.38721275813076 0 0 0
1944 5 24.839426279593518 18.815133696471342 44.768073632356874 0 -1 0
1942 3 25.694859763616577 18.641230173775753 45.213605214370844 0 -1 0
1121 3 21.098362443134917 2.8050227350123436 44.387894950745334 0 0 0
1120 3 1.6097508955072628 1.6710994258826262 44.86349931184877 1 0 0
1122 5 1.6157735783234595 2.6076806946608477 44.81655062382566 1 0 0
1698 5 19.226542986917174 3.412881137035282 43.19665833507119 0 0 0
1696 3 19.22278341623113 4.396137888113438 43.17293039525734 0 0 0
1900 3 21.452900501925313 4.763717811432626 46.93358658465948 0 0 0
1147 3 5.182321686059176 4.348751813878393 46.639121442411664 0 0 0
1201 3 5.4124557078765605 8.84693349967427 42.66081705183008 1 0 0
1203 5 4.488522520982585 8.828006535369552 43.04347723133577 1 0 0
1901 3 2.714412348286874 4.582047944730589 47.00747619519022 1 0 0
1736 3 5.329735959832558 4.2308530045394654 44.295598235172676 0 0 0
1589 3 10.69162016383352 5.600431771578067 46.35764761838834 0 0 0
1737 5 6.007138134347295 4.407235394143822 45.03954062687302 0 0 0
1735 3 6.478500221558273 5.245071437553302 44.79672201456131 0 0 0
1987 3 7.696323968760365 8.811633852383475 41.71154950781305 0 0 0
1989 5 6.92249552928142 8.222613675199351 41.97047155669037 0 0 0
1879 3 7.495137756747225 7.269475789170388 45.04810541757112 0 0 0
1880 3 7.062280235544445 7.019470530537395 43.582980843473095 0 0 0
1881 5 7.41049767804522 6.544002859223931 44.35388807070784 0 0 0
1826 3 9.26017080606688 10.072009999196073 45.44002929011836 0 0 0
1706 3 9.986203185385 9.202258340379451 47.24221097344888 0 0 0
1337 3 7.3290635227922944 10.216629754902026 45.46165345940854 0 0 0
2007 7 14.81964583102414 9.300283178961202 44.60185556857175 0 0 0
1407 5 10.012294014398014 4.1487867197813 42.89968270818778 0 0 0
1406 3 9.64337221128787 4.958442549720765 42.522826672936816 0 0 0
1405 3 10.051416813493784 4.31354120610543 43.8641640863097 0 0 0
1075 3 12.276245416095879 6.526671002297755 42.45610448136753 0 0 0
1076 3 11.879443252663004 5.171309512251172 42.97901836116614 0 0 0
1077 5 12.437836940468912 5.9405533954111 43.21074884793411 0 0 0
1465 3 12.812269224008366 7.380283007319999 47.13394427303223 0 0 0
1828 3 11.088046947289563 8.05513909156885 45.606706066527664 0 0 0
1829 3 11.838548159085718 6.985682827551272 44.71937845631908 0 0 0
1830 5 11.544939100614414 7.152669659975439 45.632711826004595 0 0 0
1827 5 10.154653311468975 9.591848871109683 45.601143621625326 0 0 0
1825 3 10.86660607668324 10.215905025141664 45.331922798954096 0 0 0
2008 2 15.169677010354745 9.504823549591809 43.364245581338494 0 0 0
1419 5 14.945917636403367 5.112605927000852 43.83248018482492 0 0 0
1417 3 14.082527877443646 5.471038546135179 43.55015307636195 0 0 0
1682 3 15.398720303155521 8.011853860651042 45.111205708849965 0 0 0
1289 3 16.383872266489064 7.761902041210485 47.418975166759026 0 0 0
1418 3 15.242118770964481 5.751432788036681 44.51427394843131 0 0 0
856 3 16.029396786536537 5.735633890099702 42.529814835138566 0 0 0
1681 3 16.854205741609057 7.463099046002653 45.30661333738841 0 0 0
1683 5 15.896998893710364 7.237147618969781 45.611398347375754 0 0 0
1084 3 18.814239457463408 5.58452271075096 48.05480306550726 0 0 0
1085 3 19.12692664600656 6.400556647450063 46.679891007970966 0 0 0
1086 5 19.27881772712815 5.52225232516687 47.171069790550575 0 0 0
1296 5 18.801498930389513 8.131201878998903 46.348601792548536 0 0 0
1294 3 18.704499223330373 8.879412073064852 45.72269600183441 0 0 0
1295 3 18.849903422345 8.589844003667906 47.1938897181315 0 0 0
1941 5 22.92334666902626 6.789354463029476 43.5570613900891 0 0 0
1902 5 22.237272387868643 5.212465553340743 47.30280526425378 0 0 0
998 3 21.217127044488947 8.16877962194874 46.37838679474562 0 0 0
999 5 22.18174407017881 7.8930923329754075 46.4090957910079 0 0 0
1202 3 24.664904342623196 9.574876702643328 43.64177165780106 0 0 0
1940 3 23.570112757037478 7.497010214761012 43.37840606220517 0 0 0
997 3 22.282300103279255 6.952523908818917 46.62824768081258 0 0 0
1328 3 23.564562532264105 9.037062826367189 47.08105607078208 0 0 0
1329 5 24.483818373932486 9.291795153446136 47.360056834528706 0 0 0
1061 3 6.246069052674839 12.732586716018957 42.20168458296443 1 0 0
1282 3 5.5903991739837915 12.05790346305677 44.49216194096381 0 0 0
877 3 8.895804383209635 13.131732110113457 42.37050883872506 0 0 0
879 5 9.34024444749087 12.572238123878261 43.03152457604534 0 0 0
1283 3 7.058628227239335 12.47830042258788 44.19393109030872 0 0 0
1284 5 6.1143626796804575 12.772458971395055 44.09972890329506 0 0 0
1112 3 27.21741407969852 15.423460837153678 44.692547250037464 -1 0 0
1303 3 9.288799171820862 13.779162690179714 44.62296712317432 0 0 0
1627 3 10.437898714173137 14.927938661587797 46.5512611403628 0 0 0
1338 5 7.935386089936537 11.00066472776435 45.45856468169927 0 0 0
1336 3 8.007259945930135 11.185326929804528 46.41390784195309 0 0 0
1726 3 12.636443719797102 11.705238355260141 44.512582929878675 0 0 0
878 3 10.34435886593676 12.870732201437091 43.02263049979193 0 0 0
1375 3 12.666586212798359 12.9148954645554 42.408500163633846 0 0 0
1376 3 12.344872344430913 13.800757460751536 43.65006324345528 0 0 0
1377 5 12.230444823200795 12.912570188853683 43.253719573752335 0 0 0
1727 3 13.393716259427425 10.373876319913592 44.805742125246454 0 0 0
1728 5 12.52690354523248 10.84508844107119 45.0353026735589 0 0 0
1180 3 12.687398624034094 10.777498382316184 46.87910443928442 0 0 0
1629 5 10.971530559659886 15.069868463270375 47.434764689424725 0 0 0
1198 3 15.203705927311255 14.49162233269319 45.996672304347356 0 0 0
1912 3 15.4774946716688 11.072791504744547 45.30737378907389 0 0 0
1913 3 15.744975283232018 11.993635003426329 46.4516178469115 0 0 0
1914 5 15.928885627011393 11.913946160548592 45.477211355275415 0 0 0
1568 3 18.720022283512193 10.587339999825705 44.118612940455236 0 0 0
1567 3 18.671617491973294 11.424883521612193 45.500352059466834 0 0 0
1569 5 19.054273835408573 10.589434843822104 45.10194728222038 0 0 0
1199 3 15.672072379283135 13.454129640344759 44.97893248427235 0 0 0
850 3 19.41099908814128 15.043658405953462 44.879241737602385 0 0 0
1571 3 19.35235005777455 10.51840549737381 48.06352169699481 0 0 0
823 3 21.269162299465016 10.51021914634229 44.09085305717957 0 0 0
824 3 22.452594260711557 11.209094927631297 43.37333232284104 0 0 0
825 5 21.993196906434335 11.154046673299767 44.25045112719546 0 0 0
851 3 20.035690642144232 14.179961943914886 43.60281520642059 0 0 0
852 5 19.709027493188273 14.138878625515929 44.51810994668742 0 0 0
1334 3 23.8849657037983 11.014630384898876 45.03115030978557 0 0 0
1335 5 24.81135667808403 10.631189838123827 45.09524218995794 0 0 0
2003 3 20.67437901105363 13.544371877618723 45.80172782965511 0 0 0
2002 3 21.530433763623805 12.233764789973838 45.927197211512166 0 0 0
2004 5 21.241147222704512 13.015010917384155 46.4631931021714 0 0 0
1333 3 24.92348668982335 10.253388267940577 46.041358738086515 0 0 0
1111 3 26.29929635390807 14.362749925435995 45.12248312590229 -1 0 0
1113 5 26.383133752359235 15.323016647022285 45.204803848892055 -1 0 0
834 5 9.610875603889331 16.140792733618248 42.71606834215443 1 0 0
832 3 10.419374553888922 16.15030220890675 42.27327007965107 1 -1 0
1305 5 9.167956030589728 14.520997502637574 45.24074391397231 0 0 0
1304 3 9.330233182466854 15.249573218356366 44.60174015267509 0 0 0
865 3 10.445359251209997 18.16301791069673 45.21197683928236 0 0 0
866 3 9.783256244965576 18.298211947095048 43.72986047616723 0 0 0
1633 3 13.742723231967753 18.155599741247684 42.44107363631305 0 0 0
1473 5 1.4284149482514839 1.1295858178711602 48.26191663178834 1 1 0
1200 5 15.544376729738032 14.428347441776452 45.08902661147212 0 0 0
1628 3 10.729699454778075 15.942317565082062 47.72129486212776 0 0 0
1964 3 12.986604842543176 16.26196170123356 43.47252725789626 0 0 0
1384 3 13.466158695234064 18.686654615889303 45.86381316366193 0 0 0
1385 3 13.29937653852714 17.08494521944344 45.82800467430546 0 0 0
1386 5 13.83071811072328 17.825630200732384 46.194122294401794 0 0 0
1963 3 14.140193972708886 15.307809575396396 44.11105173121126 0 0 0
1965 5 13.2008325205549 15.400567048638864 43.874119266548774 0 0 0
1209 5 17.295167772689204 14.913748197822642 42.377415096108976 0 0 0
1208 3 16.939856193458745 14.541185918008876 43.24591136666504 0 0 0
1544 3 18.828404684036265 17.030507361764265 43.131946328077376 0 0 0
1072 3 15.656046074826495 17.37873049984028 45.35361327037016 0 -1 0
1794 5 18.942710155567 16.690831963377583 45.120160041977925 0 0 0
1073 3 16.351288956342742 18.264692820735036 44.18595061828009 0 0 0
1074 5 16.329435385982627 17.303001773523413 44.67314289963255 0 0 0
1792 3 17.99127422980856 17.023238297772323 44.99741667461794 0 0 0
1793 3 19.6154020247307 17.26515746389756 45.57712364034717 0 0 0
1847 3 17.62322004688697 14.501482066880547 46.69228052382286 0 0 0
1585 3 9.554657125622724 0.7261000216724398 48.398278917153945 0 1 0
869 3 21.11451467633927 18.19427733079798 46.90676115631858 0 0 0
1135 3 22.410256701155575 18.928718311940273 42.80849610995678 0 0 0
1038 5 21.599016719700806 14.950097598706344 42.61681600037561 0 0 0
1036 3 21.81962861127318 15.622500890860808 43.28638191788852 0 0 0
1037 3 22.38719323734992 15.052902384597447 41.9977411476804 0 0 0
1853 3 23.808415021450536 15.9403197029117 44.26793065358834 0 0 0
919 3 13.55545080470061 0.8835118422498378 44.93257239605309 0 1 0
868 3 21.956674363969803 17.434849624314204 45.86578188189084 0 0 0
870 5 21.252077375168575 18.113748056665727 45.933841958575556 0 0 0
1854 5 23.28891006883923 16.502947965893014 44.845133236050884 0 0 0
1852 3 24.064782067855624 16.981192454406006 45.259659840494635 0 0 0
867 5 9.605037251756805 18.314049704549873 44.68512808137959 0 0 0
1943 3 24.86002008155446 18.411142807862205 43.858291499722014 0 0 0
1301 3 28.522381083901017 18.53249243184377 45.76047360421147 0 0 0
1302 5 27.567183236499105 18.711506092548554 46.0639818081338 0 0 0
1409 3 26.74480823601788 17.775544224623573 47.31107488631379 0 0 0
1882 3 7.374778611586564 14.728581147448837 47.02111627913638 1 0 0
1472 3 1.6920914861758178 1.4811692416296331 49.118244653513045 1 1 0
1967 3 5.4368589305874 2.8251328121488046 47.92846748652376 0 0 0
917 3 4.595007441599378 1.109820225625218 49.40615124852587 0 0 0
918 5 4.681730798709229 0.4395550619907036 50.11046957075422 0 0 0
1609 3 3.9315248162789733 3.143943253013531 51.79718455161763 0 0 0
1956 5 2.5405415262210553 2.590561404860515 50.987647174300164 1 0 0
1611 5 4.739424562693005 3.723263774150683 52.086305642207776 0 0 0
1968 5 5.9403317791533725 1.9778323352346043 47.89204392717956 0 0 0
1966 3 6.849170520767858 2.373176405766019 47.8580530601712 0 0 0
1274 3 8.868102097002012 4.4599137476134025 49.03009971479925 0 0 0
1496 3 6.3850497921634615 1.9835067622184672 51.21122699509729 0 0 0
1273 3 9.104239920157207 2.937422060988614 48.53742678781565 0 0 0
1275 5 8.682565267847906 3.5201234346813135 49.181032149236614 0 0 0
1495 3 7.671533343030196 2.7741460509812175 50.61951679355228 0 0 0
1497 5 7.398086658314092 1.9348959213207075 51.13384308302946 0 0 0
1268 3 8.282095535553582 1.8103965039421057 52.95253782556257 0 1 0
1269 5 9.166265983213238 1.4688338865552677 53.31898830438172 0 1 0
1592 3 13.091098553002489 3.6782633815784815 49.335793273822276 0 0 0
1593 5 13.26582478670828 4.544716171566364 49.81671457122496 0 0 0
1936 3 12.320113221364627 4.5587222047763065 51.29694698397583 0 0 0
1938 5 11.806542077028906 4.405154321552699 52.17666317217912 0 0 0
1316 3 15.266582429476323 2.8872545132104017 49.426971162713684 0 0 0
1928 3 10.205946304596491 1.1572415986749534 51.74922013055419 0 1 0
1025 3 16.88270843460824 4.501477046251141 46.62285504916602 0 0 0
1024 3 16.384551959537966 3.2262615524353344 47.40228555647053 0 0 0
1026 5 16.17925535624014 4.207491040387781 47.193803753635294 0 0 0
1315 3 15.85051956870978 3.1686631305903923 50.872619636872415 0 0 0
1317 5 15.979101478718905 2.5941218387775407 50.01630086527244 0 0 0
1186 3 18.86862010527178 2.5750472954328796 47.81143717612191 0 0 0
1562 3 17.308508685434504 1.7683158708280933 49.453535987483335 0 1 0
1750 3 19.370222691447452 1.724769280022441 50.21459325063326 0 1 0
1561 3 18.148612249927808 0.48464792578953153 49.00558592593087 0 1 0
1563 5 18.13184126216006 1.4524108511465652 48.86769348546609 0 1 0
1292 3 19.72548127759581 2.8111523186131513 52.41336401171171 0 0 0
1770 5 21.71384559048402 4.577875886848791 49.91483002253818 0 0 0
1752 5 19.89785553456005 1.770992226544942 51.0497168799711 0 0 0
1954 3 1.9943832952618599 3.3924963369943626 50.62548315741313 1 0 0
1955 3 1.8052870615931873 2.0132171212565986 51.34687275345381 1 0 0
1769 3 22.01647267534328 4.965127439278653 49.068921963049974 0 0 0
1607 3 5.100331223444583 4.791330231245193 50.461707345432174 0 0 0
1149 5 4.398368982036303 4.157851151660239 47.216341065984 0 0 0
1148 3 4.385108376699747 4.89014334335795 47.87185605577204 0 0 0
1666 3 4.894864874802072 8.581042545081303 50.175100342929284 1 0 0
1774 3 22.776103684460708 5.8947197027804785 51.24285279260782 0 0 0
1608 5 5.001190902754639 5.2858671609670935 49.62029061874864 0 0 0
1573 3 7.900768598608257 8.61734801209207 47.28654451653466 0 0 0
1574 3 6.390203628639414 8.446090244278809 47.18366685860954 1 0 0
813 5 10.009027830554425 6.265845183242655 49.06188863651805 0 0 0
1606 3 5.038862442771361 6.282912238619133 49.853907076611534 0 0 0
1575 5 7.186735903531324 8.392074624445586 46.616117350162554 0 0 0
1668 5 5.668978846170824 8.06167170134624 50.41341053294954 1 0 0
811 3 9.720101268193467 7.047025068790737 48.59241727281865 0 0 0
977 3 8.084695206957036 10.126777999589253 49.60233992522606 0 0 0
1667 3 6.465131809869075 8.63540524889405 50.187837135925605 1 0 0
1841 3 7.204657445693074 5.766498475132433 50.49639852134585 0 0 0
1840 3 8.765473937788308 6.070289587539793 50.39098383827235 0 0 0
1842 5 8.022144290722014 5.873309779651211 51.04237682545789 0 0 0
976 3 7.550369640107446 10.193076401644609 51.18756157995789 0 0 0
978 5 7.779031405994686 9.581223857053216 50.3820561685838 0 0 0
1460 3 8.969090802813302 8.030952154613248 51.86282385314949 0 0 0
1937 3 12.076166391806927 5.153999366165888 52.766143205483246 0 0 0
1707 5 9.875878953942058 9.000171633137196 48.21474857037997 0 0 0
812 3 10.71330937462861 6.520802935370487 49.70309832269743 0 0 0
1466 3 14.167600178028781 6.7041518359178385 47.309828746095434 0 0 0
1591 3 13.16905068464362 5.285111090838001 49.17082651044731 0 0 0
1705 3 10.759443539740515 9.263963708480633 48.63252083050119 0 0 0
1467 5 13.472714124466606 7.153428354027281 47.843185298947816 0 0 0
1849 3 12.494833827323438 7.950725270921907 50.384019307423344 0 0 0
1851 5 12.164432574629911 7.135543253554702 50.827036008809884 0 0 0
1877 3 14.279994932741058 8.845981950908556 48.95643836692888 0 0 0
1878 5 13.964045216454178 9.426505747006216 49.64171205396714 0 0 0
1181 3 12.991486919719925 10.19025912141822 48.39591125512875 0 0 0
1459 3 9.717339717922933 9.251131589944185 51.449764724945965 0 0 0
1461 5 9.754006835915265 8.501678750300567 52.114299784181455 0 0 0
1850 3 11.376847242057586 7.5376199332179015 51.22904756349601 0 0 0
887 3 16.430488383093582 4.710703145574904 49.46754894420225 0 0 0
1876 3 14.65312379586073 9.352657955002089 50.3559046830093 0 0 0
1290 5 16.38072436328018 7.705360236924977 48.42305854587845 0 0 0
886 3 16.606098062482047 6.2654320931181875 49.358517821125204 0 0 0
888 5 16.996840154484353 5.484816333443039 49.77214684563529 0 0 0
965 3 18.61665800886601 5.861447083648842 50.23200723723963 0 0 0
966 5 19.47737390600747 6.139430772098681 50.57175904531417 0 0 0
1919 3 15.03519294477435 10.371334861039674 52.10860392110719 0 0 0
1013 3 15.665182709746402 7.950951847784893 51.94519060547019 0 0 0
1014 5 15.811849450560644 8.792470695648074 51.488063262556864 0 0 0
1142 3 19.820209380893104 6.195178395533037 52.38492083806281 0 0 0
1768 3 20.806830010072183 4.993310742986695 50.17949602044271 0 0 0
964 3 19.961574221010977 6.71239034852712 49.90444707565655 0 0 0
1528 3 20.637519613841206 11.54310155538476 50.09401220496726 0 0 0
1066 3 21.971529527070885 7.766587245556093 48.810028650785554 0 0 0
1067 3 21.929119001554476 7.640025749756312 50.38166172952256 0 0 0
1068 5 21.327400721082604 7.835263147973647 49.55095725414279 0 0 0
1802 3 23.003969449367013 9.609559483069386 50.026436873394445 0 0 0
1803 5 23.906623126915584 9.93120387359289 50.01563972775622 0 0 0
1776 5 22.913912314201724 6.832563465686941 51.42359151977111 0 0 0
1327 3 24.29432781749623 9.662395065947676 48.301428456118586 0 0 0
1399 3 9.171519561106528 11.503655905983006 48.34611081345558 0 0 0
1400 3 7.789639507304372 12.01812830199027 48.56488050241188 0 0 0
1401 5 8.20728937830802 11.196734999959366 48.14033938693068 0 0 0
1580 3 8.121015799140597 13.608253678777324 50.422565594903816 0 0 0
1581 5 7.54879334660818 13.2175516988642 49.720304439222176 0 0 0
1579 3 6.584541872393931 13.426301543806897 50.02778034532403 0 0 0
1701 5 10.059022990380239 13.871333965259693 51.62364197200816 0 0 0
1700 3 9.956925402873297 13.33107940886635 52.465159854938605 0 0 0
1550 3 10.56767284505697 13.180194899167114 48.800655555055485 0 0 0
1551 5 10.516466824502922 12.225263325875154 49.00875424009784 0 0 0
1549 3 11.393553480592782 11.844254404587035 48.75219835870472 0 0 0
1182 5 12.493855256039025 10.859071462508306 47.87356609528955 0 0 0
1277 3 11.883438150407413 10.79868192646413 51.091103501805065 0 0 0
1276 3 10.628170882227721 11.553941567357459 50.69696914231349 0 0 0
1747 3 12.73507859452819 14.698841097454043 47.16854267637923 0 0 0
1278 5 10.935013620857696 10.876393876428175 51.285841592063775 0 0 0
1603 3 12.066164025942893 14.965324271210472 49.47529273983632 0 0 0
1749 5 13.712082319731834 14.501452007934073 47.36279553403615 0 0 0
1920 5 14.738167623857143 11.067548304079795 52.71525425060251 0 0 0
1604 3 11.453325133979696 14.479534972973715 50.914980958596544 0 0 0
1605 5 12.178417185973075 15.032933865748882 50.43632854734348 0 0 0
1969 3 13.820016824992218 13.830033233630823 50.74938188439394 0 0 0
1918 3 14.479765082643668 11.849425138545614 52.214545136095566 0 0 0
1288 3 16.880226054811587 8.424744514360789 48.82230595715161 0 0 0
1451 3 18.256739327847875 10.825354014903551 49.54739000793418 0 0 0
1452 5 17.64049825812593 11.464478071451385 49.95343607350773 0 0 0
1542 5 15.784957800682234 12.594363758219126 48.15985259692191 0 0 0
1540 3 15.002256974889981 12.769394485916486 48.75855679782654 0 0 0
1541 3 16.44870759948646 12.135980671274954 48.672791253172775 0 0 0
1846 3 16.769372521515713 13.926786126881987 47.855476682434244 0 0 0
1848 5 17.505299886357527 14.539018820686785 47.656948897735006 0 0 0
1450 3 17.625180608158146 11.355727028436512 50.90263893000569 0 0 0
1708 3 20.164111624674355 14.045125790812762 51.50699499677049 0 0 0
1710 5 19.40432711187642 14.61905845976324 51.587481127598906 0 0 0
821 3 18.361746147635024 12.687293840461344 47.60002340461247 0 0 0
1970 3 15.431730487038246 13.722841941007195 50.835789467479415 0 0 0
1971 5 14.58563632505098 13.204282549666651 50.74814901993017 0 0 0
1709 3 18.682928949948902 14.05114864744894 51.310381091827296 0 0 0
1572 5 19.253430383814333 9.672284559677014 48.677271543499714 0 0 0
1530 5 21.302793514572983 11.12935733453239 50.63556128740724 0 0 0
1570 3 20.094387347397486 9.393923234657777 48.97313022376804 0 0 0
1529 3 21.895168940831994 11.918740342317399 50.80776856746377 0 0 0
822 5 18.962125660806436 11.974134004971448 47.35443585192451 0 0 0
1801 3 24.090863541046645 10.594612238026592 50.77648241756083 0 0 0
820 3 19.812354186318295 12.423126325522606 47.134230877100265 0 0 0
853 3 22.10396991647343 14.978551806417078 51.136155579551286 0 0 0
854 3 22.37606096186338 14.083318555030361 49.88373787726266 0 0 0
855 5 22.057644881914676 14.025419125556324 50.798136639279406 0 0 0
1454 3 22.90741076661118 13.983547200044974 47.195718154882044 0 0 0
1455 5 23.596183257510063 14.305218939986615 47.787221414182824 0 0 0
1883 3 7.502294040183754 14.206272813652038 48.52564045348154 1 0 0
1532 3 24.78558737122639 13.670915162270841 49.48580417472361 0 0 0
1533 5 25.321254692029548 13.452206150494469 50.30122480510387 0 0 0
1531 3 24.67304176865973 13.06956131137745 50.89681599518171 0 0 0
882 5 24.696082347535267 11.536240388401088 52.10369294062366 0 0 0
905 3 7.254413851333397 15.04544061791348 53.321948302710695 1 0 0
1699 3 9.499640152323128 14.650329039635988 51.667166472127406 0 0 0
908 3 9.318109359144646 16.486937530288138 50.513425547232515 0 0 0
909 5 8.418319149080363 16.07580062064671 50.62974044184361 0 0 0
1535 3 11.601600131001296 16.643772623898407 50.718718423997444 1 0 0
1534 3 11.368839751483868 18.26200243298532 50.67126543477623 1 -1 0
916 3 13.350354525225633 18.369766330121593 49.69310944089679 0 -1 0
1748 3 13.990854889972175 15.195964802397183 47.95192157071409 0 0 0
1536 5 10.960067073211803 17.350544450813175 50.880667606316194 0 0 0
926 3 14.195623759946812 17.56864684813 47.87581676545129 0 0 0
1246 3 10.384190427306443 18.62479989977256 47.389995929175484 0 0 0
1248 5 10.936032388186408 18.00437610889751 46.851884144183174 0 0 0
1247 3 11.866408052949273 18.207823403356066 47.147158180373154 0 0 0
927 5 14.241252471786844 17.20027915325872 48.80075258522605 0 0 0
1717 3 13.115257940968878 19.05652578255711 52.0081570283416 0 0 0
1985 3 13.417749489550143 15.985143452763682 51.33893071655277 0 0 0
925 3 15.130929215209115 17.31764373715864 49.15363586126324 0 0 0
862 3 19.34940811307218 15.972795776075783 50.15323673153567 0 0 0
863 3 18.629581331041514 15.968574527405698 48.82559986344614 0 0 0
932 3 7.887529597845513 0.6013095079100372 50.09453056783252 0 1 0
933 5 16.4961599721558 18.584313794544357 49.454244965678484 0 0 0
1586 3 10.986067324693574 1.3668241012049038 48.62982919024169 0 1 0
864 5 18.996989695349626 16.541508101690496 49.46502674075769 0 0 0
931 3 17.328751455334036 18.349914650706133 49.872137505342764 0 0 0
1927 3 18.864420583799323 18.473911936733685 51.527942990093365 0 0 0
1929 5 10.54315516415738 0.5919388775773596 51.079011335556174 0 1 0
1453 3 23.69749238927899 15.238764531326444 47.43910458416332 0 0 0
1906 3 24.593846027761366 17.0990678321959 47.92990062524402 0 0 0
1908 5 23.645492556012712 17.01504777539946 47.61833673392945 0 0 0
1678 3 12.537906109370804 1.4999042639325317 50.34021262044351 0 1 0
1679 3 13.203361532148744 0.7771597837941382 49.15096449532196 0 1 0
1680 5 13.120646584048409 1.6483989128330494 49.577453361333625 0 1 0
1907 3 23.013746474869407 17.348669809963326 48.32885348179863 0 0 0
1243 3 21.828584029843668 17.38342807705775 50.01286186971984 0 0 0
1245 5 21.417281270273897 17.7155343780421 49.153785866867 0 0 0
1244 3 20.437088299697166 17.437867187803654 49.147759092918434 0 0 0
1751 3 19.515401501247744 1.0605034834384859 51.64356034938169 0 1 0
1884 5 7.517932721508457 14.993358584595393 47.954086092008225 1 0 0
907 3 8.180307338203443 15.649108152524596 49.75756013107045 0 0 0
950 3 27.593766232172058 17.442731794056755 51.3023881114171 0 0 0
1408 3 26.736746505145426 16.508534970632965 48.16693434533737 0 0 0
1410 5 26.28580184967791 17.377181805697234 48.083233921676026 0 0 0
951 5 27.127233560486083 17.965580410343463 51.98844535757371 0 0 0
1616 3 3.2392859516375596 0.765697602561284 56.03146626038534 0 0 0
1171 3 4.314379837075286 3.994627390008789 55.57960857074468 0 0 0
1259 3 2.825444723410424 1.8417075559710163 54.1061367990398 0 0 0
1610 3 5.0204273811787505 3.5845656895082008 52.988464876720116 0 0 0
1260 5 2.6269101389064256 0.8687390180760819 54.11643067410171 0 1 0
1079 3 5.724990791336563 1.3605446708774294 0.9327002619750137 0 0 1
630 4 10.040246351189282 3.850675207519635 56.56349202924187 0 0 -1
1173 5 4.98961795969131 3.544835431692367 55.07313319916862 0 0 0
847 3 9.675017025392867 4.342437831891589 52.951404308345474 0 0 0
849 5 8.808248392692873 4.320901472424834 53.37892238348614 0 0 0
1172 3 5.855686941884888 3.9652748060974963 55.265040143104486 0 0 0
1234 3 7.926399252466128 1.9334462610504444 56.18789175775923 0 0 0
1080 5 6.152332312013937 1.2513760239658382 56.58703809696421 0 1 0
1236 5 8.849404978105195 2.15375646020801 56.168622398645454 0 1 0
1235 3 9.367221089981534 1.5810160055359057 56.758196115893355 0 1 0
1267 3 9.266704380383194 1.8798960441315802 54.18631513342177 0 1 0
579 8 10.443760164876805 4.70260585755336 56.93139878994435 0 0 -1
1326 5 12.75341108175484 2.7543726169196825 55.80727800909506 0 0 -1
1325 3 12.267024478736975 3.620440702694221 55.9556068710141 0 0 0
1711 3 13.17899571237789 2.549628557040508 54.177112869058575 0 0 0
1712 3 12.691188533921272 2.9084434131433046 52.735511329868274 0 0 0
1023 5 13.629711242945886 5.395983170677973 55.18469119272059 0 0 0
1478 3 14.599894314066256 3.389718885678347 52.427964467547554 0 0 0
1713 5 13.293056269641836 2.331908509511046 53.20991179606257 0 0 0
1703 3 12.63462195878257 0.5225622364582561 53.56501964289589 0 1 0
39 8 16.66445657597913 4.638064896236763 56.80806853826057 0 0 0
969 5 16.73374225931559 1.6001697486754378 56.4857066794368 0 0 0
1484 3 18.97485173333274 1.2443466622483426 56.89531199112558 0 0 0
1479 5 15.465420368616357 3.852082756129509 52.3106077290078 0 0 0
1291 3 18.698758066618467 2.8233987188374092 53.536678691652355 0 0 0
1293 5 19.644262352028008 3.1607619371928957 53.35828287438022 0 0 0
1189 3 16.968204333935603 2.469958348489466 54.79276376169915 0 0 0
1190 3 16.600025921700336 2.7907994597699144 53.242192290795586 0 0 0
1191 5 17.03306646450445 2.1173756855358974 53.845123696669916 0 0 0
1141 3 19.88780428815864 4.902368061934185 53.27214394861021 0 0 0
1485 5 19.785105403448895 1.4127961889863796 56.38756714215006 0 0 0
1537 3 20.725564976117866 3.504071662605336 54.68364898061898 0 0 0
1538 3 20.7944875343793 3.156038135506776 56.19339219242303 0 0 0
1539 5 21.077305045854324 3.85423900123934 55.56996537128455 0 0 0
1214 3 22.447135050483666 5.966777348912155 54.88177218005136 0 0 0
309 8 3.05291880712325 4.797794498010771 56.636247701427834 0 0 0
1125 5 4.794316888250059 6.935340629308843 55.720934467300125 0 0 0
1124 3 4.955474539589656 7.072031747685622 54.76406712596729 1 0 0
1639 3 5.578081375350132 7.2823042223144485 52.166994412704625 1 0 0
1641 5 5.489602907295486 6.704372514375682 53.00829594302067 1 0 0
1287 5 8.270484122756637 7.447772201868877 56.30616106227454 0 0 0
1285 3 9.107855950160479 7.855856334399533 55.91230220742435 0 0 0
1897 3 6.909072349954895 8.331170973738601 54.33549506410135 0 0 0
848 3 8.30308384823146 4.837458957619555 52.686758119615035 0 0 0
1123 3 4.301991159690113 6.106513323368524 55.66831211135468 0 0 0
1323 5 7.308192348330131 4.991742224513994 55.735134092695475 0 0 0
1321 3 7.940209249426194 4.819051931775025 54.97006138325824 0 0 -1
1898 3 7.042143748921561 9.457147179321266 55.34107859267061 0 0 0
1899 5 7.035417637889351 9.278089258532376 54.36004945679643 0 0 0
836 3 7.301082331159156 10.46476982432049 53.33429590764365 0 0 0
1983 5 14.55207588041033 7.639644434451046 56.83377940507012 0 0 -1
1477 3 15.163952368729383 4.795915578617213 52.00578863598301 0 0 0
1156 3 9.720589590231564 8.819600340172805 53.99666616372198 0 0 0
1040 3 13.627583606023657 6.679943518772355 52.03529360697159 0 0 0
1041 5 14.462192278326432 6.448579206691507 52.52341820182768 0 0 0
1158 5 10.181148579664582 8.89597113213274 54.863008669473786 0 0 0
1157 3 11.136678699168709 8.873825245122829 54.67774442816261 0 0 0
1974 5 19.979112490506147 8.076269804846566 56.44176912859206 0 0 0
1021 3 14.345750047785872 4.791454468556616 55.475179334059106 0 0 0
1039 3 14.206090277413105 6.3399018494678625 53.477021649600815 0 0 0
1360 3 15.444990879230698 8.413986540759018 55.188340762390354 0 0 0
1362 5 16.237629229616964 8.54976463814152 54.67150116105347 0 0 0
1012 3 16.634493478397353 9.248559190106098 51.941768084312585 0 0 0
90 4 17.139056094795272 5.214193273330613 56.24256774330803 0 0 0
913 3 18.53001486057586 6.281300788658248 54.63402162635093 0 0 0
914 3 17.392182982228135 7.270869179305078 55.03311728723803 0 0 0
915 5 17.970324408024943 6.527612326307481 55.416654317198066 0 0 0
1143 5 20.02136807201161 5.87366875846652 53.25620289076389 0 0 0
1973 3 19.234119234614845 7.458475897240537 56.25061255496939 0 0 0
1088 3 18.552229116286675 10.025142453586481 52.811044822253436 0 0 0
1557 5 23.0289079027664 8.58549528684695 56.18668220882347 0 0 0
360 4 2.2170973578918387 4.466859937036492 56.24008911117414 0 0 0
1775 3 22.89907948519061 6.921959465395046 52.393453598073066 0 0 0
1280 3 20.581318917019217 10.083683927149922 52.10180400527872 0 0 0
1281 5 20.126652998120512 9.279400547677563 52.41007022685149 0 0 0
1213 3 21.511510809707694 6.575663315030143 53.91974950991147 0 0 0
1215 5 22.51657213168444 6.570789592465314 54.151013461433195 0 0 0
1556 3 23.841046706897664 8.055601812674016 55.862769809449034 0 0 0
1640 3 5.348147665650107 5.815299436771846 52.69439045461472 1 0 0
1279 3 20.342910638591526 8.715473801185068 51.605764155947796 0 0 0
1427 3 23.18987118072009 9.752439479847085 54.642044180160354 0 0 0
881 3 5.311426332191974 11.293719614929724 52.28321269675601 1 0 0
1759 3 9.667207616657766 10.599800065341686 56.80167488236984 0 0 0
669 8 6.546999082362838 10.960820717379526 56.78368984642985 0 0 -1
720 4 7.452968612944895 11.33575071422876 56.50891358752945 1 0 0
1761 5 9.290049904244722 11.329420909095349 56.28080440982927 0 0 0
837 5 7.220305089971468 11.10910230289988 52.594711138579214 0 0 0
835 3 7.828861351873646 11.878147493384585 52.82864788215629 0 0 0
1760 3 9.398296562369744 11.090643098752503 55.37333072911434 0 0 0
1582 3 9.471649689018403 14.728494492481639 55.15736037260379 0 0 0
129 8 12.008274095338058 10.371307078525662 56.90644895434039 0 0 -1
180 4 12.226545935580239 11.161025571719039 56.2579292709986 0 0 0
1420 3 13.077565801059029 9.892667261908047 53.7316060451309 0 0 0
1421 3 13.881650229548129 8.573576356282516 53.64318113668895 0 0 0
1422 5 13.015751160304422 8.94618803079423 53.82275125983753 0 0 0
1806 5 10.277679501327837 12.067844802606647 53.6234656036944 0 0 0
1756 3 11.45314645162338 13.042552749028786 55.82422788537497 0 0 0
1757 3 12.80819709832226 13.259574824201508 55.28583378090072 0 0 0
1758 5 12.164916677468643 12.522290778675291 55.38840637821653 0 0 0
1804 3 11.039820887509222 12.28032110063618 54.19264120648333 0 0 0
1805 3 10.68873015104613 11.506708165830416 52.89979677467481 0 0 0
450 4 19.507935744638182 9.676224597528496 56.352886287937565 0 0 -1
399 8 19.195191050323935 10.614625957050974 56.51249871075578 0 0 0
1361 3 16.569670772923068 9.44346321937182 54.87521700065744 0 0 0
1089 5 17.611189161984484 10.350927791997973 52.897222740518416 0 0 0
1763 3 15.81956395808782 12.154433001183701 55.532693172043935 0 0 0
1764 5 16.331933050523 11.79093940068993 54.82815696830309 0 0 0
826 3 16.799740896255088 13.725395261013603 54.57332060901196 0 0 0
827 3 17.22891336788075 15.172358923805238 55.09432983515637 0 0 0
828 5 16.805320602026377 14.687493741089636 54.39023650312576 0 0 0
1762 3 15.74361445134824 11.495380231435409 54.09686860625462 0 0 0
1087 3 17.72293094765616 11.114018747026847 53.54412646058982 0 0 0
880 3 24.198946954322253 11.066354946448918 52.79353340232555 0 0 0
1256 3 20.250549196402147 11.702891939147918 55.06920898184046 0 0 0
1257 5 20.821511880236244 11.891546465943089 54.28595976849944 0 0 0
1255 3 20.83793652401952 12.845405034701418 54.34446263739049 0 0 0
1426 3 22.140360249716394 10.771804482734899 54.06018166884826 0 0 0
1428 5 23.090430169003376 10.399249542573619 53.932741319984245 0 0 0
1950 5 22.23829601398846 16.88357498075731 51.70511497486336 0 0 0
1949 3 21.73361578039563 17.06631225697221 52.56418715816454 0 0 0
1231 3 25.560839218659105 12.34045979734177 56.12811995569729 0 0 0
1232 3 24.798410027450664 11.889250834605749 54.8277045175971 0 0 0
784 3 23.91939390361032 14.052173106294665 55.815059227152744 0 0 0
904 3 26.46685640540411 14.16844362021511 54.002725213169725 0 0 0
906 5 26.650794284366583 14.704860487192859 53.215499151081616 0 0 0
1233 5 25.11550973558979 12.644078829758781 55.338997009709274 0 0 0
219 8 9.01983225950246 17.60276599237011 56.76071664240128 0 0 -1
270 4 8.185763496944375 17.41102896500896 56.28509494804484 0 0 0
1583 3 8.972498229015276 15.668475771625722 54.13123977936142 0 0 0
1584 5 8.673001768923886 14.800076980734238 54.56733391060369 0 0 0
897 5 9.460328959065615 17.32754500422675 53.334475515557884 1 0 0
949 3 27.614060301398382 17.60014666480768 52.75404010618678 0 0 0
895 3 9.528124949921251 18.182448788506335 53.7997869417939 1 0 0
1787 3 7.393105079957543 15.230563745770313 55.97169025890159 1 0 0
1258 3 11.617636222606365 19.0982103998654 53.67530856919984 0 0 0
896 3 10.161931200223451 17.431404347659324 52.645540171700134 0 0 0
1984 3 14.909097153866293 16.206723599320945 51.79941635905989 0 0 0
922 3 10.927167033931207 16.445748060010395 56.27497770585779 0 0 0
1718 3 13.65282374042188 17.789963336454072 52.750682931183945 0 0 0
1986 5 13.995794327022251 16.457652147689423 52.01080085842334 0 0 0
923 3 11.988579473691201 17.499211068053576 56.02096537355803 0 0 0
924 5 11.827392569669366 16.469060467934035 56.11791762549652 0 0 0
1078 3 5.752837919962287 1.6138199532498443 55.81633299983453 0 1 0
1719 5 13.42214097756458 18.823444033852084 52.89160647206009 0 0 0
1915 3 14.00403690635287 15.13202135174468 54.375243355168365 0 0 0
1916 3 13.018688849313547 15.470740728605419 55.62849937194605 0 0 0
1917 5 13.659780586783045 14.79072315785725 55.248694752744186 0 0 0
819 5 18.349245757869696 16.40414216531773 56.01902540432343 0 0 0
489 8 15.462765754196942 17.233122261409065 56.60536937542058 0 0 -1
540 4 14.998532576715478 18.010605061221817 56.18195004435613 0 0 0
817 3 17.583834042886842 16.944705277234263 55.778121013281904 0 0 0
1129 3 17.208323288995665 15.672444452885042 51.04534037860371 0 0 0
1130 3 16.839646294775513 15.278753544060345 52.49046207068491 0 0 0
1131 5 16.53041819911062 15.256308200060731 51.60934314008226 0 0 0
1858 3 18.87508791876413 17.524250674239966 53.2830520766621 0 0 0
1859 3 17.6157190179976 18.453717415029274 53.37555191610761 0 0 0
1860 5 17.877615870844053 17.47810295662957 53.225964126989766 0 0 0
1091 3 20.054896075049278 18.80696904252987 55.58416972804966 0 0 0
235 4 23.545289077717918 18.079867991703544 56.780001336035 0 0 0
759 8 21.276175411375235 16.691982860914976 56.65518445543806 0 0 0
810 4 21.98768696568593 16.182239046179546 56.13200984148223 0 0 0
1165 3 24.07335125471174 19.13165933526672 54.827083712911374 0 -1 0
1948 3 23.223321541115723 17.083041328928317 51.851208338465455 0 0 0
1807 3 19.66734039590927 14.887733171731837 53.94026081185413 0 0 0
1166 3 23.96748142179794 17.66694945497038 54.14695595302666 0 -1 0
1704 5 20.922372308947708 18.384548006773677 54.155753488301926 0 0 0
1808 3 19.969112890165043 14.998359493662353 55.42415876964347 0 0 0
1809 5 20.350147322411523 14.686518272526103 54.64975997355677 0 0 0
782 5 23.659320947887835 14.971539033485367 56.07864145743032 0 0 0
1167 5 23.591260562317622 18.258772779675752 54.87172323544628 0 0 0
1702 3 21.906393665467057 18.433070759770274 54.35849370056819 0 0 0
1483 3 20.361783447306408 0.6060118072758329 56.59576862774108 0 0 0
783 3 24.471737736408976 15.5572478902989 55.90361465118205 0 0 0
242 5 24.69418504976209 16.74861556783376 52.56842860617486 0 0 0
243 3 25.58232645429206 17.208522673482413 52.39112391742816 0 0 0
244 3 25.017587019125727 15.828293905188454 52.721994061655664 0 0 0
1786 3 26.646665578624038 15.777019065435395 56.99436353433187 0 0 0
1788 5 26.971265162685896 15.928130758928068 56.10595949995795 0 0 0

Velocities

271 -2.720197978183312 -0.27012182229716136 0.6708034714060397
275 1.8588091326194554 1.0744580019726075 0.41056336478444244
292 -2.0287672689810368 1.6844420794415103 -2.3582108445906784
296 -2.4265499900876892 3.699228462271983 -0.18208141788753
1615 -14.987708077810867 10.696605011166996 -6.38588352187396
1617 1.9199424202264945 -4.812589386717794 -7.6803459728522245
304 11.104709382079195 2.5875375490585517 -5.402052462550978
300 4.256147216110227 -2.753814335382615 -1.6847320870508111
602 0.22123120130793647 1.753005046316494 4.532919733794603
603 -20.511384690866095 23.53564322811367 3.2316789867371214
604 7.4885642540930615 -17.11481971133703 -6.25644844104748
586 -2.5884254659617136 4.17675357845108 2.0665656717515968
582 -2.2220040604761637 -1.2053371542481899 2.8363769143728765
1322 6.617936763466624 -6.572582172017095 31.203661963696913
557 -3.4896671981774428 0.4442402940822895 -4.423336866642618
574 -0.6286284567473077 7.539131296753341 -0.6581749438579296
545 -2.476191626563123 0.6794127348519018 -1.9755967718580738
562 2.2876582597555273 -0.31470915673637534 5.425497674469155
62 6.869763980782487 -4.2178686093233555 -1.9513134413339528
64 0.526855061194598 12.636097796545842 21.540260595821987
541 0.81323757492361 -2.4981893946757037 9.752713177614002
566 0.2292321332694166 -3.3289704474686426 3.7912700548612643
570 4.753703633781173 2.439582959993816 4.454024159823383
1324 2.4946106921216944 -15.725212014488585 -8.469746224467848
17 1.7086031779754434 2.9385573737406454 3.4033431485872323
46 -3.161222152969678 6.90190655266165 -2.0129237770467223
1022 21.709637854138307 -5.958564564750734 -0.8354870289650967
63 -14.422795309655696 -11.81509796069043 -5.966036835817225
1 -4.0528932339249195 -0.7484357336494412 0.11641124532127729
5 0.6031619785919007 7.121637972901024 4.124764761960717
22 5.24627600915234 -9.492184144670595 -4.465889221642437
26 2.4966225792387955 1.3780087977488162 4.924806323718766
967 4.433788012516333 -6.519527520207121 -0.9219400324358544
968 6.005524481330643 31.954837658378647 -27.531515733760116
30 -3.8189958871884113 -4.58457269709398 -1.646736187654751
34 0.47620051601850255 1.554371800958062 -2.8283036146922895
333 9.903067219172344 -11.779733771555955 12.61631511994417
332 3.5309642553339318 1.1349591055169292 -7.226030498489354
334 9.844569870297615 -3.5890538491476027 -7.446287217193938
316 3.3450467572144764 -1.1987101015987638 4.129093898318665
287 1.7764088837838155 1.3286202950516552 5.605620692426857
594 -3.426280310123861 2.520827936180965 -5.1686846929204115
595 1.6646594875183127 -0.09684604653169142 -12.938215524588292
694 15.279798786024664 6.664681321870767 -8.013713910909177
556 -0.7891636139755795 -1.1390045634971906 2.105537637032057
152 4.217991604458943 -3.022015263203547 2.729195657656356
153 -13.465916304010706 15.447238617585787 -12.799049675871888
549 -4.7584836832680875 -5.909120132805982 4.071244745015124
631 -0.3239579019166903 -0.29978107234626034 -1.3982952322649296
652 5.14267904177834 -1.7544548773265862 -6.630497575810697
656 -5.361134297528596 0.5748054914933775 -1.0621855912942952
664 -5.475703037073442 2.6478123155842885 -0.8404027794698103
1286 -18.991006836166427 6.789426489854521 8.0547769237209
660 5.001194409589678 -4.403027105375276 -0.10365574805206293
680 -3.443148478283534 0.20686505653290696 1.1140524466382784
107 4.025879062816872 -4.907575213334635 2.1927071498270045
54 7.135282027190505 0.2403733251930241 5.3412818610234005
55 -25.06625400407726 -21.31941312767717 17.97355639517952
154 3.6515725114107362 21.708538086105417 1.0821335062565727
91 1.4855385969621049 -2.1250288022200703 -0.39808185610728586
112 -0.4684272473294049 0.1769608598957429 -6.686023727704204
116 -4.67035896910058 -7.034926344427126 2.323627615481983
124 -3.0440024048980407 -3.6721327212785035 5.899671031744879
1981 -2.701064206670616 -3.5622370502634872 -29.39910888487633
120 1.1203599610141812 0.8259172519778629 -1.245114709402829
16 -2.6796356339558964 0.22866467625423573 0.8098493448921599
1982 2.5252163824318656 -23.646324846249634 -7.528786202552199
9 -1.9894044252046452 -1.6801481607959965 -1.08741788459854
42 9.615630978996492 0.8174744139387825 -1.1358221147588017
324 3.2436086406626146 -2.904380909503554 11.513827976609964
325 29.850500944959137 26.22864518936625 12.293037809117989
422 0.8427540254165881 -1.5626586561358775 2.143328956652437
423 -18.870905322424335 -43.41737019498233 15.998978406146806
424 26.02103213806799 15.449577512307373 -14.925229755937305
140 -2.103667072487902 -3.1606239507219134 5.072952801987027
394 -3.408870049496111 -1.7394934948157585 -2.860045873411768
1972 -10.06375824194747 -9.798102001097783 23.14364706476341
382 6.068104082592764 2.665623695490124 16.380522602455233
286 -1.64889709089803 -0.29968837172466345 -1.3565593319996334
279 -1.4773989711653521 1.489353450247733 -0.2871470833349121
312 0.6201320166723558 -5.560965454159631 -3.343197443113639
361 0.33967799021547 3.921401848898756 3.610859787132682
386 -0.44986978663068106 0.08233048539344685 2.6145280242191333
390 3.221333991837583 -0.9870652428492002 0.9759060270304114
692 0.1564503347497275 7.57803434966763 -5.8081294413191324
693 -13.007050992921242 5.091237875454123 -12.943486115332176
1555 -13.47709542109929 18.42947940852347 11.312761471284402
410 9.33574003829533 -3.802165933189581 -7.194380453383699
647 -3.0677059994184623 4.342384205994817 0.4595321125946657
144 7.962610935081491 2.8103545688589118 1.142485398178706
145 -2.714076017464648 -12.319267179898109 20.99462187899789
635 1.828063871768691 -0.9213810305404068 -6.405936066505242
1043 19.359476802241495 -33.05913511542649 15.595309361332815
1044 0.3832871209596138 4.388676014652835 -2.400246630217232
1042 2.9022088085890436 1.2559979339512446 5.430273025310139
214 -1.1862576361379171 3.021153326302869 -5.438959545372359
106 -7.449554696167559 3.8246854684107188 3.006168418839973
136 -2.6364505851527045 -3.2306329384324832 -3.405846978065012
95 1.6570654281970223 0.4287419433146916 -0.06558916198267915
99 -0.4296000386416823 0.12535026736627033 1.8068369769088217
132 0.5799077376114035 -0.4842691649296055 -5.875383196051238
206 -8.12238305448885 8.753810430732601 7.257214539338363
414 1.1332935678608063 0.8433515928874301 6.885278602139762
415 -0.653414420777729 -19.15308901558326 -3.899725735125539
514 -0.8989614198794244 17.340724493744567 4.9548537864174484
1490 12.115149727226857 -16.555899784253732 14.80689326761813
484 0.8638459626192544 6.543560198976613 -2.8145237292239913
230 1.7947971006256385 -7.706412961754046 7.156491743674081
376 -0.8153907899930257 1.1501886286840666 2.4307138417104555
1491 0.7915830449305344 0.9960469462463881 -0.5837941599369475
365 2.2137355933468483 -1.8650736741558316 2.060796084312333
369 -2.747655866874314 -4.201061453504314 3.8578084281913085
402 3.677573548820354 4.576908568695797 6.011105217216705
476 -3.461730790160524 -3.4142396596635916 0.06652974833148426
1489 -19.300811609050598 -12.651802301058803 6.4841298499000155
818 -1.1601353365710005 -1.2884364318432067 4.974494259205039
406 3.350897909631157 0.8217117072480427 3.923311067798426
500 0.33735171960081406 8.67563008385539 9.050972572692407
684 -5.8761263351178465 -2.850523916070843 -2.5763565552402334
685 -6.03522056784847 1.5068624408252163 3.999608326614285
746 -2.145904772207658 -4.934243144182414 6.9304941433076905
676 3.0157902712134232 -1.9420547070422423 -0.06260041794015148
754 9.716805710908456 -2.255633067475081 -4.084278103197046
646 -1.4789352978674883 2.611097251940326 3.386466847747232
639 -10.22916743405124 2.2276247042164106 5.1014210882975055
672 3.8066719870525874 -3.0934002526581788 -8.801438151290414
1895 -42.723865263539764 2.3010278896193337 12.661042179730767
770 -4.121579834717499 -3.2965323279226757 1.7806535959055207
181 1.5442622304106144 -1.3346299374719086 5.2163371491159065
185 2.8270992163606343 0.9296811803181415 -4.405967521920295
202 8.154130526666112 -6.655179472763512 7.880671771060161
512 -2.785684881982151 -7.090345120339051 1.7897470865694032
513 -3.9827804808043332 10.291862262750344 0.2089317590953605
459 0.23234811511255013 -1.2138746272283314 -3.0753897015772274
492 0.8834530642239671 2.2579757194838184 -0.3527699581957561
504 -2.77906878241447 -4.661538844942748 1.8497294905665085
505 5.036859327425058 -0.3024995356332559 -14.250489714709026
210 -7.0773645232917275 -2.7485176078018063 -7.587131910253466
466 -2.004704546781762 -0.6529695781104757 2.619258433209094
496 -6.9814061517820205 -1.2998219761286294 -0.6105953071383732
467 -1.6582194763096592 -2.7154395572997903 6.313588765348879
451 -3.2919165468680984 -4.164118265030268 1.8545062124062173
1355 3.1019477714124926 9.09655776170879 -21.307048066373447
1356 -3.7667676014938682 -6.085064791316464 0.8403781531604808
455 -2.4081215926571873 -1.761519086881335 -3.802200437760482
472 5.185901589320055 -1.331830137167098 -2.1737413341706993
774 5.168224095629464 -1.529133975882565 5.465360483649827
775 6.403330951528217 15.74998840781993 18.051264599602604
1090 -6.197139867458595 13.114513072708581 -2.12657127549043
1092 3.6471601368398043 1.0200636151106177 -0.7599209379050776
320 3.5238352671247224 -4.278384547895134 -7.503432927461371
766 0.28742566115227736 -2.2829662271114177 -9.427146634533871
480 -5.647319979779189 -5.1192533625295775 4.0238158925178364
736 -1.2016806803327338 -1.7035379729725992 3.01460416554728
737 -4.227007156849515 -3.1932608002393446 -2.087095603410324
1354 0.49853426495372793 9.919652525816007 20.26737726307334
234 1.274844305281707 0.20276921915540078 -0.09509691937097789
721 -1.5010695131310268 4.694057246426746 5.649974933158731
725 1.4358189242639832 -2.784042593228765 -0.4373971195629057
729 -4.576342694428062 2.9218204970709096 -0.8831548385420597
742 -4.966311136503301 -1.560354491027188 0.9308996221487267
762 0.9190417728869151 -8.214854184816112 0.6818189184341695
196 1.0036042313166589 -1.2466206124033912 2.668923378139681
590 0.05646938028326302 -5.4247797177655315 3.014482910909311
750 -0.9999969238843045 6.912308893391984 -1.5017498984896098
189 4.4878445254151424 -1.1201762868423633 1.037283735171566
222 -3.7678981137945304 0.4450797792389087 3.1811423514962685
226 -2.015719098927364 -3.0100651844268675 1.2240111089587038
1894 -18.17101043523534 8.820105747622039 -9.53391582958725
1896 0.08665688283700054 1.9887222201999182 0.06924424583774885
50 -3.8163189770200296 -1.627394100471263 -2.8193509695740158
197 -4.672622504261195 -0.017305312024378402 -0.38291614266950486
283 -2.5322601162857725 -3.7511579048335735 -2.210922509774134
577 0.4091878361014085 -3.6598976995764074 8.834310801561854
303 2.3003997674073777 -4.0942213075705585 -0.5907528046722975
330 -5.018051106589551 3.727914857476579 7.301065273340392
331 -14.302046500361483 36.07012792538795 -2.8053365208805863
552 -4.900234496176749 -5.6025991940904385 -3.920773952439207
569 3.3433957706007544 1.2599157938205683 7.124287693921566
589 4.886661648821529 -0.6319576943408137 -3.6927019156951566
593 -2.258224240289758 -1.6897283239634044 -1.629627698683487
585 -1.1732393710649232 -2.3431372958551124 -2.674654651598499
612 15.815745406045474 -2.33601852043727 -19.998425549729514
12 2.9459011101245673 4.944210046130358 4.141389259836216
29 2.9454393269186605 -4.483085243274249 -1.453533289827049
37 3.7766843532513463 -1.0706319073196862 -0.1741988496278099
45 -7.1022435010725795 4.834817766593728 8.635152162713522
49 4.939280159772807 -3.373044992357819 -5.566220922861161
553 1.6450122495639887 -0.025775023969752765 -3.116399348536249
13 1.0254631026908123 -5.581050888324419 2.1054543041370954
25 1.355897403652711 -1.7917670848705454 5.6514038637138535
53 -6.724619961631709 -0.7022987058058973 2.41274817517075
307 -2.6480225947081752 -5.549185418407437 4.195143996182937
299 3.565222904721319 1.3777998275074932 -0.02368558508015914
72 -15.979790788339422 12.878747546421009 -0.016625567206599568
319 4.705214692313605 -0.7677042952794113 6.180715150323434
282 -0.9762074675947804 -0.2762393215693873 0.16565856524282876
323 3.2959685849906517 -0.5293417716614066 3.3977064303122493
315 8.853520410642705 1.633806792053601 1.8487558790182987
655 -0.194132004035568 -1.450737938193051 -0.452115980519803
613 5.700299152229765 33.03938433536998 22.364818169091283
544 -0.4415699751161381 -2.1524025097363686 4.96510399720863
611 -4.819270606074503 9.29334540746112 -1.019831698577552
102 -0.41867439291540615 1.7821123451705474 -1.1984604774967158
139 -3.1755471754146214 -0.06775608517952615 -7.187420733120912
560 -1.8399144635422466 1.865101318934066 1.6341213109955157
643 -2.9438591784431245 1.8556176392562536 -0.5819181087621064
663 -1.3602817337281792 -3.452757957866506 -1.8971464662675213
690 -3.3218806495922597 -0.4267774422564187 2.567693921566898
4 0.02128346657584907 -0.9975799237765164 -4.007018400508191
103 3.4361328002228886 3.5932856576974834 -3.624830127573641
115 -4.690674348354345 3.6090424231873426 -2.7317575778012286
123 -2.7471220350877923 -9.966695816633488 -2.6541428672892913
150 -0.13348366863808944 -1.4198548582637658 1.0829850601332844
143 0.3303307914337505 -2.893947991879351 -4.372635623972133
135 -4.023097152710527 2.861140928722067 1.505323859309096
98 0.4392973838264224 3.968255064820786 4.404410373095224
151 -10.519115006853225 -26.2813689673893 0.23628339961355405
71 -12.66454935391526 -0.3409870555214022 -5.061505449684294
377 3.1308574692129603 -0.49236001270605045 2.997164523142945
20 -4.809586961505517 -2.838000467421825 2.330120720834162
274 -7.082254914513965 0.012354822435668026 2.4656009228702236
372 -1.7815973166141077 0.5740439962633599 0.04518171806728304
409 -3.7056140647193887 -4.812626576194357 3.112168174970605
413 -3.3423308586566294 7.062153980946851 0.11368248766428288
73 -32.81882944886484 -21.30393407393799 32.165703432475354
385 2.553430775930901 -3.1564353388461184 1.4717527524124596
420 5.279165955270291 2.4577170186029766 -2.5829582692647084
405 8.124802044092728 -1.819548717554935 -1.6938942761010813
393 4.491762940975212 -1.0799132294562859 6.045283286379312
290 -0.5111004118785718 -0.12924176425218406 0.9850285029944726
373 0.7020463574698971 3.328856030528026 -1.9834834445870688
642 -3.678999489567644 2.0614347750058237 -5.4377736578114835
675 -3.129801175100136 3.977495459085585 -6.677780644374424
679 -1.4004064777629919 -5.705408828409293 -4.9486641968595455
683 1.815684122034533 0.4677940259007799 -9.467681621261939
94 -3.3683832335596864 -2.0494908505872784 2.795746378035224
119 0.048690533338733646 4.805015918878411 -4.1872572808136095
127 1.0328736010000314 4.257420333887364 -7.760996310768441
213 -1.0007275441000614 -5.1943377660467585 6.187742139608427
205 6.321616141083622 -0.5274729410875632 -1.10343820447375
110 1.5631421035100102 -4.052202175157639 5.20828049203216
397 2.5708287369105447 5.658424369947131 1.1162004001814105
475 -7.33309764177464 6.437345381008168 0.22645626980687888
364 0.24894091883804506 0.9258759015653227 -0.5001345927095949
499 -0.7382219809816246 -9.740496772823949 -0.428601116897994
163 -13.223878994335664 -6.418067471887163 16.787053913947222
161 -0.11710730172171158 -0.5371131068496064 -3.9591314609860113
495 -2.6070975925375635 1.9271497437855505 2.1203512278102132
380 -1.9665802979369447 1.7091856957602114 -1.0936369104997847
389 -4.354885181808574 -4.889725800629207 1.230463749256377
483 1.3214772953026326 8.732613452421278 0.36571304791906933
431 4.086882557476733 1.2083183526017194 -1.8307114989765987
769 -3.6365224792170254 5.494587798970471 -2.828294663651466
433 12.894651696015034 -8.751513668414683 12.803344970859943
634 -3.279957989124545 0.9111343485760522 3.2084974450361066
659 2.1982420464403356 1.8140979752266257 -8.870967906435434
667 -12.76617839982691 -2.10760614743195 -10.42097902756006
753 -0.3311661632228108 7.031615235717662 8.101159158271441
765 -6.399303094903905 0.4287261205910215 3.2122550387154227
745 0.15250763603040277 -2.540141455479736 2.5624802955689163
702 -9.969995527864803 19.23391743136347 11.84399094670507
701 -11.117386567695561 2.6695259358466448 -0.6584511430714616
650 6.151639011066163 2.5956875143655354 -3.669033071918971
229 -0.8223383023105904 -3.171111280638579 -10.256889133554187
225 -0.5075332087851433 -2.946826888335786 4.677112253592264
193 2.0847748778738477 1.0022051761279598 -2.641857464979893
487 2.7367775145637747 5.045160611539998 -1.4807293820709928
240 -5.278471791796913 1.3841795084557968 2.2343494030089173
295 1.4252975631912632 2.901389701666831 -2.325111704321227
454 -1.6302755136838551 -2.0338986121335987 0.9396792561885863
462 -2.4816147273987137 1.6148793480933539 -1.2844912512737927
470 -3.457629665098135 0.7310800814991817 2.9450998885996955
479 0.4215900911704925 -9.427876887954254 4.1330246089388645
503 -3.541760441239081 9.233630234709466 14.107051570788768
463 -2.880032880656322 -0.4135578815948496 0.6433528824043224
573 0.16411035482256334 4.525291712106995 1.2803455624451516
724 -1.5142295178274783 4.553666449395362 -1.497518806256899
732 2.035429149443326 2.268917212640474 7.6522154657849155
749 -1.2112312374508922 -1.5865723704456147 -1.5152257762291699
757 -1.1268225770441929 -1.0222742970863006 3.4972507862228905
510 -2.0909224903823533 0.2632271503452333 2.4515949265730397
565 4.547006896450789 1.45516597331952 -5.555792041234429
511 3.0319903362195473 -25.14642753407793 5.047102274254214
217 -1.0011123942251121 -4.947953059209076 4.470256176166129
733 3.0614714077540826 1.99638604216186 -0.46098340203424876
740 0.9461601524416572 1.0140408678243347 2.883927069097865
773 -4.344733467126154 2.1590074478899175 -2.9706385078301882
781 -6.466322563067293 -9.802267834853307 3.4631271443804836
780 -5.013821956772381 2.9034206569661283 1.5104757791388108
791 9.153159110529248 -3.9283063485890883 2.253641895979346
184 -3.162672129748943 1.8189681372995812 0.13068390663060656
33 6.532415151143873 -0.42448241173877516 -1.7943456764275543
192 -3.7641940261953906 -4.934525616158144 2.021847205613025
200 -2.7986175187308255 1.7399720320378176 2.0879159093419144
209 3.1212519632647826 -1.7475908503780337 5.767136446552738
233 -3.786178214428969 1.884883788020268 5.339457507185536
278 1.8458939811390214 -0.8542626195823919 6.485483134572993
310 -2.222554246770293 1.1009494017028525 -5.629395319145813
353 -3.153660203559272 -0.776423021684772 -3.0526261739191405
355 -27.103248204800853 4.512127974497219 -16.393407120124266
614 0.25331799954090334 5.0905140024483035 6.015653506113905
354 25.047934478218004 -29.73997671251915 19.81383676193537
615 0.6594322378340927 30.148116535757325 3.1094622239977485
616 -39.290199063433654 17.257005289779578 10.527570696216221
81 0.8508996883687959 -0.04225689700031114 11.253031094737166
82 -22.0670669371964 -1.7939540507908227 1.452206997285397
548 -3.9178521928042436 -3.262295818170612 -1.363061703214401
561 0.08828761074667556 2.9982368560347106 -3.483467079316403
580 4.212936192843627 -7.011209007609431 1.8571849398336613
600 -2.3102249149042073 0.6739460494338665 6.198577841019675
620 -2.9864882665247356 -0.41670712921758174 -0.5496850482706654
581 -0.39576660231353883 -0.10128198466546114 2.5963891934015044
74 4.227484236456985 5.4157730705637155 -2.7080495133204416
76 63.16386222616413 -10.985151531098206 17.469905972318237
86 10.413991960853394 9.252537901901952 -1.0285180090605635
87 12.284506505325538 -3.2581536710354033 12.882586630374133
601 23.214121226032898 2.976706950740938 -19.145398290456487
75 -12.932721485566578 -17.560747373590097 2.7138354067387
88 17.860713035865363 8.23036089243747 8.466232445425794
61 -7.854988528134831 0.4176775479352226 -6.784019562026375
168 -2.3764840849417093 25.984282515000633 -15.433068880018908
352 3.1439901688913072 -27.797866824400554 -7.7222931994388775
8 -3.3145341518713405 1.845792467528925 -5.358617281714795
60 -12.01603486675856 -2.337177652674843 -3.3762904659185264
80 4.316385414029541 -6.449635197992514 1.0094062317929904
83 -2.8198555199064987 1.7954421875203619 6.603482626666338
84 -5.671773305736925 -1.3547573731188007 2.1861931497124045
344 0.45331015663018964 3.698834743107963 -6.222884973788323
345 -1.369285159185642 1.4367357010825463 4.436721650966912
85 20.207130858311192 2.570874003783071 -5.452040526990447
346 -13.252665573874287 -43.7450144153041 25.248848240840573
351 4.990189320169169 -9.963727676864922 5.458993825588499
174 21.37952252941599 6.706913472982256 14.291358060250847
358 -18.64477635193592 1.3143476719272353 39.95377547198502
622 -13.533557626647097 -24.646302028061015 -32.00304716234218
291 -0.1334405792810322 -1.5141966342559239 -2.2129307479453026
350 -4.691409034936594 -0.3741289343647937 5.609804518958271
621 -21.491048444588532 0.2808929653024439 -9.082863304571491
311 2.6101475750045315 -4.443634690632747 0.44430016389781674
638 2.234765387275073 3.0252030045808134 -2.3766754708548232
670 -0.0028898760470372235 -0.2582864256767915 -2.645361557066918
804 0.1199777057431457 13.32586321091124 -0.06936375970120279
708 3.3658216232951825 -5.017293696024213 7.656888070096985
709 4.062379684246539 2.656909854840484 10.096698769970274
707 -9.282378328935176 2.9797622719338905 -1.1666953767610457
628 -12.574812844227308 1.2885854709043516 8.663880270186384
176 2.8369457910968587 2.218507263114128 -1.6731052672954692
177 19.74325517055548 33.37841648469014 -3.065647994931557
691 -39.64048393339985 -9.514834602922694 -8.676209314397498
713 -6.74462082860023 4.368050701375724 1.836077373348972
714 -37.83658607362535 -35.886847070659165 22.019654520758046
715 37.319883303710746 -11.554993970201009 3.6796636638233653
699 1.9805467611266672 1.6075328069316008 -2.324739158084214
172 33.47914720466716 7.496243307638232 -19.37197021032701
178 -2.221638270291901 9.6007992984268 -13.466109184185497
111 -0.017869231023553967 1.9567003687978521 7.213157883056853
130 -2.074165012530573 -2.937940594925699 9.943242712300261
159 20.029965225372486 -15.339234609764913 -10.23229000709194
160 -7.734148182359491 22.181345500119775 -16.971906416924178
436 -9.2208897697197 0.21311678437666146 -6.233609844763055
173 6.846903814501788 0.15887837015079354 2.8181419909153504
368 1.378688630035201 -2.443056204127212 0.4428478441752186
381 3.1117539922309874 -0.4643493221008238 5.624076638350686
400 -0.9271452460938346 1.533269887284149 -3.372696211279386
434 -6.672329530892125 -6.4591816030897595 -4.849748263920386
435 19.286299463587355 8.033174712746005 -14.242041939064716
447 47.53032628149693 8.306246413224159 8.613835296823655
446 5.36191934500267 4.902859788666714 5.95857599500237
401 5.760898449007894 5.679948583123815 2.6854121978584127
437 -5.258026004839957 0.3833961555948321 1.3494858892481665
421 9.2892172516569 11.547637798709443 -29.001953707521263
341 -4.300758159943055 6.454516472769956 3.97492771060007
342 -24.889220430031678 4.51646930764848 3.0866312007912553
343 -7.009144930585101 -33.11851785198282 28.422792004102856
651 -5.393177771343124 5.7212948451893295 1.7490799638133796
445 7.03699631455386 -17.78179625050521 -2.7426393758857834
443 3.218254372475753 10.113448001661935 5.392586936022191
438 -4.426417188497403 -15.119502471949742 -15.463947692108002
671 -3.6618327186259747 5.546334036784442 8.372259972678215
698 1.0449531501162121 -0.6597587624932099 -9.191214090229991
803 0.9777994963126349 3.6519738806165547 2.881913501565505
171 15.914709208737923 -34.10258704276965 26.980865937706408
188 -1.2374578803090164 -5.0197811158408125 -4.126237794852192
201 -0.9539042425605311 3.03377706769047 -1.0125886393431087
220 3.2427072304745845 1.7642231668908546 2.385541849255702
710 5.573679238442278 0.7326223939855269 1.5890297978447345
531 17.77062808459666 5.499872529354488 23.845378838141094
532 -8.434678704602563 9.252595304331496 -8.930521626959306
258 -3.648565653678296 -5.8213169427945815 22.83880789477643
441 21.83637546136653 29.97446555656054 0.31140162982906694
442 -16.261543488827815 -8.702506097725756 17.99331356852617
162 -5.657888028235518 -5.541924977358147 5.039623171222112
170 3.784334359442326 -1.9988168278727079 -3.2789462036463206
164 -8.679596952385651 2.4843915246284554 5.400518811601854
165 29.59463345293145 -23.110188381479364 10.869285436571479
458 -0.2149050700280959 -5.486774531491911 -5.594065926262844
471 -0.12280856969953109 -3.2201674086361467 -2.885407649849536
490 3.519977865810998 -2.401630540886698 -2.87194388233406
166 2.9686121024714365 -41.42294382063261 4.887723477597361
527 1.2389770283821688 6.429874526671187 -0.9259324772267679
717 22.213425304502874 -29.76673212718465 -19.43329855352132
448 1.8485992270926013 1.2730500994271072 -27.701746608582226
440 5.759071161327879 10.395291282309943 -0.3221551411048508
711 -13.577818108524768 22.34340588099345 -6.452162493429236
712 2.444567350963755 15.764004040096994 10.494621358970424
716 -1.9702904025038257 0.19150393605627827 2.5166484706335956
432 20.1666502534477 -7.657568860566967 -28.748123950427853
741 -3.059275180356178 1.6743493611646536 -2.993518710587872
794 3.783219818792988 2.711188250191843 1.1232342241420432
795 -13.165655303366464 21.871935453751234 -2.7719778599383793
704 5.2869586691076265 6.5622821415820685 4.0650191457402745
706 12.006190674881859 -31.788929608915385 11.563584176753576
718 22.268182133245013 -10.960411531185388 -8.561090312796075
705 -0.6610241227264205 5.621951299387713 22.704238745652532
728 -3.3367444945931046 -3.0674867307159936 0.19136533686292947
760 -5.897610667055869 -1.3505497297688724 7.336802739668476
256 -12.427588126568681 -4.301650484975079 -14.73678808884818
797 -7.746726441440712 -8.37573181243605 -2.2782661819832453
799 -14.904337590533306 6.286351488479706 3.591022291378366
703 33.48889095310611 -18.950636081995444 -0.5237049361041548
266 5.15778517485321 -1.4106892039110508 3.4916655424444323
268 -19.068998942564207 -17.963897052194415 -6.389667803116752
805 7.1854385172198345 26.420188444974766 -4.566976615439912
267 1.18365707649996 -26.75584170582079 5.056709968664772
241 -26.586198518014946 -12.487140952612709 13.231102384756104
252 -6.573060616244751 -14.64360542023158 17.48703698285453
260 4.681691212741256 0.7426425321293517 -6.854293989401238
251 5.434088864895029 2.8817018432126877 4.263251943791774
253 -29.30210606676208 -6.426594902030392 12.423702332105558
349 -7.09969528769781 0.3165792502016153 -17.08853066077297
522 59.89864711148811 25.217798376244755 11.644262432231937
521 1.7096852478061886 -8.226879364985157 -4.088622807704621
523 -25.85288700487326 16.109746011343816 -5.1112980016322815
536 4.976955138037251 -4.253998468167492 3.111459696831882
537 7.023083735991185 -20.03589075093302 -39.85421592260455
538 17.461550536023537 6.042326840931925 3.3436248110398763
347 4.686542725562222 -0.4083462349006577 0.9505136236625115
491 -5.985484234869177 2.0319031940412127 -2.6335916805681303
525 -11.755414605341064 7.555740583014299 -6.159678885044041
530 4.857978011042198 -4.644523823056944 -7.557574210201065
796 -6.248712679767447 -5.720240356996873 4.947534997358635
801 -13.267777746067965 -32.04395432322303 -2.828668593514175
802 5.7638697966719725 3.6937475909872934 -27.72086285246383
806 -2.0568945339649694 4.291380978064852 -0.29357087680031735
807 -7.525027870030811 -5.707184777066492 -7.542053302920017
808 1.008042231710965 14.605424600457901 -6.082567259919874
524 -0.2638857641356255 -4.394132904663832 5.2604740553924865
623 2.613940783920269 5.680759197661773 -2.180041437733571
254 -1.704466717699528 -11.132172680801927 3.0502151672341267
625 -39.192341263518074 5.125364663543182 -2.3247484831776464
624 4.590368274135702 -15.886005983275968 9.858215442763175
793 -4.394081665564731 -25.06044889094867 -8.696633986391245
21 3.3219467986068127 -0.8855187614489269 -2.3654564824061795
40 5.732504714054844 -5.279424374828766 5.6484202038000655
261 13.897677896613228 15.57027353091334 -11.353910673584075
262 -10.727037356950166 19.014030209363142 -5.971983605846927
792 23.70204306388407 -23.781583245642075 -15.399653981199052
800 -7.873316003956106 -1.5211502530207386 2.725245421284737
761 0.25998206776758287 -8.962731305956995 2.408943095438527
255 8.883550241091095 8.624836412778786 12.398407371985087
77 2.9496441561765527 -1.756521794121428 5.829304977947018
78 7.690387016081474 52.99885701743437 -33.69959418416831
79 7.198920750961083 -16.672745530311207 3.818143900474888
221 -6.02216090452155 -8.355081603700384 4.66670388912092
273 -0.2155355110452685 5.316622247612183 -3.4413210543824233
302 -9.913126016197527 3.615632432229359 0.7722960028358433
329 3.4050484821491076 -7.034239830138979 -2.517136998853498
338 7.0467653628393085 1.106611183376398 -2.3405243928638195
339 6.859698627998324 12.74618837593516 -0.4674649320817344
340 -7.22481465064088 -17.471929086024776 25.279668848479336
588 -2.0482623004071714 5.807338502666867 -3.038782507602843
284 -2.669823670507426 2.0038747093742955 -1.6727886204347837
289 -3.5322907605369527 -5.450645258239982 -1.3625178873539407
328 5.480709035614969 0.46172857845234305 -5.72280562371012
599 -3.90337486339054 -12.45433439535027 -15.694900534797494
543 0.5047631374655888 1.9364932476980194 0.6986319504485999
547 2.1726599675017018 1.5681025913388515 -3.6691740675361233
551 1.5431999917607713 1.056103424559531 -3.8660825728225596
564 1.9774123163898931 7.464674402906058 2.550904231344335
584 -10.83686073547015 -2.4333208235725357 1.4254490337270422
598 -2.493952080334424 -3.965166525600838 -6.301496149096592
572 0.41822125417756767 -1.5802101491837095 -2.5434673567845842
576 3.6298142516812053 -2.2137896448612264 -2.220850709504801
554 1.3702718819489952 -0.8286079291520972 2.6562183508484822
682 4.406995517795651 -10.470059029761478 -5.087850506936577
7 5.83275050854961 -0.18311737335054737 0.3220688216253745
11 -1.8821272290242141 1.3481055865348546 0.9570444050873238
44 3.3046109571119864 -5.940843644661456 3.4538258235456967
48 -0.42357268178666035 1.459466114413776 4.216809305800752
617 -7.17878507978187 -0.140188892521404 9.186446881760638
618 -2.7495477359265488 -7.744520156940174 -3.2845762302808095
619 -15.889736165783095 -2.474795121604639 20.914497850870838
142 3.917268524283711 2.2296469774900554 7.846484565559443
24 0.024601227524281635 -3.324225712728506 -5.029302441199479
41 5.371754602830917 1.0699850293797448 8.313775705862202
3 4.114023094412728 -0.7724374658995983 -4.780879119530578
559 2.943938015576389 -0.44152848551926327 0.5596327016959879
356 -3.0723584355219966 -2.9819024076357037 -2.7997690029273516
58 2.6678167199383616 5.198375590351675 -1.5945039969058232
59 6.300204697911689 14.561455896126802 -10.070883589879141
318 -1.309411408391082 2.606624859332899 -0.20898468503253145
281 0.8957782600381567 7.876988044410309 6.762202278058732
32 0.6097937909161544 -7.969826353873234 7.893146884113683
357 0.7913755070864625 -15.589125683958466 14.008412822528744
277 2.9420275450258373 -3.251077183495172 -0.4844576116455872
294 6.866092680609609 -6.324171334274136 -10.668905263737432
314 9.071762611338844 4.299205128107073 -1.7922874146345666
412 -3.4614840835943523 -1.4349763445238646 -1.4948899118551822
633 -2.2301228552865457 1.7453981415121187 1.561356757344091
658 4.8801686553607135 4.827821999764392 1.9149124423662474
662 9.595362166550279 1.8610317940664085 4.767687255121153
626 1.6612598722329066 -7.208116949508387 0.6970580730218932
627 -53.48042604685109 -14.224493160006588 3.654377271463081
700 19.674593372147648 -11.232411487609392 -28.71179831653029
126 2.150970105467127 -5.308130386130113 0.9738568949631659
138 -1.23033369877621 -9.36353472772646 0.22881278220142362
114 -7.336386289849861 3.835353281402507 -0.0545839340034279
131 -0.17393148569647443 -3.4256992392216046 -3.479574673845661
97 1.566211928006616 -5.728612383724766 6.107282024365961
167 3.5946320552019158 3.041233883802202 -3.641594453887774
169 2.5615457580626075 9.193219882429538 0.14443999534869656
93 2.141788372193285 -1.5056924643348275 2.113095003944902
118 3.216237777435156 9.090868100315936 -3.5986398213453117
158 5.338762126675543 2.575098429382968 1.324244223536111
408 2.6700722761202957 0.18369006864878415 -1.849180620045574
122 -1.0866073236102018 1.7990445988455506 -5.175505847703709
175 9.587374866242557 6.046769663586004 -9.850093352595465
363 -2.777120400761858 2.3495767864807906 0.04147202235329824
367 2.419471925854457 -0.8897859747158368 -2.9670310498254757
384 2.0958434151793615 1.5488354783843268 1.1204118231098235
388 2.7361025449095497 -4.2444520669969945 1.8725666613813816
392 4.322899020955389 -6.534449823810337 0.9615123617354834
418 4.457164542437137 6.751472865823025 -12.960188490878227
419 25.793135790318182 -11.97600089294279 21.140537907917725
439 -14.885852190083954 -19.428566978436997 -10.533089811472594
396 2.3879867694074965 1.9911711675235682 -2.171579820452324
654 -0.44838964303085005 -5.078521241981271 3.5894094667311625
428 3.9760549223926347 -11.146278944622251 -1.5835961868397366
429 -15.575476806309638 -30.491154780617006 6.7452915194295615
430 32.35963876841082 -6.806658109936604 -46.91487372658538
637 0.3789013387439765 -1.8992820197528095 3.2980763828180195
666 4.623964657403155 7.706514279510307 1.3125711606829136
678 -4.127403128701213 -1.665845301882826 4.827252396782441
444 -11.008913915290009 3.8676776910777453 -4.6568695421123545
379 1.5150769589114808 -0.5804023375241624 0.8815257114776214
134 -4.884792489714594 -4.466860780967806 5.578674537549911
101 0.873818069549989 0.25142091525615207 6.229125144660338
183 2.0246853010408468 1.617397113587474 -0.2695930266837148
208 -2.0584828743300103 0.4288647090241957 -2.7600371342763164
257 -9.257532481798897 -1.9950546933121833 2.650215242847112
259 -15.934949972792325 45.83640434275152 8.29494557897245
248 3.6518677852188235 -1.4879032964771461 9.631256471368326
249 -14.536211484702697 -19.727513430680123 22.871450455402535
212 2.6389781180606993 -4.980743886372203 1.130672100193457
232 -9.715435605199835 5.073919779407461 -0.32963004648603517
199 -0.27825629424607706 4.811008697676314 -0.5804654507865942
689 -4.588468170880147 -2.6826406429456195 -6.760487532740897
264 -19.642313463524957 -7.996014658514496 9.163053493538333
263 0.20196257383960878 9.38379411367739 4.5664092959602405
529 4.854305846701163 -3.5689308979239174 13.970946023094788
265 1.8301168874993319 -31.536894121231626 -7.640603563620028
148 -3.9145718802570535 2.3514496234028073 -0.4308027372568782
149 -26.460730476130944 -14.980461375700314 -0.8563722625905256
453 1.8849463380182898 -1.0466350737032515 -0.8369711911505768
474 1.0011892643705114 0.5099884549605471 -3.8789594781639067
478 3.9733297189717294 2.5238151981988373 -8.928180123086676
486 -1.8668840118697676 3.513345863377382 0.5672813989704777
482 -0.1473919149019752 1.6177175240680224 7.703224179425081
528 -18.88083738591685 16.41072865644804 -18.717342950130487
533 2.16527862140804 6.253150365107516 -3.178675383400247
535 17.484843549915247 -17.217848625424963 -7.881544913149312
371 3.1883798082150734 1.7866724310498063 -1.4559515216853358
404 1.044103621010261 2.0450756388681985 -6.016652018779212
502 0.24143619840880312 -4.01990528690638 -3.5301724589576717
534 3.042922834925707 13.982718054838145 -18.524650272873437
756 2.500786381183831 -4.164277920732383 -8.292224786442725
518 0.38061314070731245 2.9637426862819587 10.253869764075
374 -3.0853804657188113 -0.5484923283718143 3.603047783117928
469 -0.75748932034562 4.724214070826771 8.044092894702464
674 -2.4153331527902693 -2.6232941085457684 -6.356213853471549
641 -3.6062752941268594 -4.174256985406728 6.562623854503351
723 2.046767050229982 1.5417599933402466 -1.3301270648017929
744 2.5639042064750424 0.849081011635327 1.0974285720532004
748 -1.4120916229535527 -1.8776596101210834 4.252301283832363
788 0.040305705378748155 2.1648081868075915 4.4332555204214446
789 -0.08779406239755178 -38.18629712239555 0.7414649499874127
798 7.278727743130664 -8.201392837033941 -0.3827972498871012
752 4.404233671880133 1.9942716249267718 -3.5744181332810294
772 -1.0292132951915243 -7.933534829752073 2.859610379343949
739 -1.47443042141104 1.7317630046674375 2.1035576032593397
688 3.968188244422992 -0.5952451642826934 0.7864970036041702
204 -3.9850487550208458 -5.985012018302051 2.7347443762917036
216 1.36225298526384 -3.4773472243723473 7.351350611932375
250 -26.447044724873223 9.587439308721299 -1.4877446813544135
239 35.710486614212684 -20.370773984070755 16.339654660252535
298 7.300450556336612 4.371589701358093 5.6640086906202995
498 4.088336349656962 2.331630658096634 -7.417425092664998
238 -6.58874148221353 -2.771643086203623 4.959129836590156
348 -13.683777978917231 7.729231812468276 -3.9867450418115875
322 -1.6471621064108615 3.5495907218425606 -3.533628103097106
457 0.2968751532535459 1.6500289398775572 1.029319242737428
461 -2.595698476914716 -4.466614687081963 5.413734930850131
494 3.922108290967314 -0.8578930169865036 -6.998752895792583
508 -5.622671448056563 -1.699333509471815 -5.013428207936895
509 5.976678437316169 -5.360671992136378 20.52054444784159
464 6.335163361837662 -4.53121107299469 -0.9621360012627367
519 -14.113375389587972 13.110691806218377 -17.828584979831984
520 -26.654593442015237 31.917620331559025 -16.8810925446587
526 12.669080922710641 10.214021570421181 16.626376466648146
568 -8.795603705836937 3.9751778104328603 7.823091344278725
731 -3.689711751499043 3.963174781167178 2.074250827103004
764 -4.488997831516144 -1.5317271994221653 3.9077579353617566
768 -0.3399165061960831 6.564164810454688 5.546208678296893
592 -7.71070086898142 4.055755290170136 -2.0839965462853853
609 -11.7057157245331 48.91878001193364 -16.90361983983416
790 -0.1375707907413466 4.148025707623115 6.4278503804350295
610 -11.660918257205198 9.538843896252981 25.60906751002572
28 -2.4852164810470923 -5.296725071739248 -0.08622844598822993
608 6.85843360743539 -4.972225604652911 9.51630317779898
727 0.1581954079199292 -6.62105165638004 -4.895506705283209
778 7.287450609111399 2.8958676874884217 2.22895554503612
779 6.509259036066082 21.81359199446121 22.624595629549614
228 4.043347457378433 -0.7756069524976692 5.09313855662594
36 -1.544469339069903 -1.9516822995485574 -1.6822480942428624
734 -2.6789272218511213 -2.0609987845752475 0.26651669976076836
68 -4.499086765252039 13.913728072173114 -2.5677656789573637
69 -1.4149102616682083 -29.147200598686887 0.3557924435944441
306 0.09722357684400756 -1.0477169244316409 -5.0295313446942975
194 4.8110000644833795 0.860178179873453 2.574458146609277
70 -1.656716564147545 -9.542000250630508 1.6232284461689859
187 2.533999303985776 3.069833483344331 -0.16684237613367012
191 -1.3302604417200183 2.8973764827246336 4.586291840148432
224 -9.433730747669804 -5.745241617683639 -0.27347581606412846
52 5.813579367477952 -3.6061831082027442 -6.707020419479553
272 -7.124212633360922 -2.920526281818681 -0.527988499617911
280 -0.3541380879716388 2.2617325035042257 -0.7337653757024558
285 2.344779363655459 1.4000116635313689 -0.06342031311100065
297 2.2039966205246273 -5.977404695059348 -0.8237252352938091
391 -4.938752434858075 -9.066724652720808 1.7933809483576622
326 -7.929050827108397 0.8902291737380431 -1.7740816826681831
321 -2.4077754508374056 -4.561079983203045 4.039366284422439
542 -3.5179295967082114 0.17364651791682098 -0.7993993659435533
555 0.6705376622561815 1.658082726754524 1.7939206069106792
558 0.4124028315950613 -0.09418586583429199 -1.7546196427489897
575 3.869212991298643 -1.255117423043453 3.5670980505872874
596 6.821184954620443 0.5651523009796489 -0.8302583313966186
653 1.1639327102381443 -1.517694084182153 1.6934957745081876
597 42.70299705660543 1.4656204514340778 -0.6458890635656512
605 1.728612948002825 -5.0211739874115136 -3.9014366775390847
18 0.2927610800985053 2.3608998595931086 -2.064159081969961
550 -6.341895381707327 0.347785341073095 -2.596729145165582
567 2.4757287490509783 4.6844136022184575 -0.8069550909510226
591 3.0310772659702616 3.88633457068666 4.012214022839611
661 5.680678487727306 -4.617294271305453 -0.22244861220463738
15 -3.7751605436808537 -5.194104861337766 -4.25540915125195
35 1.6814697277560766 -7.258068005015538 -3.9938493401229334
56 -2.950020367808881 1.3010126104037176 -7.470942127235432
831 -0.8207897067489531 -1.045091475366247 4.238714824816255
830 12.974332404064693 -9.423260249348566 4.246970561664421
19 0.7578068363038118 -4.204064813449513 0.34144750200536605
2 -0.769713926586318 -8.60591302507601 3.151666717813914
10 1.2418491932624331 2.9589586950902027 4.2642331524825865
14 -2.4243720802290043 0.0024312214977560615 -1.488081297365202
27 5.62812347533881 1.610233770551176 4.693986861233051
43 -5.730931592308295 -6.821963741509553 -0.5103844997554584
51 -3.044533219369959 -2.835799561752997 4.694482546365523
121 -4.836660277192371 1.9655274576697122 -2.0954924233777388
288 -0.40171863105586414 -0.5254099824340773 -0.6001000770482657
113 -0.4483398868065674 -1.8284758595539383 5.340603752837892
47 -0.8046147328585059 -9.598763473946276 -8.967000075195969
1524 0.42367272016596164 5.3101181264582795 2.5345721736864055
305 8.453022494848689 -1.9023492853432664 0.4172848694782006
383 1.4747042664097694 -4.827783907344994 -1.5941130511539485
1522 4.356905180721106 9.1815140812144 -33.41421918014762
645 -2.2175643514564523 -0.43333133605777857 2.007016681862348
640 1.3823041495133512 5.6567223118907215 -1.8378229101540156
649 1.6530337756207287 -1.2098611719246484 -0.39832733973596274
657 -1.0146820127854301 -1.5613903754126415 7.17843807267677
677 0.8745544060154312 0.8079670911173777 0.7183193168192007
681 3.3191975322425984 -4.195104486041597 5.015886575161641
673 3.57610065861133 -3.8371187849962456 -6.16812649805913
100 1.2586801844734286 -4.014589863180737 -1.7313606962597394
105 1.158742133725502 -1.5068028419582529 -0.8558721980295925
109 2.0715340637327175 3.4799010563422086 -2.5046580271132424
117 2.14915891169595 -7.6132940526532416 -4.585866104256117
137 -0.48963213864228167 2.5159169557225005 7.756705276693303
125 -0.259011754856168 -3.1748935271686674 -9.97665777703829
146 -4.9282249010289085 -4.206500744723074 -7.359468471300386
147 -0.4273439032397029 26.28138114089666 21.076828037001324
133 -0.62766695993982 4.323589222852152 2.058130894918502
141 9.749212821218057 8.061590777547032 3.41676951987398
375 -0.7007500537804744 0.7430958276069297 -0.3222287869570899
387 -2.3069863225152702 -1.1077318121064255 2.6402416902198977
407 -3.002280115136582 0.6091097579670361 9.104604064453873
686 3.3744299790726595 4.8664654678757175 1.1263854748097393
370 -1.2446946921895776 0.39636631243592235 0.6486153369152982
411 -1.3437879229114922 -4.2148232661401055 5.490387346162411
403 7.041315006630246 -3.9015238835364228 5.077744082210145
665 0.018941628209747673 4.856351666991532 -3.4626770898471846
644 -0.21777137300322763 -0.6283502885559342 -1.9201630509316503
632 -0.22673454356281741 3.1615699855762607 1.1779393451910936
108 -4.065619976254959 -3.2987933416773174 -2.2198798484667055
227 0.22908787017379853 -5.678150837593753 1.023678709541274
751 -9.57164738573223 6.55579302174069 -7.767678962969014
190 -4.943749056707761 2.5410912279131113 -3.4555676795659007
218 1.241438086750818 -4.111830568630433 3.0274373570905424
104 1.6821973389729596 4.33644239052182 -2.460096734290454
92 -4.0767905371719495 -2.7968576349459577 0.7433447774899556
211 -2.1874275286193394 6.057196017385783 3.198715610496591
223 -2.7349246275206336 2.5442746875085565 0.2468520714386593
465 2.553678263786749 -1.9703642348843808 1.5573007923572468
231 2.7415313795026064 4.255461574407655 -1.993789521970565
203 -4.605780455173103 -0.6247255882585492 3.914640831165382
395 0.1794918328795644 1.361473360031694 -0.6990792043575708
362 -5.359136783363885 4.624950014327112 3.5432805399291127
378 -0.07609857166647219 -2.435947474251657 -0.1878244904404196
460 -3.857928242598913 -0.3302522316046862 1.0421764278197465
493 3.531600091608947 0.8817475602989836 -2.8045841970699135
497 -5.135670663472235 2.502714706085925 -2.0128729683497943
501 -5.171210630416942 5.061974463425633 -5.968146512291812
473 3.9802154822606957 3.833289509764748 0.6366861608415146
776 -0.13494284720112554 3.514045555884853 0.12283337966706007
1658 -28.704034514222705 7.57455033182952 28.3219933970233
1659 0.8574476822801069 -1.0540849518826143 -3.1446529428270944
456 -0.45306363889257834 2.834246418414285 1.1878399873856018
481 -2.5006483601226757 -4.4289234595084785 6.585191227354178
648 -5.218387333849276 -3.6744506289555225 1.368401708044918
730 -2.0347873041390376 -3.111393189946887 4.515900093391579
735 -3.13269601452446 -1.917131609234394 -0.6819002917895449
767 -2.2124961021552982 0.35070422910119897 -7.265497735192949
763 -2.873049145103097 -8.290402154988211 1.3910606320869812
771 -9.429665518538794 2.409249331045813 -0.8890197819333238
195 0.3083187228886622 1.9387770842001733 -3.3369756174656127
743 -1.875766060535215 -11.649085608308644 7.086453042317695
236 0.9419619589773209 8.444559529687332 -3.0259155791093035
31 1.5823844535896832 -3.406516359201553 -0.2989303820740868
182 -3.7152212249905117 5.507777561057856 0.9607552951155046
207 -3.685409426120838 -1.0932704985767074 0.4392177408916586
313 2.902776976017977 -2.657973217346502 -4.593188039790591
317 -5.095545542023344 -2.406713601121521 1.984720686450869
293 -0.05735886226768233 -0.558505892808638 -3.573500893022767
468 1.3712465249197696 -0.6773348703414684 4.32949152050197
485 -11.238108857497107 -0.34253426253317326 0.5070189943638618
452 -0.8671126291252793 -4.173219609558357 -0.22621256511300047
276 -1.4487607445082171 1.5608627366797345 -2.4804245574830994
587 -5.795650742364978 1.9911693676213278 -2.6424930085985325
301 1.9993510297975015 1.4756217237533638 2.6854504004051236
477 -2.247168897148923 1.8592194202638634 -1.817500687912819
738 -2.933953280880545 -5.285334710937215 -0.6131867093612192
785 5.743154589775291 4.974415532986104 4.45174370539718
786 -11.105082264080165 0.48932247574861676 -26.810641662289722
583 1.670346261240443 -6.069289938990117 3.427939345546669
747 -2.594596747202986 0.9150888342811233 8.563528513283215
571 3.3056977179723006 3.0868450976934096 1.1081538812019114
722 -3.306859485628363 5.194357425804702 1.7950112001006353
755 -0.09613667692529497 -7.480408613456401 5.098889641819701
563 7.994281642605205 -3.660335665727645 3.9339072918347178
245 3.5146978371922764 -5.254662188035 -2.1462246690563496
247 -21.954061363881504 1.4076083141890599 -12.350642827269635
246 12.42733161756995 -24.607849321348898 -1.0677176127911636
23 0.5793689967934974 -2.3339807185230996 -2.379520465852398
198 0.8674569488921322 1.7802021358865183 -0.9892744930731577
215 2.743616896977748 -8.329252096391611 -6.993122904211013
902 -11.483713761648103 -26.86944998592475 6.55196284987075
1000 9.28740069979916 0.5574003871980893 3.0950410154948127
1001 -9.553178939874483 -3.9845364728388826 1.2812054745196704
1002 1.9163025612842122 -6.2840661732185845 -10.413314476626038
903 -1.1291499661263948 7.384706506496213 -0.702587972399898
606 34.675432777778845 -19.094826158595314 -9.97595884570389
901 4.78265504991858 -6.218507638271251 28.626546887798376
607 9.635480127408922 32.64988113893934 -1.2627180066730632
1816 -27.52932247448061 19.439572993884603 -41.109693770401186
1817 4.7128053811434985 16.094363106614495 10.387883126646491
1818 1.7185269261896539 6.460870930138896 0.5032729459815538
1999 -21.51690737882063 16.880001314362016 18.5264357447078
2001 -3.6099105376886182 -2.418948154073242 1.707333311401193
1175 27.32108902825367 12.685919267552862 -7.34270282106377
1176 4.042035291941521 -4.122468655333288 -8.531920769263001
1174 -8.212312375955493 10.205767613202454 38.60472943395963
1387 1.8907471835834024 0.24725755711470052 -11.718205416640583
829 14.930546509009844 -3.368866567854774 -9.701263855596284
1777 40.97227757503276 -5.521521017430559 9.623211557080841
1778 0.32869450089997826 -3.685556601618633 14.168160747566258
1779 2.3630169118445403 -0.3008697112482832 -4.691495132303406
57 -28.349637291023377 3.0115578627347652 6.704030118206229
65 0.07957078217842725 -7.147245780690871 0.12262558194168298
629 10.122324653885837 -17.976735605763835 23.11547687192871
1265 8.909802039734945 -0.02264821744347457 -1.0896136229876217
66 -5.142635338874212 -33.89426838140133 -4.778446548359642
67 -15.928957567738511 -13.871960758456728 -23.060548022789305
335 -3.208172869258039 -4.339069551414063 -1.5146850672104406
336 5.831108044613366 -17.822985037802148 0.34769079124976504
1487 5.247625512862872 -3.5896264852184374 -21.513571311437477
1488 -1.7519929084933046 -8.652228582645474 9.805034434640255
1523 4.759646090539154 -12.21414247373959 -15.137668240580043
1486 10.656398555868316 -16.420738594800994 -34.69165813367287
337 5.616006776054979 -10.450900149863491 1.1858377578153407
1083 0.7673899610042164 4.94378929795263 -2.3329891940700964
1081 -3.095305361372592 11.18899441945317 -4.893130393865725
1082 -0.06853429010729775 7.0228257915913685 4.109808030700336
449 22.969177475673337 11.929131001008972 6.884061638606824
687 -30.970321893653242 -4.682489435227056 -10.235187051045404
1480 8.184550141871497 -0.5818977783251422 2.468734825869714
1398 2.5428609338370096 3.0915328063307848 8.705338921826586
1462 5.043293137555432 -2.6891178894823526 -3.2770132871984528
1464 -1.4020224099315988 -3.136288983733254 -6.554260613914087
1204 -0.9842888665413182 19.53190497966762 -37.776900295587346
1396 6.560076781103725 -16.302129974515644 -1.502433203460552
1397 -6.504297750200344 5.093556840267143 24.078248037261055
636 -5.467425384370584 4.268125070634919 -1.6509166368784984
668 2.381980051773936 1.5797301362585272 -0.65653225043808
719 15.334204546750547 7.562779837231539 15.91668632561333
1891 8.874700387619795 -23.938315163131882 0.011882369127998942
1893 -5.640714885087281 -5.575577681749566 6.755812640375826
1892 -25.50329666778084 2.245208207089782 14.238092134180706
1388 10.730792280339184 -26.567976598370983 16.08555041768966
1566 9.63297314004417 2.333682351068393 -4.882921600901918
1564 -12.982204743379533 38.09372345908759 15.026234282842125
1342 -14.124764946437065 -2.8751568704169594 -3.7869048541429606
1343 -14.079311275253861 0.27413726493948076 2.793978504543426
1344 8.00529550625602 2.9230060390467414 -2.973780203753471
1624 -23.83072061119299 -16.578570672698742 2.716306927570727
1565 0.5417458701093436 -2.2557405325783506 -14.588112895891467
989 1.1123868162064463 11.417106065700738 -12.702027282952614
990 -3.0219607630905787 -1.5210128855552958 1.2266465445164267
1389 2.1521212903663964 1.4568674470622234 2.7685039389742307
1625 23.999124064327138 -7.476111582443669 -37.99851305530539
1626 -13.666793101956591 2.3188576851415545 3.053905816852887
416 4.190097983593972 0.5503863859277895 -5.522148363526227
96 0.5191932652964569 -2.5565732126875353 1.6395075913326258
128 -2.3370533269610188 -2.2623281990552133 11.680042681506281
179 27.436541346692835 8.981989633757644 -19.1319488003742
417 42.25583356505705 9.892694744792268 2.1336030560869346
985 29.586668172966913 -14.22706416308074 -3.832816260770221
425 1.4909385056315387 -3.11942406936463 -0.855761028678469
427 0.741632577453809 15.860340270923295 -20.331810860602623
426 -39.155572203406265 -12.57634279599922 -6.6749197198069385
986 0.9418213887890474 -5.8130935070850684 -4.391196150985244
987 -0.31352629459420417 -8.608354778322424 2.602217971399455
398 -0.9336542559412477 -4.314629084597068 -2.6222657897924373
366 -0.7739814817673006 4.114721734747127 -7.621158978651705
696 21.761931162365645 -19.833175070466847 0.44058694942616905
1482 4.063869510356311 -3.530094820987342 -2.742249096024155
1493 13.687755218272503 10.207128922511266 -20.52892291434484
1494 -1.8761418698436383 3.025558818438763 0.959641969536092
860 -12.21691027721578 -3.4413369641785345 -25.770886939236718
1492 12.986313020001674 -2.917494225974256 -1.6013549354034096
697 3.1231775476175914 -1.482108263851908 10.15916032001328
237 -7.66767927766825 -6.306880106118628 6.081385617078609
1206 2.8340723859275334 -1.197115235398348 -8.67188259148248
1205 3.6087594943284746 -5.618423715234173 -20.948048322847725
1099 5.282123427189275 -42.207301900196256 8.475293396395694
1100 6.649273074727667 24.431751489990738 -13.849278888843397
1101 -2.055022639435389 -2.7402647997539566 -2.0468013739874
269 21.071454966887384 6.942927739197003 -2.756135939510449
507 0.015994476477771614 9.377374782748696 25.234593547679612
1216 1.952817491147243 -19.458149415967537 -6.651107543233138
1218 -1.0358581455103664 -5.311982003635557 4.309978429297286
1657 -20.07795323442768 9.627009816656372 -5.962427455695382
988 23.74100312195625 20.37783186991436 -15.106914804123274
186 -3.6032312302320904 4.466422096612014 -3.1234183934597515
506 4.720966619413683 3.6362972219518634 1.6597351488141974
1442 19.041674781695928 -0.6520092985707823 18.12634622313707
1003 32.41960149008754 -16.353590139488123 -5.42476162964489
1005 2.7459503952649693 0.04533949666180641 1.5236154730278955
488 -10.144655344380208 -6.568614075082797 -2.0328113055686674
539 -23.853004047946328 7.671186317695897 -0.5813995111510805
1552 -23.114777412135975 15.793924985124828 -1.5744249132158574
1554 -0.5643255045011201 0.29440537379461806 4.405259475283281
1645 -23.903995277318675 -2.8183552602687443 20.18767176460783
1102 12.593502498686298 12.938304778358631 -23.37537449003095
1103 -1.0383545898363153 -2.276513784565211 5.089585611213548
1104 -5.4298576452010066 0.6223288900259981 -7.774486800312685
1553 -14.267539270542443 -0.2494986864692425 5.245973030448797
695 3.229332956784371 1.5350706178603317 0.6506633236903904
777 -4.177727291933676 1.5808697482011127 -12.367371032116917
890 6.5849620994188625 3.2766893499093386 17.17283777862933
891 0.45505637311653113 -4.119310168341337 0.16474148617655293
1153 -5.90186507232535 12.352837199726672 8.845135740758144
1154 -8.070340728015752 28.643620895427848 -50.11890997814416
1155 3.0822928491573296 6.952192098552917 -5.068596823485138
1798 10.062146979110535 37.86699118256738 1.720941390723737
1481 7.917508027791387 -11.986704136762478 -11.096711214408407
758 -3.4748309643986217 -5.665656615716995 -1.606148182957061
809 -15.626090178610985 21.54270111413585 -1.095711795908652
726 -2.239939905474487 4.439101854571772 -1.6812051147168918
327 4.857467183495387 12.544430300446955 -9.725979832350419
874 -32.48560298915799 16.18739304580441 -4.114489409447674
89 19.326890670295093 -24.07759238804178 28.10464109655356
516 4.800996098991835 0.5686462768667663 -13.895730168690529
515 1.729863369859446 -3.245562169638516 -3.5272018744149785
517 34.64041939673801 34.414703037642475 -2.05308599259575
1869 4.747963860793345 1.1465779720731955 0.36723191997024124
1868 -16.57082776308233 14.097207690606004 8.455805858773886
1391 15.524155199812641 -12.600430256925385 -12.643718274216008
875 7.155826333667905 13.658065927027971 1.92039134224997
876 3.0457199102638834 1.258410459645445 -0.17338238482163254
898 -8.542727165160771 9.50158476699991 -7.8610592086567594
900 -6.632833452282867 1.2922179602103292 4.255662729405402
899 4.014141870126074 16.127637990810005 -34.256828806609064
1390 12.862459789838725 14.468721752033028 12.711852127259059
1392 -5.054001529704335 2.3367188103204244 -3.238956643156839
308 5.613438768035247 -5.332373013104561 -0.5581608060916231
1642 -14.098014436365295 13.774433860998835 21.486504832540685
1643 -11.046175962950446 14.748996481187582 12.227875410762564
1644 -0.9875428818053363 7.268207479008001 -4.057929873071233
1195 4.914267928201258 9.069230321163364 5.528249190358849
1197 -0.9639836925310002 -2.1764400396442034 -5.799268406730128
359 -17.390428456732955 29.368168719538012 7.148913759019053
787 15.60767003234068 -3.2745608084765894 -9.773627362085445
2000 23.760760823863276 -23.441916597812387 -7.009180677253201
1501 -14.097006183101973 4.47104984222995 23.23051028293075
1503 -2.745665040001683 -0.10079778992653342 -4.66020210506418
1502 7.424854359226496 18.91847808515485 -11.378203166483091
1673 -5.3152638894576665 -10.73853691580789 -19.399101723021435
1674 4.923273961354916 1.4444133906100303 -0.4089115881202455
889 2.7768991723140415 -5.988173464416292 22.269327044692965
1436 -9.705114596169079 -22.358904870773674 -2.814267573423302
546 -2.104596610081538 8.144285625305107 3.4176606600009767
578 0.9480561590658247 2.9736114427959808 7.441785854999566
1373 10.0578314905885 -5.506319513655647 -7.91774469556359
1374 5.108489616504626 3.6203501265884928 7.687281010484951
1437 2.322414673659009 -3.1869530043727914 -0.5890117822530088
1855 5.092397692054631 -0.42310860144900836 -20.84016615283581
1372 5.273429008859334 -12.547701491410775 -10.056785389977671
944 11.024075240119831 30.839334774947833 12.975198131876725
945 -3.544289474140723 5.254477853427763 -2.6009026710476
6 1.7429131528291364 -3.806425182262595 -1.0600912779024145
38 3.931530973467918 6.726544783390475 -0.07144580509292266
943 -12.901433817602028 -1.6626374964393766 -5.67203338923924
1027 -1.5650938978368858 -9.415767099229662 10.994696166814778
1029 -1.4398732390824087 -2.8634854606307436 -3.698148634033491
1619 -26.775477275481727 -8.159125235497255 -9.363141531879926
1620 3.3373653684487037 0.6553006151391145 2.2039051756291985
1028 -11.14788936254074 -6.765030953758048 0.9489915568452316
1885 4.684119570471422 -13.232486011748062 -2.5578372489312975
1053 4.127729970858283 1.0983006770048205 -3.834605068966542
1253 16.771362843294927 -1.4104159097006488 2.6341258505680574
1254 7.66180234359869 -2.300105285609474 -1.5124646646289406
1448 -1.6106399553182256 4.4303534988980005 6.762709186879255
1934 -22.529978716742413 14.945057059171164 -10.215205251292154
1935 -8.251922751005466 1.1122154361230328 -1.425488685394679
1252 -3.7990888963873792 -1.4124505623726307 27.24178022967187
1933 -0.14635829006793102 16.639415831841713 0.5140140176968422
1264 -0.9117216448325567 -7.580587712485503 -26.189237621360565
1266 -1.8916719960412873 0.34256885650789554 -5.124155029246622
1548 4.253826010314017 -3.659923563426058 -3.006629748428295
1369 -1.8979072514476552 0.10610630409199966 -11.833597126949407
1162 6.123305780359259 -8.04604964036497 -26.30714005654786
1514 4.7724141749185405 -13.678273791751417 -21.694573730473582
1856 3.837572538580433 -0.7429305285268419 -0.4989296432527129
1546 15.866326177159447 -5.238116778214918 -13.19245761351837
1599 -1.8842274680183244 -6.571781884303099 2.033711198190766
1669 11.018867202639528 25.836144391130766 11.400806442549387
1671 2.8483706872780163 -3.4218057417768324 -0.2162436328524495
1598 6.191421359988529 -13.549161196839217 -9.266615098805142
1670 14.778215124068753 10.14841548753399 -8.409975617201534
1832 11.947827911770142 1.0701523957484058 -16.391113493557597
1618 -14.99870811347014 -10.537673899094536 15.044300857400271
1831 -2.059688932036438 2.73693234910091 6.270145814161257
1833 1.8000922712313578 3.892322390152899 -2.855769146610186
1886 2.2301204927926745 -12.770204780376917 4.743370205917573
1887 3.2980828873739982 0.4205940323270348 3.1534314458665573
1404 1.1324899715006727 -1.361491707308618 6.314170333699947
1403 7.335488584179844 12.052626138827057 -8.84852661278071
1463 3.4563659165916425 -21.50171119163974 -6.763092097205525
1498 -3.638765510820662 3.7714467870181276 15.859165267436726
1500 -2.393843941782446 1.3749354507624327 0.876579163066758
155 -0.25158104813459153 -2.479899314912038 -6.05082192727307
156 4.975568318344477 -38.86579719341607 15.111450922903499
157 8.266486966819498 3.6681287093827497 1.9271765238758056
1499 -6.71316640027432 -5.105064593809498 -5.732097760681714
1733 3.462582550986199 -16.483535391229292 10.211708790319724
1298 13.596131545186458 17.940722026980787 -5.442957387172505
1429 -20.94217162222287 32.207888783389215 -9.338617977851042
1595 36.48605564108434 10.068184352829347 12.27055817523215
1547 -9.452515936535693 19.579999220908064 24.385134188725246
1299 -4.489399568849605 2.606447051396497 -2.8929082003828777
1117 19.30326631101477 -4.208780795220874 4.906936938534045
1118 2.1765806153007725 -33.492757500766324 -5.812387472439827
1119 -1.9256653231693552 -1.9478010982034375 1.318753801689137
1297 -4.9243418270870745 13.992782665172271 -22.87004774224951
1414 -10.351779556732838 -7.404802193305291 16.453282470853352
1416 -7.105580985255903 -1.663023536808067 -0.7532905367274955
1594 -28.502494606042497 8.331164280030093 -2.236966788166313
1596 5.047021363101398 2.131591596616687 4.342892251191875
1597 -20.736209853176447 10.141761315905107 18.957309686014185
991 7.586723288450561 11.719479308699876 -2.0579611928237984
992 -1.2266933273945693 -11.292234293393566 -4.098895760809408
993 3.725005661996826 -5.173984537642657 -11.78761018111925
1093 6.499517639574337 24.458617742061993 7.749505883843081
1219 8.897900310937619 -12.21792445453917 37.116127186059444
1221 2.837237241168011 0.010394468114142399 -3.518360092078271
841 -0.03585497615669902 -38.909774704685205 -13.898765434379044
859 16.753782177842883 -7.373513964685838 -12.140091532741668
861 0.15688534813745167 7.425316083609532 1.8657605696913433
1048 7.715113875675364 -3.848084854727738 -4.142066359967151
1049 13.33740559268365 13.528286156999602 -1.7203327688427492
1050 0.03275305484547986 0.9573451287414678 -4.944931428471349
843 -0.21614530010346494 1.3678412257077257 -2.4294871787451706
842 -17.512878874508424 0.4746692933450699 9.759438062589533
1636 11.511404188453469 3.9846909542946523 -10.40539488892382
1638 4.194450014052147 -4.038158568918645 -0.04571253253901137
1799 -8.66628469279375 -9.924844349099667 -14.577004584063012
954 2.632568813462847 -1.5018594577393545 -3.068077707401521
1217 7.085510356709367 -4.683681075769349 -19.720994665680116
1306 -0.41403281504122946 19.86483569896751 0.5881684159146567
1307 30.720703390787136 21.52664762248262 -2.1346414311190447
1308 -1.9140050269397773 -3.474156575967897 6.279771217682561
1734 -0.49480152185933435 -3.453321006516382 3.529994635090859
1106 -8.163469217865535 -1.1248856667612543 -17.63062580439451
1411 -24.60846525874159 28.075215007926957 -2.6019201843764486
1196 4.850375138396021 27.520427275869853 -26.798991843442472
952 -18.41850334885091 9.116653455233198 -5.439102671750673
953 16.756310995749327 -0.976808580222632 -19.04547865272094
1381 20.055669586925468 6.170574966969233 11.292813747149427
1383 -0.11162259425614228 -4.00386602665263 -1.9964363687098925
1415 -24.707229268666946 -24.843493033922304 13.867706467206427
1441 12.161812576478843 -22.155945269504638 13.875126840787496
1443 -1.426681666523136 -4.669363370381011 -0.6694453708787501
1526 -2.3602569902301918 17.673193927661377 5.129425306019502
1527 -1.671088988660585 1.562942394592168 -0.8441421264951674
1007 26.991950830137405 4.1271612583063435 0.8657474449736762
1345 0.9548220220800905 26.949760966328558 -16.558308748008397
1004 -8.773539760596535 -1.0261962167812986 7.24959653279227
1652 -1.4713398423252189 -4.7383397165961 26.516081842984406
1525 14.501295535532492 -5.295946334989897 -6.654733148367353
1382 -24.59135245440759 26.38667589377082 -16.333280405794874
1646 2.4419384138575846 36.24514982627239 -6.919597035846786
1220 9.261816212919042 -3.5932730309025875 15.912474719517688
1096 -26.310588200557923 15.310511379670464 -6.053459302457302
1097 13.377682238792238 13.845496385255 -18.379087617458797
1098 2.418961177992155 0.12582053278227118 -1.2576786876297958
1631 -32.99946659156153 16.247303865292615 1.5379297939336969
1632 -1.2916486544988055 8.791114832024565 1.6583225292127088
1647 -0.1634355996225113 3.9822541687548143 -1.89960483051947
1930 0.5234944259788765 -9.273778158908708 37.2470457421536
1931 1.7123137531520416 -25.009921706860908 -20.84065943191119
1932 4.674826266999022 3.8636181224832287 -1.8345756584133475
1226 18.837517471690884 -7.693534390841249 0.5654819510174147
1227 6.475624560734566 -5.385328374924685 -5.657070592312995
1714 -15.690585765951635 -0.38802792148550896 14.208060895991673
1800 1.4562610942695555 3.415981638915942 -7.333618748136787
1945 10.100710568323857 -36.372442851644706 4.2255741334175285
1225 -26.018803266826556 -4.193542281182685 -5.826190660900182
1960 1.9571417024303135 5.504563550418428 -8.965607321926157
1962 -3.9679363795524623 3.0768651080470315 0.5277144780701541
1715 -12.7594675458272 11.666791027417322 1.6794266810520264
1716 5.544329728541801 0.5121359230702087 -3.1620772360905947
1412 27.744725666936404 5.729186279615326 3.483951384142976
1413 -2.1266789887649797 2.690786300903853 -15.10177177470786
1107 2.3186751495138203 6.1244379219079885 -2.5366004610268837
1867 0.026224346082268243 29.187177348414387 13.536894966840933
1054 -11.791528703341122 -6.7089851194515875 11.884316551474466
1056 4.012530776323483 4.89030824248809 -1.4752632212702455
1310 16.755420866114978 -11.05118278960467 -15.115473482448422
1055 -1.8435987579141473 -7.164659482281517 0.3090696074204603
1311 -1.257635486707845 -3.4122357522597335 -9.170335332799935
1837 29.756675137763676 -3.5034721176336463 7.287980211682274
1838 -1.6804607123343631 -12.821981385052506 3.249886361535046
1839 3.3320954392477753 -7.507612864015369 -0.7009617372312029
1888 -17.41538762681142 -29.925362729202323 10.207580852441643
1890 -6.076110751557104 5.195047679328943 -5.638978331670095
1309 2.3467420437211284 3.4559520207076924 -8.227019305674087
1378 10.542376462904237 -16.0554833526217 -12.076724581965271
1380 -0.45576919774825114 -0.028867261773717408 3.8477017352486116
1379 -2.8676861167606154 6.306750230905376 -15.152119830564523
1449 -2.9865501034325863 -5.302225982754176 -0.5343764646734053
1889 5.522094928987522 19.607595683018676 0.5398408368121251
973 23.62297672006171 30.4584183985062 -0.6236810500189219
974 -11.894468777688388 4.896768175207514 -22.60741728451948
975 -1.328828861304105 -3.8779857272327933 1.8199531909187372
1663 20.344278630138316 -15.968380503547777 11.222936481326572
1664 -5.0956735366402715 -42.411932626091584 37.11886660588382
1665 -0.20555230098438493 -4.749787635913387 1.711480412581844
1672 -5.625831258649371 21.523903941166168 -2.092818754944005
1435 5.403936516262675 -3.4577149590226046 3.6078353452803897
1370 -8.05894814578528 16.5976166967862 -0.4015907967540541
1371 -1.0272640396132815 -0.44390474956624953 -3.4367148280263606
1744 14.409532138238644 -38.4463841794054 2.7049567702464374
1745 -5.625264267171667 -7.26336276358047 -11.062527896448648
1746 -5.820307681448776 -0.5593465733560055 -4.955025631059029
1946 19.880830783733703 9.022337047586056 5.937302757585993
1947 -1.979908844029293 -8.822362172747194 -0.18592313054865553
1857 -1.0137998072394185 -6.829161199928968 -0.8347546066446959
958 21.11940267730784 15.092618149609132 -12.715670332815032
1262 6.902130967334062 1.9339217114448077 1.7411562602496935
959 -7.692102202200585 17.977706829362784 6.484765553058407
960 -4.734535913439809 1.8265931275282923 3.062454126421189
1261 18.474270354108288 3.300340636146875 9.002035483846928
1263 0.7087179659407145 -0.8429589203018913 -4.095314163786491
979 -0.8104623549881047 -5.330514098567819 0.48196661611068836
1045 -18.47471639728348 -27.055687886393645 3.9051410436573484
1047 3.0113179645711146 5.400711919712493 -3.9280493990136467
1834 15.46404530943602 39.473642420945346 -5.944780793057636
1052 -41.18362206941724 -11.59657294102951 -13.761790250422543
982 -0.6882148071975042 -7.228267523133416 -5.9009306717882914
981 -4.266340298504405 3.970924068314974 0.15632047171172994
1046 3.1024726665631097 -25.87452528934685 -7.669541312316476
1790 7.225981134284926 -19.54767056659731 6.479013006918078
1228 16.992327350261956 -3.640809391301582 12.516855054189488
937 1.8258801070308486 -14.143765265570702 -18.464614289164732
938 14.920566933567201 -39.6739688352199 -12.198941460984335
939 1.156052648988593 0.8358589624144633 1.016286063124093
1861 -5.583548302916162 -12.560521394041414 -15.479516513651882
1862 11.515196094451591 -8.943778488163836 -11.001590417001342
1863 2.399268083235174 -4.96467470151324 6.379496615539224
1789 -5.715670756936801 -12.697184185740628 -2.820015708830562
1447 1.5578491536488994 11.812028081709135 -8.040296202787035
1689 -2.0795884627487307 -1.679704965411878 -1.2533840962274938
1515 5.049093552884005 -0.3931092500837598 -0.10522327719665221
1513 -1.3080891299336281 -23.495603722874623 -7.814739748940371
1725 3.131236152200263 -2.934983652482075 -6.802376348324292
1753 23.570493467468186 -11.900820769760267 -19.177127220068236
1755 1.8599926962333537 11.725006721917428 4.947935589008159
1687 -7.055522477870552 -7.405412205386066 -16.056842113192346
1754 15.361744844186672 7.1869728410857645 -12.457122122988533
1164 0.005620494779363533 -9.331263055478832 4.17039610318464
1958 12.391386393570523 -31.205553126767434 -22.456544000563394
1959 1.1193326687761536 -3.35542164855981 5.964909774635251
1010 5.671013874997977 -19.546350328344424 22.789134494406564
1957 -32.247029708233384 -0.37239223442481006 20.59835846411512
1367 -2.5643585175098735 7.8632796005498715 -12.014879677987759
1368 -0.6099592578758276 -3.684227272125563 -3.6093854312583944
971 17.204231235782952 -1.0663638181604833 14.77283341036728
1366 5.006555769641893 7.115331921594304 -12.43748916705025
1521 0.3276942405636198 2.9195284788951583 -7.795715521253087
1051 -8.397688752632464 -3.519928983139109 -23.69769938147056
1835 -17.680197455166915 5.080056576733669 12.499749804052657
1836 0.5824008089286802 -0.6937807945255277 3.008415705622816
984 10.314046442365706 2.531135104696653 -3.903555851380635
983 -15.508445711038684 3.1669880408539957 -20.506723138703304
1009 -0.637187341884289 -12.253715112530616 -8.281963918990902
970 -10.486344677254525 -1.812281712578977 -18.083335598982917
972 2.384695872629079 -4.927692327752831 0.4332728198047923
1011 -5.616635525867462 0.18657068983680059 1.6018707620714394
1402 14.668776929975627 5.707292610358627 2.499236676135914
1765 -5.368536845520494 10.30713402631842 -16.23824397797695
1767 3.6774179668098403 -0.43315630394538784 2.4098028715321713
1431 -5.450328742501089 2.617116699911115 -12.313170561549505
1766 11.0366926283903 -4.626827408249677 -25.202045841466546
1791 5.575697029228672 1.684065669753255 -1.4958130127492566
1019 -13.161599092304948 6.62758473474411 -27.04006677994264
1020 5.284754568468372 3.1084521170594126 -3.626191438818371
1430 -12.901968977734628 2.5807814738417774 -12.277998896024101
1688 -19.35994633339263 5.5092733029146554 3.864294636743413
1783 -9.488156230156859 -10.634863389743611 -28.814498943713108
1784 3.8283411472458795 19.225408636298027 26.324706463106658
1785 -5.901441934020788 0.8034957393005997 -0.44232239067430595
1952 13.967583766465587 7.289887154561712 -9.889600039194026
1018 -21.99145317594909 8.532035357914411 19.50410787179811
1732 21.950068191253713 -23.792025712638896 -36.517029428998406
1456 -10.242931723256941 -15.010175254691767 -0.27053032204184646
1951 -15.831886554520386 28.193687829995124 -23.274937450031057
1163 5.061846064219424 -13.197207139414576 26.982419169836188
1613 -25.69008170021125 -18.914017812112096 -25.5174338341604
1614 3.416529077878085 -2.758760872348687 -3.279019424596255
1693 20.580336863334033 0.15357068765772922 -1.3593665903604122
1694 -35.186868532516726 5.676258036519965 -4.807224579817518
1695 -2.612207565171403 4.187931337028299 0.6947426341566766
1612 -23.59746518757771 -4.579181214426515 -0.9473914946568728
1094 -11.209510203315103 -13.456685536198087 -2.884841291041846
1095 -8.84271595374102 1.0875852632115732 5.940925329838609
1519 15.267113491473127 -16.894517093636132 12.435712885177054
1520 -23.841978195826968 -8.22472698312822 -23.909587251589077
1016 11.170262127913148 9.885404242210878 -0.7432662227227451
1393 -11.468472890218138 13.54723255221522 -4.761949322376127
1394 -13.719480409003168 5.465544126823533 -10.810961162244405
1395 -6.423108592025493 1.5163912734028 2.8378335971308064
1996 -14.86033645906652 19.460881912700934 -8.198078757564524
1997 -8.876985464156418 8.397834473457927 28.273035714537123
1998 2.8207433772597956 0.1259120158701024 -0.21115197708224806
1844 -22.371902167989386 -13.291559090977342 16.79751097546596
1845 -1.9742788211440998 0.8663656840766361 1.1545337168035665
1017 -1.4766265961535119 6.595706596776029 -0.8101732382363221
1637 -9.203304617061798 -1.8752059859230166 40.79267569962652
1925 -17.72915708391348 -3.611912566399026 -8.191062737329055
1015 -42.57293264414559 -0.9135313909945634 -14.691275353521737
1510 3.012333429454411 9.240580652135922 -1.1135438576665058
1512 -1.9929707633473142 -0.7172160845666613 -0.26651066549361396
1924 39.113873970423825 -4.228236517373816 4.241128552616997
1926 2.25318942859459 -2.7873993302322573 1.9142227024856653
1511 21.251848816083054 -39.87232800580967 2.1068767312589696
1457 3.458062589831994 4.754801599722013 -15.635677028406375
1458 0.47688442956484434 -0.3896458855271252 6.765181093213046
1953 -11.291722892300335 -1.2525598970702259 -1.920441783777732
1468 -3.8002397497712455 -7.750070795472239 16.2470310229429
1470 -0.29444493653513915 0.3121945879050339 -0.1117801946048819
1319 33.272377903866186 1.7888547532032568 7.060346723405765
929 -5.830506080907277 1.7900258407501726 21.04022867296896
1517 3.2782968377053967 -11.99826944019407 14.247949040835065
1006 -5.427294546974379 9.310496521979736 16.001751860184932
1008 -1.937618579635184 1.0717088739499754 -3.270774055607195
1346 -17.635741241347723 -18.760853332853035 -11.289934351909165
1347 -1.5770746222866494 6.586231522589654 1.7479826969296353
1823 -12.201056030639652 -21.47106074280827 9.466668834306677
1824 0.5276141386451128 1.6525508645289195 -0.6297836527377255
1990 31.017879949417956 28.877864682456895 3.3596198450625634
1653 -4.836907387909927 0.8319758018782196 2.7225494311549405
1651 -1.1525687363050439 -28.553932538450784 -1.0014562852585178
1250 -15.637678564501634 -38.8334793533947 21.612080403928182
1251 -4.73898499718561 -3.8172197091552897 3.6753483891628274
1630 -18.684788318421163 -17.526062262334086 -9.795172623264254
1684 -4.118992079841398 6.3938118993223565 -16.805091828111404
1686 10.378881009524143 3.659655428195781 3.7780211283930383
1819 15.722891932743972 5.810544493572616 -27.09600775633394
1821 7.106032523659202 1.3325051475552538 -6.0348415399958855
1820 13.958091726889542 -26.286336284342323 25.947655996314715
1992 4.0701742873338596 -4.726975071636943 -2.1419484673698865
1961 12.129062030638943 -7.484077517632461 -9.990012332287577
934 -8.392867323765108 26.96370564355886 -18.9496601446512
1126 -5.381395640783428 -2.591901231231551 -21.219013454498633
1685 12.000403425549955 18.67534059617947 -5.130838650666255
1030 -1.895894107340166 6.513315158864319 -45.251853049720474
1903 8.519959773422809 16.736396714764695 11.499868406184763
1905 2.9258512216690735 -0.28406199283011807 0.6656406670539157
1904 -9.286854692382128 -3.183425447029675 -12.08650372909588
935 -4.853072874472837 12.708848353091554 2.5066016871676777
936 1.3328930418359999 1.9288864832783645 -2.5858510051404253
1127 -27.880480431240517 -37.802023225345565 33.39836349152949
1128 4.866421106322647 -0.05485018054366862 1.327550377002627
946 6.855492746871856 29.152361649474305 -2.1397359337447033
947 7.912025798941797 3.2713216888539347 6.784926199534926
948 0.6005912494404844 -2.041494805356671 3.4350746603863294
1105 2.676059244790502 4.6020850056794735 28.403432350656253
928 16.770589713019625 2.602645829755226 -18.707526082858454
930 -0.07982548746915175 2.726771990336061 -6.564970944557025
1058 19.26743384606482 22.877119917774884 9.274860651412338
1508 -7.378140875315317 -13.901888243491443 0.4320910546431915
1811 -5.064023813822101 3.9116514807139007 16.716571417457484
1469 0.7827186983269401 18.564362576046317 -13.601669408785792
1229 -32.19877537897231 21.20422158363541 -10.098858253789317
1230 4.362143935874572 3.0658124846400097 2.8828946649810363
1822 -4.325529911491184 -5.427652320114185 3.8920711687634206
892 -14.782505519941022 -14.100666338121004 28.876686705795343
893 13.291667202028487 -6.221451269853623 27.08030396243773
894 -5.047435085234108 -3.592197226747708 -2.375357736635033
1240 -2.0646451018847056 20.49998559276721 -0.16092025313864125
1241 -2.131507919351413 15.27457877936183 -8.117931385201668
1242 -3.8986345587079154 1.1341174162676377 -6.352835602751305
1874 -15.78648682354358 30.021554154049586 -5.164689700552575
839 -0.5080817153678786 6.2533529810491615 -21.82078425704852
840 -3.4611254249209034 1.0274081715781858 -0.36581185483113027
1660 21.97944324492464 -26.640680854894207 -9.544382756957065
1662 -1.3087281142829224 0.5088405389531467 0.943484778235228
1875 -1.9255985848251522 1.1780046050314037 2.049368747819984
1991 -2.6537305488690097 23.06008975802291 18.77467810304413
838 13.389489115798646 13.9229858206421 -15.420419359852191
1031 6.6700643958785655 -23.08724008294125 -36.69630254399318
1558 30.142752937104927 -26.936189113181406 -4.501997340365533
1559 17.97047506513685 2.330640377856705 -8.951183729135217
1560 -0.33100495746254777 -0.6674984332233818 -1.3859964300913534
1661 15.614219619671585 0.24847415050707272 14.990942384408358
883 -10.976257367544948 -21.59016021624686 -5.955015155065751
1676 -5.216373014748481 -11.876334364537108 -1.9569591684679322
885 5.368663133621853 7.859495073827125 -0.7630645755848725
1032 1.6290780600157317 3.3577120203788753 -5.262836266688945
1909 -6.753330528704064 -24.119089515271273 4.865252167340446
1910 10.764425657547402 -4.487454197089332 -15.40457704048448
1911 -1.7955854918310425 -0.9031389190602628 4.103204801118641
884 2.4034107052181333 2.0822724615317694 4.821815328612762
1675 -50.88969554769835 -10.238619854642517 -22.804670542126214
1677 0.5097013856619483 3.4508740775268834 -5.3451991054314725
1139 8.784462365562954 -5.44338623063256 -20.738683789010143
1341 0.9413434302527619 1.4870358634104328 -0.023768418494042872
1655 -9.329253035736679 13.259090171996746 -1.5262971855126455
1507 1.6788200200242784 0.91026146122794 19.71862940515078
1509 -6.197232030885409 -7.593630520314274 -8.487257903245808
1654 -5.446167304407697 -9.812316805732852 6.783710051569979
1656 4.662342249874511 6.991762258037255 -6.2030113449476545
1577 0.7460967390456321 1.052351272896329 -9.968305893453657
1578 -5.055898246262626 -1.4535385042273274 -0.6933714713620333
1057 17.084985911295952 14.115073304457235 -2.3528975139128394
1059 2.113143111175611 -2.177017318418954 -1.7923205789423722
1340 16.214341164419245 -8.661511654219465 0.868888963052627
1576 -24.17118055355586 -14.181699022537828 13.365772879272145
980 21.924164981460503 -23.935477004636756 -12.822070455934385
1034 4.333288106709479 4.181737441952527 3.5368256034333365
1109 13.225745893164357 -12.931883472958823 -5.496486051152805
1110 4.454562855792164 1.398121742026685 -0.0031224994654094084
1506 0.30225698595270445 -5.311535875341497 -3.941419577340966
1108 1.5458521600641777 -16.710890654764825 18.83005005214143
994 27.326121672884955 8.147773399254625 5.251678976232142
995 16.32209669253118 0.8561330805642623 -11.863673155797608
996 11.744847400210853 4.468100375924765 -3.932478390966238
1977 0.6682067180440293 0.3257185572618287 -0.69323672702617
1975 21.988575308666604 12.65830511873176 8.614963921144623
1313 -7.360529736511609 -0.3507869693968319 -0.8307442286276003
1976 5.272217766567575 1.8493182344453758 -11.764673952656445
1178 -18.048695773284088 4.8121734965284855 -15.626445203076418
1168 22.158229999344094 9.655636826059897 -22.237776200262704
1170 6.027005495682961 -2.4775249420574412 -2.071364445490091
1724 19.15848530622299 3.840810487638949 10.5046484474763
1064 14.541456561713998 -1.6739426708033016 21.158049467939467
1177 8.457989622130672 3.8091712979901655 -19.249038016565642
1179 8.819826013225956 3.231931449775271 0.554042194615508
1192 -2.916453710601013 -20.29564789993891 22.800516254399813
1193 25.89577211240077 6.2488282136468944 -6.63778118890285
1194 3.413308787785293 -2.061694745876388 0.603773177199129
1723 -9.37159144030372 7.858410941983656 -25.25963040083959
1115 -6.345520933296964 -7.15597034496457 -10.378812987154681
1116 -0.23355946131015803 -2.1473523737477054 -1.695049019037923
1743 4.815135886086928 1.6830518704975894 -3.356132441231091
1114 37.26784628261903 -0.9329171908966402 -6.538716112603507
1330 6.845583519440706 9.177623431438565 -25.30284826878792
1331 7.541974220829945 -13.187597942347292 1.2677798202547084
1332 2.7454100326375386 -3.0406615607280503 -4.924658415288578
1742 3.2240332791872643 -0.237682438596758 5.594396551252138
1741 1.6185741589150684 -4.934830345671283 4.413152550320001
1505 -23.86829197995605 -22.460698029565332 -2.8555911791707627
871 19.70947480526288 21.090895263263075 18.624775070096206
873 3.257000423713133 5.516161254889265 -1.4522173059434618
872 -7.342831174999231 -1.1248860368846285 -45.8738906768837
1035 1.6560247811572393 3.105012024044193 -0.9803786886219487
1033 -11.940151899668354 6.206302552396374 9.675594325547877
1648 -7.15689450561275 8.057811670256028 14.379968021817586
1988 -1.0272585244763894 -5.885609434228912 -5.445661889276503
1312 0.03372474927039903 0.4368710557051862 11.813727441955884
1781 -21.6947198685957 -11.224979196106172 -39.50554877365637
1314 -0.615767680562943 -5.007485798441991 -3.0322555069535757
1649 17.715128428900787 18.694002733185243 15.818479450851767
1650 -6.835333043559255 3.788273462424482 1.3820157034142095
1780 1.5550134059707894 17.44307378687209 -13.970061586515417
1782 -2.8065138978811692 2.667063008601092 -1.0270809505019576
1866 4.189155917999129 -5.656827335951667 -3.9125568341869545
1865 9.268694747773326 -6.1439834294063775 -33.36776690431424
1161 -4.880891512351244 -1.3922762837928782 -1.554212828271167
1320 -2.693148127360763 0.46724034040203205 -5.802280954324932
1211 5.78486418874034 -1.7766949029698307 3.7801723006374264
1210 17.931734752382265 -7.186887284490111 6.739080205246867
1212 0.5114945987537733 -2.458929237556559 -3.4769235267392085
1600 -2.004013315345165 16.007811700858156 5.41339451698109
1601 3.321688937022875 -1.532328115594238 -22.829407821900155
1602 3.0560993575269206 -4.907646081655424 1.705851939448931
1621 26.016765371732287 3.1464951684774305 -1.6273839317757406
858 -0.18156742790431687 6.347172519639534 -3.7116427206647855
1351 28.54791318987109 5.0753212984123515 3.142819302095881
1352 8.330788712845875 -22.29125103556341 3.8660453533385155
1353 8.369891215395857 -1.4498527111038795 -4.9064954687650975
1433 -10.023551892899752 -16.637882820562425 4.158277327535335
1434 1.677381214234128 -0.46294356240062495 0.858985054668427
1622 1.9205945490247185 -4.344446075600374 -22.45608553347524
1623 -5.35261790026467 6.622202893134712 -4.264122923983542
1843 -20.34253095376632 -6.769856390791563 -2.3764716116225566
2006 1.959032633538753 2.530899636267929 6.230573331709657
857 15.693014691727756 0.6651502759656485 2.5685365622429837
1070 -11.259851563467082 -8.894885382921352 2.9065627258596693
1071 2.202407846923131 -4.245818179078821 0.20298389164749606
1432 5.0541942243090014 9.394725357427674 -4.870690892894098
1922 3.466539257973842 41.485867174446085 -12.729119899726497
1921 -37.35539961059646 1.6889401753800726 19.496035064753507
1923 3.1816135756497834 3.051695177441685 -8.575160286384577
962 4.722410489972077 -20.674022842073946 -8.126853514000073
961 -9.975733779036764 -33.81252659838866 -1.399895395489082
963 5.6020964392232395 -3.1311299912793324 -0.7602145067343709
1069 -5.3214618557946745 -13.717389119220796 -12.624750779402413
1348 2.4954894749726755 -28.865704659486898 4.187737697161251
1349 0.8519399564931165 -8.444040563666228 1.194370820530079
1350 -3.0420473495717215 -4.9276392899752235 1.7453993087352622
1939 4.696865467594309 -16.70849587677618 -6.852467835345318
1160 -33.82339980658559 7.683398579004109 -14.079384283632432
1518 -2.541187802493935 6.578646138356534 -0.839315220170604
1159 1.7330883956616723 -34.538492926908795 22.244856706963226
1864 8.094211626959266 1.2766108807773366 -14.810415235128243
1870 15.14192280139997 9.754507977298738 -6.530174234342629
1871 14.482907670062078 3.801176323529775 8.908665661214663
1872 1.0513964088295646 -3.135913628815583 -11.69857854450749
1516 -2.214473583037045 -19.58450029991181 8.394394024012753
1062 -2.766250516503036 -0.8489812648855984 -2.1319320785598173
1060 6.125593999766319 -8.588941094264909 17.107990424769262
1318 -9.61911533785224 -7.6643751982946045 -13.300199996255175
1224 1.3411990214463192 5.790266557010393 -7.830531600685261
1222 13.335681293751735 16.138578253192875 22.335387028025387
1223 11.438195869619218 13.823401325030993 15.492799136425885
1270 39.19015188964746 -3.184058410039109 1.3435711214414765
1271 15.118923968102482 -16.348466916417426 4.821819742511915
1272 -6.931378714204156 5.4245653880843365 -1.1285195353135595
1814 -9.261701060974099 -7.323198590490583 -2.205339568819504
1815 0.6533122016822709 0.19739351928806675 -2.3985848319729937
1813 -11.553572736593901 -14.652159566574683 -2.7244081811551584
1150 18.8480436656591 -14.788513064119723 38.44336200250526
1152 -7.312993828978885 6.534234980952847 -6.004756294829236
940 -19.193985678375117 0.6905963143042583 -24.655588843249724
2005 -6.475370216249042 3.487751795762067 1.1835986979361093
1773 3.9044843628596086 3.3118737263886127 -1.9457204487791697
1249 5.367403294149637 -0.5454510669072532 0.08486531043175569
845 27.861580686288754 3.9816348981876897 -9.699305942635064
846 0.7280465836597194 -1.4907809592971561 -1.8530477842364694
1739 -1.1938495216514724 11.079048979798861 -25.998247674346533
1740 4.304576643015654 4.2049866073017 -0.44463013403938945
1771 -2.5791365908516397 4.040147247419056 -4.875666428481197
1772 23.360163192248688 13.01321629700505 -21.131051990419927
1738 -11.967399799172332 -5.830340227187023 -16.552516956256724
844 -2.7308981887280828 -10.453376867260783 0.17810042028353884
941 -21.726893323352684 -16.23564339028985 17.75102677408406
942 0.6395387495252345 -1.9252312931284226 -1.449698818775329
1722 -0.46778915972241486 -4.308503277703977 0.2177337033873578
1994 5.843640801801538 -7.937639671067565 17.76578025966409
1721 3.256275724552993 -14.609933717079635 12.502643603710125
1183 9.972970065743652 22.17575702016315 -4.869161035264586
1184 18.449222396009905 7.864189425355245 -19.246867274368263
1185 8.906267069259492 1.3646731501253495 -1.7738574246634138
1357 17.725792559677615 -22.031046431424045 29.196297613450586
1358 -11.130180393204842 14.154898791971968 6.642530415770801
1359 0.6396152744029644 4.426141896025073 -0.12017629738984596
1138 -9.5832322174373 -5.430526111422847 1.5890413814381141
1238 -2.0482438468021886 0.24239113080867997 -5.664043396794909
1720 -6.520511420663906 -1.2284134155373212 -9.811695131459315
1239 1.5148804161496148 5.952384717625474 -7.631507112230289
1690 -29.075707428734447 8.692447126962023 24.576444902339563
1692 -1.6661277602589102 5.3727311218483225 -4.252765496796074
815 23.39152503770057 4.350301992309298 -3.03552599968839
816 5.76385209012829 3.985491794481967 -1.3183624791884712
833 8.008892113839508 17.20153574194768 10.545028647914965
1810 -21.09620752253817 11.952080890747038 -7.065149554063495
1812 -2.715956659512145 4.059541204999734 -9.42527594800286
1691 11.541674829989304 1.4220902854477926 -4.246215324879821
1634 -0.4533321448636468 -5.39904727346931 -7.406629432862901
1151 -40.861085803142345 -26.540294328033735 16.225071618187155
1635 -0.33793624475049144 -4.269599600703652 5.506614516495528
1873 3.703885787187003 -12.66117904989048 -5.225282917718314
1169 8.152041294097748 7.745403885697606 6.255154618681121
1729 -12.652274182968034 0.8006524837899749 -22.9587549468698
1730 14.679180511559201 -17.57247251413888 1.7155346451802744
1731 1.5847024454522127 -10.835782718309524 -0.878825970685179
1363 -5.446160631130226 18.66679575530389 -5.622563113954493
1364 -19.27940000058768 -15.957449605474435 6.66537473039397
1365 0.21682724841736775 -2.312151484969092 -1.6886540612201923
1132 0.5515390334463356 8.975058354617182 14.188709699666669
1207 -7.3462991246680245 26.3725684324078 -39.04902012532417
1545 -7.01193876187037 0.19465935854200203 -2.627160320164782
1543 -3.0343278920115497 19.10229932932122 0.41072286688442644
1237 10.15698087056357 -0.19215051869028305 0.46233166712227186
1993 -14.852605450895483 34.34637225422739 -16.531333523157755
1995 -0.14000114285864387 2.612688524304458 0.6691846045969939
1133 0.2957875376188943 19.803962388288667 -7.496362444601068
1136 -18.00104567561731 1.9270362028144201 0.8182439657835987
1137 -0.5108921010581633 -0.629983067475797 -5.675107102966806
1140 3.6876436069189413 6.058674621209236 2.492342811182925
1144 21.75489300707831 -0.4972593676204792 -12.908020926096485
1146 -0.15822283068187704 -1.5767615357497091 0.10637725004373874
1339 -24.4211967432269 -13.18812703540039 -9.896514938601369
1134 1.7305610973529968 -0.7871618029674113 7.413783935508943
1145 11.40614123149242 2.728294385552615 9.940222754814403
1978 -8.255702651401107 16.30926110564268 -0.22283895781575658
814 -29.320996770559 0.42038366274166566 7.72048580923188
1979 -20.76507891467283 -18.325706553814427 -8.506910752639861
1980 -2.7997077270418664 2.208151876428624 0.8600517799571105
1504 -2.3734264821544895 17.90911473666572 -5.139896473639552
1423 -12.803722729767186 -13.0551421345888 -3.110042364876495
1424 7.931487361023664 11.507754341960077 -9.124956471206866
1425 0.577226913328144 -0.5069341735527132 2.3645062587989405
1795 -4.197942035419791 7.1496737403424495 -10.883295080026167
1797 5.307953026189418 -0.1413184408326477 3.134391173759912
1796 1.8026633514159112 -20.959086571377064 3.4996240964591188
1471 28.10584243763279 28.302760618711815 -8.756140226715534
1438 0.7129397535129266 7.410746773757779 -11.561939629408998
1439 2.628202356778669 6.0111085062702365 9.575336495857522
1440 3.6236464492586116 4.761303818690876 -4.465261092353625
1474 5.280583361863049 -2.6609071061108702 -31.532827277706033
1475 18.34124859023249 0.7512289974153242 -11.494485422683395
1476 2.899357997942054 5.37652367809654 -3.487840132101625
1590 0.23000023352480917 1.0841283782283617 -3.417076794989264
1588 13.143317337341523 -2.6612948259267992 -30.240251300277126
1063 2.429930431076692 -1.9258178265553985 -19.641673210076526
1065 -1.8069098318202363 3.8051526860367195 -2.525566957694347
955 2.0015119046450955 -9.766821062299993 -6.124218916650768
956 23.713648116715756 24.722800774747025 7.53121095351329
957 -0.06852416649448867 -0.6205620723883687 -3.8910091487463196
1446 -0.9538228793609815 6.113677541183967 -4.840119783637825
920 5.015420336997191 -10.376337936059345 -21.771842784832682
1445 2.5914576538684893 9.873648253087419 -12.738081325886748
921 -3.8120446975252977 11.223151039521237 1.4577957090919706
1587 1.7861776040552884 -4.032337204519211 2.079741155564041
912 1.9782608119742686 -0.3735154570914067 4.142100244755371
1444 -7.437819626281485 -9.157908326633287 29.523712364939684
910 -15.401978288805974 2.8328970737203507 -25.48261331906353
911 1.3011123208300044 9.6965268314732 1.0647446686241608
1187 -1.3862740269978382 1.8411566663529884 13.755250332618422
1188 8.082263220958314 3.233649116570354 1.025203770922849
1300 -20.75750086172488 -31.189275757145992 -11.104708773627168
1697 -0.7685571092491429 -19.238152878185918 -17.865178339257575
1944 -0.5552653215733049 -3.236558299052605 -1.4209484795642748
1942 -4.566123415972084 -11.365176822647475 -40.057256844651334
1121 -6.840001536856818 1.3265976302458222 -7.75508175651897
1120 -28.532050599747226 1.0119513194944747 -0.9583623615700845
1122 3.0203939502341433 5.54292962138628 2.477323160377427
1698 -2.4519184393748557 0.9288015403653526 8.492254879432336
1696 8.958621697131441 11.593083671905445 10.520395379722418
1900 11.765798999723843 -21.19819193105601 3.7155230918559496
1147 -5.501476555988561 -7.138782307758556 -8.136019105475174
1201 7.227291887894214 12.879661003985353 17.007420946515523
1203 -4.245455108740202 4.2508086506553004 -3.6715083086192672
1901 -22.957237314088715 6.267496322600508 -2.0796502570938826
1736 18.588699784357708 7.21690057158815 2.3557574082725266
1589 -5.723130494028222 15.221468602071008 7.4592104488956945
1737 3.8877363042716997 -2.495293858065826 -1.850711746436975
1735 1.2473718945364936 24.458866587753022 8.477065438801985
1987 -15.320485050155462 -5.032356126704698 10.114698708274824
1989 -4.497859308746312 7.456655578241135 7.860627161897716
1879 1.8089856232942878 -19.997293551062835 -2.508767227288964
1880 15.54766385136655 11.740824570980958 10.571924059053337
1881 -5.39049990790924 -2.4897848383674757 -1.7742203614642131
1826 8.890998565691842 12.595579528932179 -3.2746818150864074
1706 -27.01693713431957 14.841796246860925 -25.5188081554878
1337 -5.729921637995438 -13.985780495694431 2.289884689738833
2007 -6.473668694177395 -1.7429233686822865 -2.71214400509232
1407 5.393024673081929 -0.002768347480817808 -3.087128258706976
1406 14.693153758334804 13.087379185178591 0.8363092530211189
1405 -5.562488997003302 -13.50323777656969 -7.787665238987865
1075 -7.201629376648293 -15.103473543188763 -6.357088226765493
1076 2.71361842245237 -19.812261845927846 -12.485674070339698
1077 5.36696324133849 -5.3405836755959255 0.35654960017674864
1465 21.100461220096786 28.36174311815209 14.229092780267557
1828 -1.3483872364717553 0.756913428852968 19.85242992405766
1829 -10.713367107500193 -12.688847110183303 3.7314571544372126
1830 2.2216382390336533 2.417812343628235 -4.904994091594504
1827 7.439304379431026 2.0029883004802627 -0.3578429453932739
1825 0.9686993825177342 5.572675310160292 -18.643145849661064
2008 1.3497089449875908 1.8348347015891662 -6.491173316430569
1419 -2.0101870408437206 -6.507949210417254 1.4623627975692375
1417 -23.947677023787012 9.492108771308457 3.8140780947480826
1682 -20.30829186490587 11.184916033712588 -4.8572707747037995
1289 -9.536278200975296 20.393686536444292 9.664162267736284
1418 42.90283751562904 -4.007894340871289 -1.766705744184349
856 9.586553039821291 -16.62019378145003 6.204093627450153
1681 -18.31944003520713 -14.493832232115826 -10.434126384826188
1683 1.0565305334242316 2.763854330647817 2.75616430495361
1084 27.77122651007069 24.803740866067955 10.492773743649696
1085 20.63922217882615 -4.76163686093027 -5.756819824013754
1086 -6.848058614136479 3.062261730613397 2.8838944707773067
1296 -8.649148347381066 4.40871328696598 -3.074016098241265
1294 4.023841272666347 -15.221284581893944 22.629668739504307
1295 14.18978282806631 14.533911982800435 -20.831647280727907
1941 -4.318481121435633 4.663094941940734 -0.8303113347992495
1902 5.1667058911168215 5.033887556150718 3.032475793502051
998 6.745663494123578 -8.083676396416381 1.17778032214617
999 2.033355974377264 -0.03572552627753713 -2.439220857571989
1202 -10.159849446598326 -0.7117031600926761 -17.367859868708884
1940 -10.743791590771858 -4.854829865953988 14.345273104366798
997 19.915406901497864 30.577695628134276 16.825560851311224
1328 3.466612860929446 -7.589741106084341 20.652257681129846
1329 2.224728737409839 6.0584104266617596 0.2078300047369542
1061 26.7905968410672 -15.038302366262872 7.846495391202697
1282 -1.4705248799237378 -17.105094025480653 -7.377521067151292
877 29.95180906647593 17.113587440165325 20.97563404614445
879 -5.244212456437513 -3.388829818126085 -0.4279091780600818
1283 3.004933888726878 2.0964011036954893 21.279275298613832
1284 2.128896360270922 -1.587756982075604 4.017343032893242
1112 4.8640087286905365 10.498994996768038 -23.95516986204201
1303 -7.364182849832791 -13.675183888794027 -14.18437093875625
1627 -5.121377758180575 15.718935854379087 11.39062284177383
1338 -6.292482937136721 -0.11350017376511709 3.1676711264420394
1336 0.3743866564974169 -16.369860371441238 31.661371238907652
1726 35.925864849034205 -38.90755315293119 36.686771486079714
878 18.09454243591879 11.469357973583755 -26.73776467943391
1375 -11.572270435730323 45.33808656671644 -5.107075737770862
1376 19.119685623643807 3.870039265784945 -18.35691072689502
1377 7.813004944582289 3.802298947133982 -5.758584486940878
1727 -8.295979453582664 13.005581458176927 -12.313182312699075
1728 3.4193965572187204 2.3677098471650413 -1.3515280795638238
1180 11.762167359471013 29.4484589421021 6.658741701793796
1629 7.711635741818151 3.1968581636139186 -4.594602419327313
1198 8.696707581309473 7.128905979277545 -1.9138423356086152
1912 -11.208525842611474 -27.992832825467566 8.073366581174778
1913 -3.1149505777841955 14.566604433272207 10.113590161127615
1914 -6.494145695446658 -0.6916759094911535 1.2269013970150648
1568 -6.471253183143581 -15.163804395189066 -10.87398967963647
1567 -12.369402300813837 -10.716979480864817 3.889065871639371
1569 -7.794344072966389 -4.446701005494612 -1.7703143420330152
1199 -20.192191545107395 12.196057991774127 -6.986267350753662
850 -12.341541243438819 7.550398759888407 -8.416689025260807
1571 -13.481392278189002 -22.62324687821881 -0.3611865210413722
823 -2.0011728723174746 -9.572273870749179 30.376241629213737
824 -13.790049551590696 -9.218397701844124 -18.382614069044674
825 6.616013869945181 2.803319454837968 1.5596226859902258
851 4.105875937820707 -9.412477661416707 -38.88816588488988
852 7.106227600388045 -1.076540772736191 7.023521656367596
1334 6.02990055403585 -17.622096169005207 22.209367908779235
1335 4.233662828887988 -0.22725276417202053 -7.182939563109684
2003 -30.650647461717547 -4.794315394742664 -18.152497711549923
2002 -23.73617764895852 9.291013270767502 -20.814071608764888
2004 0.9555716481254503 4.492343496170133 7.302363438437292
1333 3.8139113679716323 -23.521066692237945 -2.6154410092995524
1111 -9.634557661979187 43.17279509927295 22.258470728644344
1113 -0.06723387698713033 5.050060764577766 1.6043887583074903
834 0.31134856591505594 5.058663818796525 3.5980156543514297
832 14.634317340314583 2.7665090409831192 -17.75744437430428
1305 1.9517539444174603 10.662864912043474 1.3441694742889416
1304 15.657356897189665 15.03829367340591 -5.8475281108710115
865 -1.9632314164236553 11.121561100352377 6.545560433511139
866 19.61869381343624 13.455618828257153 -19.411953922562837
1633 -11.8463700122178 5.543154788713654 -9.244035382809072
1473 -2.838618402217435 -1.2854901848680738 0.9024849486857458
1200 2.0247438862764295 -2.233743660771345 -2.2454546500409247
1628 1.0370871074886816 -9.38618967098203 8.891485961380116
1964 15.43715705907722 6.467208811072534 -19.212740021372017
1384 -3.1376622174668785 6.090970379379364 -10.724336756867357
1385 -7.4408988400572795 0.46796096234952705 9.309277905759414
1386 1.0768952601980395 -5.788853716555427 4.1739406712275535
1963 -13.147324289295135 3.982191080833756 -2.118846823038946
1965 -0.314632922427313 -5.791526980056268 1.7812819446480677
1209 7.534414861686418 -2.547233477157172 1.0006828117564186
1208 29.485210510959412 -3.4849977146894973 -0.44326595871097546
1544 -12.366165219560068 3.329525816102068 12.139632329295557
1072 -12.150115787116414 -7.621153735027929 -31.66952809019954
1794 0.9664668619085074 -7.186506404381746 -3.5082545919179786
1073 -5.357550306102726 0.6507414601890921 3.636807241499496
1074 -2.25290123819508 1.4331372695014295 -6.248420687459627
1792 2.5891729761609388 -0.07805911876548319 5.344650147040571
1793 23.994837905127067 17.200185521245402 20.52033138572511
1847 -14.76597922854385 -7.813477973007848 15.589530031456135
1585 7.932948419969146 9.926999481724197 11.46905415735742
869 0.038124897589803974 10.998720916865777 11.486325497421317
1135 -7.223248338441899 3.6413576626239554 -16.572425342964507
1038 1.8589048164095336 1.1599271922718564 -3.6596904624966795
1036 9.983958685301124 8.10100530190453 -3.431155951837786
1037 -12.190462318382606 4.979147676677284 12.26634499654921
1853 -1.0085694096470061 -27.478171574901467 -8.157969688305615
919 -8.530983440683881 1.356204560660257 -3.4244244363954905
868 -8.68993119506733 -12.001111284533927 0.6846878346270632
870 6.932460224344047 -1.5384023299360103 -9.18771427512486
1854 2.709407249805949 3.320988306762681 -3.6630036794357212
1852 2.7376436874738523 -3.4314964662199 38.37861303693014
867 -0.4215078511705599 4.490320722299109 -0.9735399557003489
1943 -4.702075322415366 -16.445947972492043 -9.316782452789715
1301 6.057111991480877 12.821780698818767 26.11743723145076
1302 -0.18750432601135525 -1.107095451367212 -1.6473128462353206
1409 0.4241421485196252 -13.278099101130001 17.357269788137835
1882 21.111996556513716 -11.59215147503479 1.5267790553548888
1472 -4.31968830980919 -7.409508799105832 -0.33081131198247904
1967 -3.31941282344074 4.92404348547864 -15.756313329376772
917 19.397116345080615 -8.301837566100836 -5.27994918383551
918 -4.519297469085836 9.363208163587512 1.0294333209401674
1609 -5.344011209267167 14.870526534102467 20.845291899613823
1956 -2.9855126587077105 -6.52321492204747 2.0583728721921806
1611 -2.8139126087484976 0.3679116726474027 0.966650249028291
1968 -3.144711370226077 1.0088767774813396 4.878937793536846
1966 12.644922567626875 15.745986610784152 -14.313554909110499
1274 35.12544884352823 14.3316427138654 -10.663105983142758
1496 -8.585327152985618 -3.524172371244495 -9.978669749436323
1273 2.27237519165307 -5.128332178644753 -1.6072466277608881
1275 -0.8315316459653651 -4.4530689143155175 0.9083683313197454
1495 1.7162346580737726 15.183921502340025 0.9451541295336334
1497 -3.9899530197134143 -6.43760775363028 3.102384524410656
1268 -17.22461385668237 -8.33997191486619 -24.26200297915012
1269 -0.6734582689758898 -4.3653759409146184 1.3145265960657022
1592 0.7968512695626616 27.75111039831765 -27.436444013131826
1593 0.7104280957402563 -1.6128783223704752 1.247850054981596
1936 -2.734683513222839 12.608200295490912 19.80612618271439
1938 -2.0665439345211762 -3.23982759222415 -7.509540120618048
1316 -2.5931792477447333 -14.200787151050742 -4.214801445722295
1928 -4.417596103801615 14.580529625789849 12.684147936868053
1025 -11.062588045426052 3.4858416747224514 -8.419653078239664
1024 -4.39630830363465 -8.5111612354127 -2.075608076528876
1026 3.2244956245546614 1.2546922463796424 -3.5776570669649557
1315 -6.204022327111901 45.045845243327875 -5.087299979745167
1317 6.200296071889938 -1.8492295348922687 -1.0235950312138702
1186 33.359630786544216 0.6568439743366411 -24.50048273221912
1562 -9.588252703270053 -9.114375490519121 -3.093372662877755
1750 8.631943493950589 3.2863578289839674 -9.686172308824597
1561 -7.9065867828676435 -4.883804215874394 -17.10731923496879
1563 -2.1583807614612365 2.94914437775849 2.658534320785372
1292 6.249798671237984 5.6835500635574565 18.363369971385882
1770 4.382804694963288 5.89482658559188 0.8179340556299273
1752 -3.7110277410893535 1.0786195148472766 2.4651545623817244
1954 -0.15219638123337204 -1.5677002414636847 23.390500608867605
1955 -6.214475213656353 -1.7531637181120252 20.716177006864097
1769 17.380159396082785 -8.98036148836771 18.76358470568219
1607 -8.618339484288864 16.642707697295144 -9.713015331064305
1149 4.679945638288277 2.658354719786623 -1.3134927561141823
1148 -0.3667857245116103 -3.396968725252097 27.890313092820048
1666 6.988285258236771 -7.323708365982756 -10.75399763814518
1774 -16.608892361308275 -13.346668971118044 0.5797736502514929
1608 3.272057302835646 5.0871083981781275 -1.5346453055508895
1573 -3.5882370851630543 -0.5936435410560956 -9.807732427600117
1574 -17.194006587085223 -6.323535532819039 4.231182355914689
813 -0.38891077012673775 -3.8114500059371874 -3.9306964554381665
1606 31.815401164079283 -24.524491868629262 17.22648162874368
1575 -4.297315393074588 1.734318659684203 -4.243498744108169
1668 4.044508548010548 -1.6227923935705604 1.1260854323298672
811 -22.030816206361283 -0.3714860975061181 -9.716528534836833
977 7.174840365504083 -4.014844165605684 -19.38261427185854
1667 22.115308235198082 -5.741604164281049 30.016028795653853
1841 -10.86773054743257 -1.0733599288356224 6.7961914365986145
1840 -12.434499110229607 6.821120258582259 -13.817412757057253
1842 0.2737493914390727 -1.7350090793107065 -1.1240879529100867
976 -6.117428927148652 22.499392976265757 2.135210554007835
978 1.4927524197927433 0.2475092101090781 -3.9598486935130532
1460 -2.7318698444591902 2.2236381683358646 5.7840527625869225
1937 -27.145128200233916 -7.519418992018873 12.460708835243821
1707 -2.548321669700825 -2.0181634299034332 4.296880294655588
812 -5.927703452927323 23.553998432741473 -1.0407544623881986
1466 -12.282913475003882 -27.1385175402583 -17.06689953471157
1591 5.287599271862042 26.878382012359594 21.739550264876456
1705 -28.320006036885026 3.2964574570823117 -11.99569100395673
1467 0.5106950877191804 1.820794073060405 -1.1254465388266428
1849 10.934736363297056 14.765191449795518 30.20460972404086
1851 -2.194899844783688 -0.8823432371990065 -7.213219713212398
1877 -12.575325942218871 28.776819838897076 23.381248698645717
1878 0.8339005458354571 1.6847556091362659 -4.26932306390588
1181 9.670489042395213 22.91414691347434 20.483437226800874
1459 -8.511415108790619 2.699023736519213 -20.81623074285763
1461 -2.366095545478911 5.927848475512648 -3.0546247723772875
1850 8.760570962816889 -5.356479279892241 12.8866487046325
887 7.633434321798248 -13.284101233367977 4.250709549756244
1876 -24.125907040082538 4.503210844337533 -11.89183791259575
1290 5.699388228945972 0.006370808118905131 -0.8407477900731717
886 -3.3767304686821866 2.924882667456153 9.11350194100665
888 2.968804436428422 -8.368026950231513 3.1805171011504103
965 -12.899601308818331 21.767427652909088 -11.35315069327323
966 1.1312520187664474 -0.03683443678664401 1.3000216042136616
1919 11.555654285466337 7.047755451934368 10.419819668885031
1013 6.555605354130641 7.218692495651672 -0.9483613627148857
1014 3.1344506075997534 4.994309227703329 -0.995765296228021
1142 4.813584174399123 -15.414636001798563 -13.318660404535725
1768 -1.3894276601641575 -1.4984089408565826 6.37696268287486
964 4.062764686236429 21.336879704863136 -23.398337914239793
1528 9.478383861167716 -1.0159659947187807 45.028991363025945
1066 -23.556222047510026 6.945701060468935 -7.105147130914588
1067 -1.4289644215591533 36.48613513000088 7.087991286415245
1068 6.05563861173874 -0.24442984855876254 -1.214335454320634
1802 16.530172735162925 10.46501480008099 -12.27640161096573
1803 2.3915867693635957 -4.4187471133282585 -0.4996582571969391
1776 -5.104171790057523 5.789098712983217 2.8608856238766887
1327 -5.318430044985242 -1.7400065534670301 2.352798297985988
1399 -8.767216947343641 0.7883521819117661 23.97895647986485
1400 4.184669554833155 4.507225266737122 -6.621959627348097
1401 -4.839637019390412 4.5110633453419915 2.5655414809227493
1580 4.474434489002462 -2.4291447122174796 -2.4678224768503094
1581 -2.494075799777608 8.631953768734261 -2.281616477953238
1579 14.17017692389922 -17.12541904451663 18.813192888463345
1701 -5.544400320318263 3.053819884907048 0.2372279787584576
1700 1.0461796837450685 4.645279802171063 13.498058357686906
1550 34.529615607989285 -2.3078022102764484 4.90777211240263
1551 2.265724872361549 1.5911287292308156 -2.8813177125449965
1549 -16.76871192417489 -6.35694161229932 -13.042646941402246
1182 0.8342417370809453 -1.3916461965971756 -4.794391021883929
1277 -9.208374547427185 1.8846079920402365 -2.971985027001654
1276 -4.799991787739043 -10.238729127476958 -7.993882897279283
1747 -0.48152164478266035 -8.93109274978855 -14.765113385706366
1278 2.8281473049168047 -5.885155401026869 -2.287882646943736
1603 0.3991648457726507 20.71619191407027 -3.14034256700677
1749 4.777546453194389 -1.9652555305803212 0.5154574026960297
1920 -8.37125969910348 -2.2488845837920266 1.0475693805746984
1604 -3.1685795098999323 -9.307576680655218 -4.33612272443805
1605 5.491760631652252 8.829608806334033 -1.9102555810778372
1969 20.753341015487198 -23.248020690097423 -11.90463106513552
1918 -4.494890569789831 -14.25821831353679 13.979246081713915
1288 14.415869152953569 7.198481770978387 13.45932580921645
1451 17.855883663043826 27.473275257861456 -13.22978832982117
1452 -6.030077585681405 2.8965267860047854 -5.632974208818763
1542 -4.422821219501349 -3.085281346110215 2.9167890972733796
1540 1.3325083958231183 -17.93147583438145 11.025796935300855
1541 -6.575079838829903 18.18699108619086 6.2208352642108755
1846 4.767520911725374 4.160105541958273 14.319635610864662
1848 -4.154083586133553 -1.0520444806585985 -1.8668533665986098
1450 1.7877407345317844 18.208522540680686 0.16503906675810526
1708 -1.9477219190985797 28.800113950374836 -1.3157674518046192
1710 2.577568578997388 2.7861437224637315 0.4923549832329638
821 -13.428759824645669 -31.87677822105727 4.168850518085548
1970 8.147960497520419 -17.567409832929084 12.682116389328652
1971 1.9746753114971154 1.277818465365688 3.8336852222461775
1709 -9.225229589327007 -10.411253985576023 16.24903746519909
1572 -6.14655876214116 0.30532780902376006 -7.32051540342104
1530 -2.7379540516716645 3.9049018010503724 -2.220232755661654
1570 7.871956211689283 12.98743089994157 -9.810559265525374
1529 -13.631610942065429 1.6767893667122693 2.1033096896102292
822 -0.012569807196261374 -5.89446327510954 1.5547297097063575
1801 -0.3537134193009993 -14.378019499302383 3.3738169848719957
820 -4.365100034839701 16.48500494046122 13.946896298624658
853 20.596307022442513 5.011484131317453 17.987525574447265
854 10.122211189843263 -2.842038384960213 14.67032134743499
855 -3.4253990376872028 -6.930938981046015 0.6934437279578947
1454 -1.5890959611223845 4.780495750333929 -10.306688930508772
1455 -3.1363348324610794 1.4457141395425706 -3.217477484351201
1883 6.590000395124906 24.105720123965447 0.13299595457621735
1532 -6.788549993917572 6.859465690492648 -12.334804169995904
1533 -0.8267231714352596 -0.5310709829042914 -1.4396806851099877
1531 -6.248547081262549 15.097860255837904 -14.336966153715663
882 3.3058176923730884 6.147755450997499 0.7435248564450616
905 13.435401614014022 2.022393733696645 36.76478868599405
1699 9.48916716183478 11.659343278627679 -2.673875136593935
908 -10.50546638224616 1.394867027435852 -0.3625253986723746
909 -0.34198567930085294 -4.920540770391177 -0.4511829942309275
1535 -16.704073447351885 -25.870927977895533 4.459749411908657
1534 12.811424849102467 -16.038040155512487 -14.81489467205878
916 10.23139929660592 7.798069025583408 1.2489629987609818
1748 12.957966573321215 -20.944040409152542 16.20147693495071
1536 5.768559867946618 -3.7596525038687263 -6.042133841720877
926 28.904171118816226 1.1175438853273065 5.103299062073409
1246 8.20267389820371 6.702343199749513 28.626943129479102
1248 10.642878114857425 0.6856551718163656 -7.567408396789523
1247 0.032657029693652244 -7.581956293916451 -3.6579434109125444
927 7.912069706359498 -0.7057302495483136 0.24948875620708083
1717 -5.819666011471768 5.006770677435552 7.472966910862714
1985 -7.708087639686892 -3.5490066138084253 16.351855425869736
925 -2.343176648796902 -6.404596883762227 -15.676216926496306
862 6.3453966622434566 -15.217545620684819 35.80531224901651
863 -17.705980397651633 -15.407859904885003 -15.347183071019971
932 10.044575920833674 -32.977682214743304 -5.142171257453128
933 9.618049396209368 1.6251011195768026 2.93343730153614
1586 1.402512125482295 26.37367804669523 4.486397668261162
864 1.8268561347741237 -0.8404036938587129 -6.28944040405777
931 11.149020702829679 3.454057679500472 21.741826488975693
1927 11.511667957481105 -0.41619454578904336 -3.2278355660611373
1929 4.814552635003413 -0.8635684233020073 -2.570910204712037
1453 26.804794407040543 22.31933107127888 16.563171253638348
1906 5.153740476040968 14.09935702042556 -9.566226866426105
1908 3.4179895344009235 -1.4140775479064889 7.044138079441099
1678 -3.795036660411175 0.005734653280298187 11.246522688371481
1679 0.4824220714621807 -3.0282716096318123 -16.51166111170278
1680 2.357110875752053 0.07797503232368264 -5.300428821048492
1907 0.5330032942777593 -5.5244509289181885 -13.20066859017387
1243 30.178036710836587 -10.746194628438264 -3.1816213452935678
1245 -0.16840089982603113 3.8139236269697343 1.543329671855455
1244 24.820356566224124 0.48291427435125384 -11.616283080235123
1751 -10.92864045466341 -13.422505781428455 -14.48115495562039
1884 6.613106364532879 -3.441591127836908 0.8368501806642898
907 -1.3265076914730527 22.14998205401357 5.663506685507523
950 -7.779916874105464 19.162525923391122 -3.2755071477593423
1408 -2.0298685470361173 2.9500710091604967 9.536380627740261
1410 1.6562991555642894 -3.107971043661567 -1.3986192114164702
951 -0.858201455393003 -2.896805125348371 0.9121875586589082
1616 2.3050007020997314 10.335005894563054 21.456587813996094
1171 4.4750708570023825 20.22692961555577 8.734778533500272
1259 -3.692840972928331 11.861539279791353 2.2024329058222225
1610 42.47348424811664 19.38551502545323 -3.5658213945114725
1260 -1.27561592167697 0.6310555583757578 3.800473530294601
1079 -27.652720699417518 18.98405456609994 11.442039128710192
630 -7.589927419698015 8.996010084944313 -13.389388362364155
1173 2.5714377099917476 -1.2198027200356212 8.41618047125329
847 23.154477240422292 21.818770924989565 -10.276189668377611
849 -1.2604981888010593 -6.069879590797384 3.2179766085066204
1172 1.6130950714038368 2.7566603161966134 -19.075545523835668
1234 -18.013919434480975 5.326924135337773 -1.831190446317806
1080 4.4373438725939565 -5.24920885689626 -0.4852289583719894
1236 -0.70441493218603 -5.931524303588208 4.6568082633603085
1235 -16.95084549143538 -17.505740776876117 0.7764425041202794
1267 -19.64807019644792 -14.05410037281518 12.108586437122815
579 -0.8456213202420763 2.9207755498459576 8.183471652095891
1326 5.811118195726554 3.2182730246638984 -4.2365648141411505
1325 38.34456589087582 2.524158565227878 3.291834924806939
1711 -4.256614108504854 -1.0443392914463747 9.99607303511421
1712 12.935089920723975 -2.809173155489256 20.85816551214083
1023 -1.8571287992862695 -4.511709620744592 -4.617362064518825
1478 10.851910263315041 20.727099523548294 -1.3491563601509589
1713 -3.48614709157818 2.6379475060651183 3.928210110817249
1703 -5.533578395350898 -22.009606831056086 2.6848922128434363
39 2.879569243825315 -0.744312696522237 12.163160440581267
969 3.1593986281314366 2.9239756254448603 0.43275324745512783
1484 -5.073690018764939 5.023249634855801 21.184987854332594
1479 2.0630516405731982 2.5870676584532633 2.929578540369768
1291 17.017455995103145 -10.273465998899004 8.309329892528352
1293 -4.367343629586653 6.377626095939573 0.7758402763602059
1189 10.671036589567738 -3.4684831111520884 -6.445096520243353
1190 11.485172133387486 -12.263433097912689 -31.148324141070592
1191 3.2586190347905917 -0.09396510394815609 -6.322905015671719
1141 13.19936677124497 -3.4147051583459342 -12.325065608970725
1485 -4.489139378876623 8.667864411365116 -9.00542454687845
1537 -6.146990890068634 -14.93294052983832 3.1937366453504756
1538 20.74100170707042 -5.353583458755007 14.623006432303896
1539 4.098540983748371 -6.018767164488924 2.5042224772595056
1214 7.247425808826076 -17.687599688382996 -36.22389875225283
309 6.429812918503715 2.7272859710289743 3.2711482694209635
1125 1.9054618721265213 -5.473288476481177 -0.5500211142246707
1124 -7.097953977359721 6.240654859092017 14.275845036287013
1639 -5.384755947484296 -3.9442434681348906 15.45150591725438
1641 -4.378939249172772 5.7111427906102845 3.188466623642018
1287 7.819338690779408 -1.3501294180337882 2.5250101049177904
1285 -19.967856345099303 -10.482430436918882 25.73582913060789
1897 10.703157964319876 21.101552995167452 -5.658945426441968
848 -20.341044119354812 0.5146942309437684 34.406931599210964
1123 -2.299094416300467 -9.248418649298975 -4.404232168964561
1323 -0.35743732894562225 0.12446899464030498 -5.26312604901437
1321 0.4158636755399948 -13.20599619697582 -26.72508949163907
1898 -19.49173792904996 -3.8201983501274706 -8.316650629355054
1899 4.093695149313383 4.258569036127928 1.590678685875581
836 24.708147038751413 -0.8950961063214984 2.9695785202883487
1983 -3.6106740530212273 1.2454224269106284 1.7730294909939939
1477 0.5665692679004215 1.9109311910805902 -0.6176059402456685
1156 2.094682822905163 -12.200213376308453 13.685282746585072
1040 -5.973671395997834 -19.482050412833207 6.156443584963488
1041 2.0102657205891257 0.8298055389763642 6.697561194456014
1158 -0.4273894550186282 1.3769577377854716 1.7615928371093248
1157 -4.910169456650822 8.270170225695132 15.359581864509572
1974 6.296109417004106 0.5297415363370725 -1.1298768715658911
1021 -11.006928282972149 21.55074485447081 15.996575967640734
1039 -10.302398693799793 26.78413942014301 -0.09828083647993398
1360 -7.835458243878861 11.051134317902639 -0.7005719539136529
1362 0.10871295698737074 -2.6540896684648434 2.10690606229827
1012 -0.1565156608875162 -10.580682130502028 7.369588974236494
90 22.86455787184316 20.74954348824308 -17.46788504178704
913 25.693264999171017 -27.037966079059704 5.065575907877211
914 25.646298527883857 6.766603216942193 23.297788484907034
915 4.108007883736106 7.228113220534053 -1.6878900377192416
1143 3.6851966450660014 3.0764528324553395 0.2197401705497973
1973 9.422035394783403 -0.2231016890544403 1.6655942783784539
1088 -39.922075840564894 22.56875645880793 -36.0926012362673
1557 1.1858712644017948 -0.5169735443864135 -3.969934347919454
360 -5.160926781179125 -2.2065735692802457 7.649509915254106
1775 -2.628624945773288 4.687887227375269 3.007223187962109
1280 9.984498017366983 -6.1341797740271495 -5.174770862849314
1281 -0.5216624355430017 8.617924967687951 -4.197170895311277
1213 -4.106491622231465 -6.832489513479919 1.5106420400880176
1215 0.2767066231911553 5.541606618487636 -3.935530102737911
1556 9.794259500065369 -13.42578419278586 -15.07572128295584
1640 6.430355413419802 22.762532469296183 25.786172857461622
1279 -25.1751501355273 1.2868686645726417 23.56840212484744
1427 10.734508965085292 10.491180846153961 -11.353640512432879
881 20.133228528475836 5.586617342826036 -25.66740857522721
1759 -11.142279234477277 -21.195597399884257 11.201326181461708
669 0.34528825162642757 -1.260665193318158 0.389762501491826
720 -2.59535940727445 22.400307914723186 6.829745003503577
1761 -3.6748913693115655 -3.689231621096301 3.427110530790927
837 3.6821953388869813 -3.1055717370265548 6.754516805437848
835 16.35779201706647 -4.619012209851814 0.5430779926582335
1760 2.9430472645840653 -32.670543286837656 0.9614408278477105
1582 32.01858582554632 26.77015779416174 -25.264540111407197
129 3.10027348023831 -3.7012752783213942 3.433765682956261
180 5.059081633808768 -3.4348753641928353 -9.921649900253355
1420 18.796439946725865 -20.914467182616026 -0.3491343419614613
1421 10.587980248055702 9.838695573771519 -5.779618469397449
1422 -5.746132528255466 3.0563069419655164 5.194019572375926
1806 3.5701121245819567 4.940582320059499 4.408724418178677
1756 35.402425428449305 17.79874855411949 0.8971038505408083
1757 -5.874270795331564 10.983218410653754 7.808094948184133
1758 2.548218032798014 3.214721307381692 2.6767756298079304
1804 -9.270867077449832 -2.7604543389662233 3.940768024180875
1805 -18.973407119985136 15.435373801157114 15.008593022820778
450 2.1648126417294797 -0.18222229845392435 3.0667948669208753
399 -0.043914420955626414 2.715283098648369 0.735976526567275
1361 4.893080189550881 10.305380179505033 -2.8278671068016026
1089 -2.9004060800390876 5.963799776799107 1.6033788551592887
1763 -17.765865170803192 12.287705004230094 -4.952627970809033
1764 4.457870160720666 0.626214908196269 1.6695300921490726
826 -12.594048560719163 4.711244151547194 0.09518596136875086
827 -8.661852695807218 -8.36327681937715 -1.044568541478886
828 -6.081000926886181 -2.3207705570990314 4.582736165664646
1762 6.709823714152643 -8.790463600981536 -3.388844472770239
1087 -7.591596625126356 -22.943051982799155 2.977544609193569
880 -18.27882808817495 34.17377466796399 -10.117981699253331
1256 -13.09341008097403 8.281707388579516 22.699116881148225
1257 -2.3429037088053652 3.6155421475389407 -7.100073565900712
1255 9.143740700522814 14.726263880817593 -9.97226851354526
1426 -7.664546366033004 -15.847352603624229 19.41811069598451
1428 -5.415577312320428 0.3458443097741152 -0.7538765783146869
1950 4.4445864748548 -1.7959394895266334 -5.51013217754524
1949 7.820840900598604 -13.526045391369312 5.695591581381933
1231 -12.344664820503276 -2.4543277879922156 1.4753180920969837
1232 24.61854858806311 -11.101660203405839 0.30211520385830415
784 -7.789511291752186 -8.398527861393994 8.626990659392908
904 4.52477560098146 -19.9765360866873 -0.9210153032646857
906 -8.329764047032501 0.3256042305056015 -5.784853875821934
1233 -1.4656730697501132 -5.708223660813779 -4.663712406431869
219 -2.36792463146917 -1.1606430637607672 1.4102256045381998
270 23.595954625157923 -7.167685199860017 13.457757355376827
1583 19.559936098285807 -23.334465404302268 8.020979896884118
1584 -4.457199899077575 7.66736242227731 6.466827508284452
897 -2.438071484559005 1.2086932749703196 2.864580924604255
949 -12.382454786250122 6.946032543116792 3.1900502963630486
895 -5.38244601212532 -17.57633508390674 14.200999568242294
1787 8.704767032472013 -11.095958156297419 -4.201118491465804
1258 -5.607759363337312 -10.07719552310458 20.91243725024433
896 14.523200715865162 -10.61409291419187 16.80278086858523
1984 21.96944367933051 24.210892231698356 -26.13107069976125
922 -2.09647236936873 -19.04766415079762 -16.250215031151235
1718 -0.6602949586837185 11.429648393536548 5.638954397744715
1986 -2.546969647491831 -1.5369970355867257 5.071924768718187
923 -27.22029414823435 -5.988746626628431 2.0090423510389614
924 4.974828772263071 -7.708926038153736 -0.85329715503113
1078 11.525420859437036 -1.7419344969063424 8.697310339665384
1719 -2.520645040889155 0.6943297453851486 -1.0999277960746872
1915 3.7433759593845046 -23.954609323509256 -14.82380183804334
1916 10.140963999622514 -6.88142515010675 13.269678599714078
1917 -4.907209208504529 -2.8573175753358235 -1.164414132232474
819 2.1378092136622193 -5.531211700318604 -7.116821880263172
489 1.6813479291671152 -0.023678256931647452 5.1470176239298215
540 -28.939274841464204 -8.365706654693119 13.423836218704034
817 -0.31979363498639984 4.4873718592768155 -12.96257610155867
1129 -28.551597499366327 7.255558564155935 -15.750176603878487
1130 36.26430390320182 6.2784218511260415 17.92341739796671
1131 7.943529868914518 -5.673023196322619 -1.2454088551699063
1858 12.700994820632847 19.572386005013936 -30.83474485014753
1859 0.8617035746687075 -2.6197246207022604 -14.777329763954905
1860 0.7591974698715467 2.561595202423263 5.04221603563131
1091 -13.91133265701067 35.987194782883556 20.506337588144444
235 -12.227066129362873 11.567836559700053 13.486489389815965
759 3.0424541968816023 3.27966469781054 -0.1817622414456308
810 -15.993815731412345 -5.0726773339767925 -29.459021840749863
1165 6.31787463007299 -15.31633861635858 6.319663045608347
1948 -22.325749445444114 16.790948093435496 14.140143045777371
1807 20.382232115746405 9.896384765109717 2.6848145568940667
1166 12.351468862968035 2.2899446551313454 -3.4985303131468832
1704 -2.6729820680509526 -6.976738432342152 -5.893244762242532
1808 14.919958238636859 -17.498740851369007 -1.3992839113029845
1809 2.872663367645653 -6.488926871190995 2.6995763740527132
782 -2.7901805519733776 -2.5266856120264927 -2.0752865730899117
1167 1.011751834698514 -0.9195874780728849 10.201475832312758
1702 7.630247784412939 -9.52509150602861 -8.059997841467052
1483 -0.6643441872386141 -22.7149030969459 11.866469491655774
783 -0.5146252961258801 15.685046781359512 -14.041375378885977
242 3.667495246054226 1.676447006429402 0.017521221375932622
243 -7.3734827809787005 -2.865873655892468 -4.816924503918906
244 -7.454845059606955 -19.220898774128454 12.094176650302124
1786 3.3144028084644246 19.195058985921396 -13.390378322360712
1788 3.034886435265093 2.577273460371456 2.6812261084707276
