LAMMPS data file via write_data, version 20 Sep 2021, timestep = 200030

1974 atoms
7 atom types
1016 bonds
2 bond types
535 angles
2 angle types

-0.24235025479747765 20.447950254797277 xlo xhi
-0.02187855882845327 18.65063355882893 ylo yhi
1.5407653571550646 56.89175264284651 zlo zhi
-12.242281531569203 0 0 xy xz yz

Masses

1 28.0855
2 40.078
3 15.9994
4 15.9994
5 1.00794
6 15.9994
7 1.00794

Bond Coeffs # harmonic/omp

1 554.135 1
2 554.135 1

Angle Coeffs # harmonic/omp

1 15 100
2 45.7696 109.47

Atoms # full

1 535 1 2.1 16.38834257886042 3.675549895024473 4.253651113323735 0 0 0
4 537 1 2.1 10.602019934816619 6.292808805016291 8.906718706700794 0 0 0
5 17 1 2.1 14.92829307199648 5.226436248853197 2.103997764390224 0 0 0
8 4 1 2.1 13.406945631301355 1.936155769017334 11.13995981001962 0 0 0
9 538 1 2.1 14.154657164069883 7.165999347274525 4.4727503047769295 0 0 0
12 541 1 2.1 12.291668238840632 3.801357922708348 8.818898083944855 0 0 0
13 542 2 1.05 15.926816510920265 3.7827178267192973 7.515109791848648 0 0 0
16 545 2 1.05 10.731244648605697 7.034835171288714 5.641579577421836 0 0 0
17 546 2 1.05 12.964569946074823 3.8574144600991915 5.881540794094933 0 0 0
20 549 2 1.05 14.0239829485462 6.757505747518242 7.801540636504293 0 0 0
22 551 3 -1.05 15.781228081417309 4.190721681817755 2.9104719429589236 0 0 0
25 554 3 -1.05 14.141822558692665 0.7478917150630197 10.259250244371897 0 1 0
26 555 3 -1.05 17.21812404165866 2.3485592991466566 4.043442851196969 0 0 0
29 558 3 -1.05 11.418260139634942 5.009548606999526 9.338871718675358 0 0 0
30 559 3 -1.05 17.301811579292387 4.606355385764058 5.039782129970913 0 0 0
33 562 3 -1.05 15.536736881284734 0.9787703404088236 8.13344518925944 0 0 0
34 563 3 -1.05 15.18518156523064 3.211748301224219 5.280486184937937 0 0 0
37 566 3 -1.05 9.416885191579494 5.8596189064256645 7.9782565065116975 0 0 0
644 118 6 -0.8476 0.6532724979258869 12.80847103430694 2.3791915934801033 0 0 0
42 569 3 -1.05 14.44944272733748 6.253324753020924 3.1288366270894197 0 0 0
45 572 3 -1.05 12.806139413779592 2.9341136484637604 10.078442781899254 0 0 0
46 573 3 -1.05 13.600438658878188 6.27128349302548 5.514283993236363 0 0 0
49 576 3 -1.05 11.49409604302918 2.9170087475720057 7.846212335668312 0 0 0
50 577 3 -1.05 -1.2915774494915941 1.6150957517292155 5.298351073678171 1 0 0
53 580 3 -1.05 13.493659799393857 4.4388815929119945 8.079297501272821 0 0 0
56 4 4 -0.95 14.50473542926275 2.776117917265738 11.995356996792555 0 0 0
960 197 6 -0.8476 -9.181302202097033 16.31759034291705 2.1758332158964646 0 0 1
725 127 7 0.4238 -0.7511419103761554 13.278804166512591 1.8618105766361377 0 0 0
1314 315 6 -0.8476 -4.542618200952526 10.3714928129205 2.396558498625258 1 0 1
564 109 6 -0.8476 -2.420097259462208 16.245435233045498 2.0233585258443507 0 -1 0
67 58 6 -0.8476 16.106509800801238 4.655053076245202 10.858980344128117 0 0 0
68 58 7 0.4238 16.88995903704552 4.985303606844135 11.442443877987559 0 0 0
69 58 7 0.4238 16.117805090593407 5.165679243128585 9.999763761583937 0 0 0
316 82 7 0.4238 -1.855488736007885 3.5104151931434258 1.9793717558965 0 0 0
1313 315 7 0.4238 -4.166736983638393 11.349802985741647 2.40829769033031 1 0 1
87 5 1 2.1 12.333274056084296 9.672396452143 4.539283620673359 0 0 0
90 583 1 2.1 6.554028833914831 12.634892088944085 8.754191807665094 0 0 0
92 10 1 2.1 9.301865622963845 8.198361942399071 10.937919549716044 0 0 0
93 7 1 2.1 9.958672226334075 13.644299963966656 4.430606745493171 0 0 0
96 585 1 2.1 8.177071037605378 10.085685807892917 8.738682345706074 0 0 0
97 586 2 1.05 11.718281490949208 9.766684097501457 7.982583535767079 0 0 0
100 589 2 1.05 6.73825138672859 13.138376979264928 5.248607279721206 0 0 0
101 590 2 1.05 8.85125757614566 10.140118166163202 5.335004614342361 0 0 0
104 593 2 1.05 10.058608063153052 13.073376983300209 7.564827946532422 0 0 0
106 5 4 -0.95 11.628014108403333 10.118068399257362 3.1824942735228046 0 0 0
109 596 3 -1.05 10.03283470911991 7.132241939205775 10.075188166767168 0 0 0
110 597 3 -1.05 13.109508718137947 8.326821670270736 4.22155781319186 0 0 0
113 600 3 -1.05 7.395220177190471 11.397477533525187 9.186125979238838 0 0 0
114 601 3 -1.05 13.329638179670901 10.741753543611457 5.047221556953432 0 0 0
117 604 3 -1.05 11.551975942999727 7.270617098390446 8.065137461278468 0 0 0
118 605 3 -1.05 11.234892455299141 9.439388028695449 5.594758382720152 0 0 0
121 608 3 -1.05 5.156675405802648 12.170428911411435 8.30077036857337 0 0 0
124 7 4 -0.95 10.480149529386422 13.012274079234205 3.014747259249599 0 0 0
127 612 3 -1.05 8.617029559991702 9.210837754974419 10.025710167973228 0 0 0
128 613 3 -1.05 9.191178128158064 12.56614604844737 5.219340258052785 0 0 0
131 616 3 -1.05 7.235876221259518 9.176617324178219 7.881312145394848 0 0 0
132 617 3 -1.05 -5.240092686710969 7.810120753392707 4.916214247446668 1 0 0
135 620 3 -1.05 9.446699014736032 10.49203513835628 8.017270008514796 0 0 0
138 10 4 -0.95 10.572517224471373 9.00776922156562 11.764031667345083 0 0 0
139 10 5 0.425 10.7979821581494 9.932806386061745 11.332285767575968 0 0 0
1614 415 6 -0.8476 4.739321371256247 15.934023107854465 1.6422875851412897 0 0 1
141 64 7 0.4238 9.84792574062579 10.097517378651524 2.628014089886919 0 0 0
563 42 5 0.425 8.918305482531334 3.4285937179720403 10.979640036789496 0 0 0
149 67 6 -0.8476 11.307918800151421 11.173853151739921 10.632789498190075 0 0 0
959 197 7 0.4238 -8.751386867707687 17.244675583741596 2.2137789330092392 0 0 1
151 67 7 0.4238 11.553055158605446 11.597471786921743 9.741918834066718 0 0 0
236 77 6 -0.8476 2.411417065236736 16.59075439528368 11.707499065410197 0 0 0
167 621 1 2.1 8.137162074326135 16.183949016529372 4.387426353834428 0 0 0
170 624 1 2.1 14.697905977201039 -0.010832599295300682 8.976918574783188 0 1 0
171 31 1 2.1 7.321103972334902 18.132922349633287 2.3056751199256835 0 0 0
174 14 1 2.1 5.567540805185457 14.478884722689072 11.054082831436 0 0 0
175 625 1 2.1 18.156146367659662 1.170111396267163 4.480384173975994 0 1 0
178 628 1 2.1 4.2459228797647315 16.20735591400505 8.947479586959407 0 0 0
179 629 2 1.05 7.746059848471839 15.988425634939922 7.4506839444099 0 0 0
182 632 2 1.05 15.027938793803761 0.7541414399867533 5.642809180184903 0 1 0
183 633 2 1.05 4.650651550518651 16.60155765734319 5.848582133220841 0 0 0
186 636 2 1.05 18.121707619257002 0.5565471564914198 7.935186358237058 0 1 0
188 638 3 -1.05 7.850305248076483 16.87279196795369 2.9895679493638747 0 0 0
191 641 3 -1.05 6.3631242855223755 13.501371144253252 10.04436678302097 0 0 0
192 642 3 -1.05 8.945665284491605 14.816506237233735 4.139188727478369 0 0 0
195 645 3 -1.05 3.3031760262355867 17.39235646801289 9.394104119831404 0 0 0
196 646 3 -1.05 9.04489724492986 17.07627619626023 5.287133703496403 0 0 0
199 649 3 -1.05 7.378608394472702 13.491248889705021 7.676555779328532 0 0 0
200 650 3 -1.05 6.8056714687277715 15.909233199391885 5.06736681346864 0 0 0
203 653 3 -1.05 1.247117254937426 18.23854060281818 8.097069785505065 0 0 0
1233 288 6 -0.8476 -6.99581934666177 11.396771281835957 1.7339031708994963 1 0 1
208 656 3 -1.05 18.692850479536837 0.3024934629866778 3.2368627946404542 0 1 0
211 659 3 -1.05 4.787751260742144 15.468519522916932 10.226313157659007 0 0 0
212 660 3 -1.05 17.398661608676328 0.23447987280346658 5.41153411691014 0 1 0
215 663 3 -1.05 3.447425241444664 15.219224019608545 8.044555095141009 0 0 0
216 664 3 -1.05 -9.449664911714166 14.151963259873042 5.142495776471638 1 0 0
219 667 3 -1.05 5.438726864561595 16.82927780444764 8.114491314027394 0 0 0
738 131 7 0.4238 -4.495012770790217 18.151085248974535 11.832331806427097 0 0 0
750 135 7 0.4238 -4.459218854747459 16.042941068519337 12.463903511908264 0 0 0
850 161 7 0.4238 6.970922414159929 14.541667793630982 1.9775732807434838 0 0 1
566 109 7 0.4238 -1.98412938825416 15.31050737853473 1.9190098002766505 0 -1 0
161 71 6 -0.8476 13.313810972201077 8.776109994091495 12.265785042115503 0 0 0
233 76 6 -0.8476 5.7864751373782335 18.325442624652613 10.45644452690053 0 0 0
234 76 7 0.4238 5.2252400292645715 18.502689052355198 11.268027377611965 0 0 0
235 76 7 0.4238 6.670108781358051 18.235898673878413 10.926261627678869 0 0 0
140 64 6 -0.8476 8.91564442939568 9.795338221447746 2.3780122114672295 0 0 0
646 118 7 0.4238 0.681968446613732 12.194770595396118 3.1944734622993014 0 0 0
253 668 1 2.1 2.8193907437830763 3.691022404874235 4.171230313770226 0 0 0
256 670 1 2.1 -3.022531110347553 6.519029626599507 8.686626222764893 0 0 0
257 39 1 2.1 1.7906945292607528 5.690953378918217 2.0025129331734584 0 0 0
260 20 1 2.1 0.06618828199929702 2.3360280508405364 10.85367751048919 0 0 0
261 671 1 2.1 0.32027424795786613 7.279032616316269 4.211936075634857 0 0 0
264 674 1 2.1 -1.4327758723863815 3.8700993801374124 8.602207773959398 0 0 0
265 675 2 1.05 1.9875200561349058 3.642147128861042 7.426895099429708 0 0 0
268 678 2 1.05 -2.8017961716370854 6.976818270328961 5.040524959710924 0 0 0
269 679 2 1.05 -0.8014705966750031 3.860316295119708 5.164706252231816 0 0 0
272 682 2 1.05 0.12511512353507434 6.930182746845634 7.24204548439935 0 0 0
274 684 3 -1.05 2.467634858630557 4.543935950248741 2.8604380727158274 0 0 0
277 687 3 -1.05 0.31466180671562755 0.9331461980011998 10.21342908816079 0 1 0
278 688 3 -1.05 3.5710929267511022 2.3097124770785693 3.857085997112366 0 0 0
281 691 3 -1.05 -2.0726802960832686 5.3558358679105575 8.939678620756828 0 0 0
282 692 3 -1.05 3.7379854981910343 4.566501586152136 5.063758132742346 0 0 0
285 695 3 -1.05 1.9077984184948238 1.1161965260101883 8.249252145127922 0 0 0
286 696 3 -1.05 1.4999139099446006 3.378114677224736 4.879091219629562 0 0 0
289 699 3 -1.05 16.173220258595656 5.9472511461819355 8.38922403757624 0 0 0
1417 350 7 0.4238 6.360260356236745 11.190650798258234 1.7923078869217794 0 0 1
294 702 3 -1.05 1.0949128354996738 6.619991812555931 3.0249649178401152 0 0 0
297 705 3 -1.05 -0.9139523407154875 3.18615612540648 9.870811316902584 0 0 0
298 706 3 -1.05 -0.48922467129898856 6.258380910157859 4.962157987163591 0 0 0
301 709 3 -1.05 18.214166837213938 3.003937105670118 7.879309532297744 0 0 0
302 710 3 -1.05 5.574883109518137 1.2657270281168371 4.898780296321118 0 0 0
305 713 3 -1.05 -0.2711311660589954 4.260421915521033 7.683096394533225 0 0 0
737 131 7 0.4238 -3.46463226450618 17.583275355776806 10.734945107911445 0 0 0
1129 254 7 0.4238 7.177355631196254 1.2844461712029447 1.678721417606591 0 1 1
312 20 4 -0.95 1.4636372964466613 3.125025678709972 10.933330349503342 0 0 0
313 20 5 0.425 1.6806005181586992 3.723836370647541 11.743497775709551 0 0 0
314 82 6 -0.8476 -1.312088474924182 4.195905697035972 2.527298271739513 0 0 0
490 103 7 0.4238 2.852089307858917 0.555414725858537 10.988742673274508 0 1 0
152 68 6 -0.8476 7.668235367411497 11.30666964572521 11.942341678204446 0 0 0
324 85 7 0.4238 -0.8202740835255398 6.57431006483959 11.71348215263581 0 0 0
851 161 7 0.4238 6.605747195465256 12.966494793097239 1.6178813251576285 0 0 1
150 67 7 0.4238 10.984040174349206 12.050708871949613 11.093758440284304 0 0 0
1130 254 7 0.4238 6.1700324462699045 2.4644962521518092 1.7751929117002019 1 1 1
774 51 5 0.425 11.961132373435008 0.854045981651853 2.1477436969762316 0 1 0
343 21 1 2.1 -1.2683032646039487 9.95440133644703 3.940260409684387 0 0 0
346 715 1 2.1 -7.194977291655972 12.717487527460364 8.921766732830207 0 0 0
348 26 1 2.1 -3.5275114006847086 8.583997011631642 10.909267897139832 0 0 0
349 23 1 2.1 -3.804718993651359 13.400647094706516 4.249742821705378 0 0 0
352 717 1 2.1 -5.403957374312669 10.124260366566471 8.85031934465897 0 0 0
353 718 2 1.05 -2.008958619098691 10.019739002130258 7.23566170981991 0 0 0
356 721 2 1.05 -7.018439216479776 13.192413054003634 5.4424094691589255 0 0 0
357 722 2 1.05 -4.91279075303764 10.275661718462263 5.246711997872226 0 0 0
360 725 2 1.05 -4.0013375931076 12.910858345239044 7.437720507760411 0 0 0
362 21 4 -0.95 -1.701678439349485 10.384014032378188 2.497882440508812 0 0 0
365 728 3 -1.05 -3.063363368313481 7.437046790204756 10.013974759986876 0 0 0
366 729 3 -1.05 -0.4955432372187629 8.549275010202935 3.7597114526082565 0 0 0
369 732 3 -1.05 -6.200135304094166 11.439377629247522 9.1863389190417 0 0 0
370 733 3 -1.05 -0.26964935253490485 10.973597491441009 4.651623421693432 0 0 0
373 736 3 -1.05 -2.5078779950066625 7.421536474915755 7.541562801097593 0 0 0
374 737 3 -1.05 -2.5517843266762696 9.649802595913602 4.784077254556565 0 0 0
377 740 3 -1.05 12.148404134917586 12.141178771061176 8.467645049419232 0 0 0
380 23 4 -0.95 -3.50303014236708 12.769840919887782 2.7985509048415933 0 0 0
383 744 3 -1.05 -4.64012886836295 9.410876700664385 10.04463032730732 0 0 0
384 745 3 -1.05 -4.668964711329795 12.484841448727334 5.1637851852691545 0 0 0
387 748 3 -1.05 14.288547152294285 9.100508664639081 8.282786244381743 0 0 0
388 749 3 -1.05 1.4614001456149244 7.858500524203644 5.228952810937933 0 0 0
391 752 3 -1.05 -4.33227372576534 10.481653001367237 7.788273900914648 0 0 0
394 26 4 -0.95 -2.3659040632058614 9.733580763341164 11.109010944277403 0 0 0
395 26 5 0.425 -1.6366339115666997 9.564686194039998 11.843169737408882 0 0 0
396 91 6 -0.8476 -2.5638889149029453 6.572274606167925 2.585145512638561 0 0 0
397 91 7 0.4238 -2.186770695750358 5.618079461204668 2.5976560634046972 0 0 0
1612 415 7 0.4238 5.164142336201778 15.007916732346734 1.810845207589399 0 0 1
405 94 6 -0.8476 -3.3459519320441244 12.503258035879679 11.17938316078763 0 0 0
406 94 7 0.4238 -3.445424337013995 12.975666121596847 10.291439364319086 0 0 0
407 94 7 0.4238 -3.146010897768878 11.514021936463312 11.08686531630318 0 0 0
154 68 7 0.4238 6.940642445378449 10.620864214651423 12.073375729857046 0 0 0
423 27 1 2.1 -5.4034481613364 16.09344959762443 4.285471012180973 0 0 0
426 755 1 2.1 0.8943693431442801 0.10154136071869625 8.986171778690892 0 1 0
428 34 1 2.1 -8.31435740659549 14.555172801061415 11.102130951996275 0 0 0
429 29 1 2.1 4.253291900947211 0.9807852507480636 4.228726144477066 0 1 0
432 757 1 2.1 -9.690774442290273 16.351367005736428 8.899687081739385 0 0 0
433 758 2 1.05 -6.285881003977428 16.05587641579469 7.5793839284963145 0 0 0
436 761 2 1.05 0.9640319463623355 0.6529593441161989 5.818946779872913 0 1 0
437 762 2 1.05 -9.092349063035504 16.485843313558075 5.410426704571159 0 0 0
440 765 2 1.05 4.242037517978328 0.6380378058203576 7.584607452241487 0 1 0
442 27 4 -0.95 -6.106063536582278 16.693759980057422 2.8373916848073857 0 0 0
445 768 3 -1.05 -7.33059348156301 13.583240331056132 10.204984308912225 0 0 0
446 769 3 -1.05 -4.644659989453688 14.71925678620094 4.0382370986264045 0 0 0
449 772 3 -1.05 -10.533507059660531 17.55808652673672 9.427800126276482 0 0 0
450 773 3 -1.05 -4.361281361903816 17.067266928322653 4.714094586048132 0 0 0
453 776 3 -1.05 -6.446243877497489 13.44641915151177 7.779232127927547 0 0 0
454 777 3 -1.05 -6.543568799775866 15.860408123464193 5.278325100378262 0 0 0
457 780 3 -1.05 8.267270282670276 18.474431506039625 7.991614088190749 0 0 0
460 29 4 -0.95 4.379945290958215 0.1130876006715403 2.871670256764419 0 1 0
463 784 3 -1.05 -8.904038985703387 15.590894061472618 10.0627320388918 0 0 0
464 785 3 -1.05 3.307480827221222 0.2526990967990195 5.2177274698865 0 1 0
467 788 3 -1.05 10.10030418534631 15.357447340694284 8.271432713311006 0 0 0
468 789 3 -1.05 -2.526337512027697 13.767187343924526 4.972323174409942 0 0 0
471 792 3 -1.05 -8.658363152358675 16.900080954043244 7.871958302137999 0 0 0
875 169 7 0.4238 9.182582474061354 0.1568464842031955 2.408803102213707 0 0 1
491 103 7 0.4238 3.1329321637492837 2.0451166462176027 11.25176069480866 0 1 0
478 34 4 -0.95 -7.453087155693009 15.196796530278764 12.242924906598343 0 0 0
378 741 3 -1.05 -4.078980061848965 8.162548578556768 12.293155314053438 0 0 0
480 100 6 -0.8476 -7.6164392233069345 13.677094056297985 2.8692396339719806 0 0 0
576 113 6 -0.8476 4.645548775337427 5.427640507715903 12.234966490979826 0 0 0
1046 226 7 0.4238 6.761361688063281 4.752685974642134 2.3982620832168067 0 0 1
874 169 7 0.4238 9.563703507833942 1.832257529337223 2.3611914023787475 0 0 1
582 115 6 -0.8476 10.087303308763115 3.294922107045808 11.892128269453421 0 0 0
645 118 7 0.4238 0.8728480859863733 12.102688614882817 1.682526424101361 0 0 0
706 898 3 -1.05 -1.2035602060260915 14.988529628047674 12.26980614006027 0 0 0
507 35 1 2.1 9.779087012071843 3.716096649005846 4.4127839525088515 0 0 0
510 794 1 2.1 3.6729053793529687 6.451302673855536 8.608947532020421 0 0 0
512 42 1 2.1 6.82946041705136 2.3700114400221968 10.62093535141253 0 0 0
513 37 1 2.1 7.201219305280198 7.204815681112435 4.343855310456746 0 0 0
516 796 1 2.1 5.2253866140313185 3.817614658448437 8.50490830947581 0 0 0
517 797 2 1.05 8.861547972302684 3.642924768565505 7.894029300132082 0 0 0
520 800 2 1.05 3.9081354360751606 7.039463847499581 5.267237062657453 0 0 0
521 801 2 1.05 6.074011365677167 3.806497196994921 5.391815724172108 0 0 0
524 804 2 1.05 7.101231308249267 6.76680029153365 7.754396484162573 0 0 0
526 35 4 -0.95 8.976432307206894 4.080515828390058 2.9889644855985584 0 0 0
529 807 3 -1.05 7.268795611585916 0.9623765364410688 9.92903145097577 0 1 0
530 808 3 -1.05 10.727784573012148 2.459145037976866 4.056216203065146 0 0 0
533 811 3 -1.05 4.367571454139916 5.0870019789367795 8.936254039980687 0 0 0
534 812 3 -1.05 10.619361679304038 4.84584595895858 4.968903912925205 0 0 0
537 815 3 -1.05 8.496719345077775 1.1981758642299476 7.779211983759764 0 0 0
538 816 3 -1.05 8.67263136860875 3.3069683613694156 5.421806533520038 0 0 0
541 819 3 -1.05 2.391398914056841 6.161186840038931 7.742350874242577 0 0 0
544 37 4 -0.95 7.674043979128599 6.324138979039052 3.0935263855981034 0 0 0
547 823 3 -1.05 5.6422829382538655 2.9478646650871805 9.810200950709353 0 0 0
548 824 3 -1.05 6.465710859202943 6.326942756637622 5.33624192455854 0 0 0
551 827 3 -1.05 4.3037564964367485 2.961061771889861 7.562232991606762 0 0 0
552 828 3 -1.05 12.743297480298404 1.4060261019106497 5.278993110299011 0 0 0
555 831 3 -1.05 6.506601371061823 4.2800109096388255 7.741677425181353 0 0 0
327 86 7 0.4238 16.03127369167735 2.0150210656458527 12.455918545525332 -1 0 0
72 59 7 0.4238 12.306084838207312 5.715967919096803 11.821528162354445 0 0 0
562 42 4 -0.95 8.034752522008784 3.4421769492526835 10.385651625070652 0 0 0
206 654 3 -1.05 4.704006131082866 13.601974178217452 12.052457139288592 0 0 0
481 100 7 0.4238 -8.577301336141087 13.352181793544169 2.943796478463775 0 0 0
409 95 7 0.4238 -6.035953319227372 11.861263229284187 11.304139253852059 0 0 0
768 29 5 0.425 4.87372048322891 0.5071854736614112 2.065079161139431 0 1 0
573 112 6 -0.8476 7.164948841563102 5.917341134234127 10.02218151653826 0 0 0
574 112 7 0.4238 7.562093205871979 6.397250215054758 10.804987213032996 0 0 0
575 112 7 0.4238 7.579860006414364 4.979147788297864 10.054567667413947 0 0 0
1232 288 7 0.4238 -7.119420131217517 12.290388346611161 2.2270227612160967 1 0 1
591 43 1 2.1 5.574726464412685 9.796392648908764 3.9988071134124095 0 0 0
594 833 1 2.1 -0.45225114526648785 12.583017725496259 8.813414082375845 0 0 0
596 48 1 2.1 2.9162310901209723 8.467421823995982 10.67774565193665 0 0 0
597 45 1 2.1 3.262725961792176 13.400262612187175 4.381019496444258 0 0 0
600 835 1 2.1 1.1956513840916998 10.029248916081103 8.67708718244329 0 0 0
601 836 2 1.05 4.916153771440115 9.756524588485656 7.710484416607788 0 0 0
604 839 2 1.05 -0.18357631086890305 13.183023905528962 5.411318060009052 0 0 0
605 840 2 1.05 1.9826313339457584 10.172270364384234 5.44242876657808 0 0 0
608 843 2 1.05 2.998348749571275 12.952084683000434 7.677291121011738 0 0 0
610 43 4 -0.95 4.963216884338753 10.322446570987685 2.5094950952346737 0 0 0
613 846 3 -1.05 3.3291983825781606 7.1397763605495905 9.984381440892513 0 0 0
614 847 3 -1.05 6.217115099519725 8.349326189971672 3.824430678474765 0 0 0
617 850 3 -1.05 0.371420825005741 11.317815658623333 9.185784879933548 0 0 0
618 851 3 -1.05 6.703739920002873 10.749400102439418 4.541122601693057 0 0 0
621 854 3 -1.05 4.57410646487382 7.368776731068766 7.77753128213341 0 0 0
622 855 3 -1.05 4.448401216143877 9.71668000454482 5.055572646460366 0 0 0
625 858 3 -1.05 -1.7659291431472408 12.17799197688506 8.191236073049762 0 0 0
628 45 4 -0.95 3.5872446047737205 12.53714754548122 3.0218707435806715 0 0 0
631 862 3 -1.05 1.8105951301718932 9.246857235632062 9.987766809711717 0 0 0
632 863 3 -1.05 2.196205185559319 12.590262502412424 5.099276762537032 0 0 0
635 866 3 -1.05 0.1670241589870311 9.181345608411592 7.9268097532020825 0 0 0
636 867 3 -1.05 8.458955908205144 7.859361642498248 5.040946094611736 0 0 0
639 870 3 -1.05 2.3425199148409934 10.472941579223434 7.741951832435973 0 0 0
642 48 4 -0.95 4.2458002032094875 9.47601406000806 10.423006412876942 0 0 0
643 48 5 0.425 4.79634549867252 9.699155147550988 11.240707371364996 0 0 0
852 161 6 -0.8476 6.242075717683613 13.799335740917762 2.0957530912038154 0 0 1
237 77 7 0.4238 2.6107413485175974 17.033411325000905 10.79170093245925 0 0 0
482 100 7 0.4238 -7.629780548144484 14.597842728762554 2.4531918128941035 0 0 0
653 121 6 -0.8476 2.7464940732725687 12.691663648829358 10.362747663301498 0 0 0
654 121 7 0.4238 2.845776146697076 11.684943381632833 10.34348293306303 0 0 0
655 121 7 0.4238 3.452869191239991 12.84537285968435 11.045083946046134 0 0 0
736 131 6 -0.8476 -3.8310881964143575 17.42499978324826 11.667760306494387 0 0 0
671 49 1 2.1 1.7114098679753194 16.0792718673953 4.184309799123172 0 0 0
674 872 1 2.1 7.68978844648798 0.1899194739200088 8.605316498982184 0 1 0
676 54 1 2.1 -1.0218188477830907 15.010202074722102 10.715475043411377 0 0 0
677 51 1 2.1 11.45379245743094 1.128153927614223 4.453280437638916 0 1 0
680 874 1 2.1 -2.7789714207129426 16.22733259131475 8.5793459625153 0 0 0
681 875 2 1.05 0.8168373608632139 15.79068655977591 7.751466463756279 0 0 0
684 878 2 1.05 8.035741385231006 0.8387303572955543 5.279392791817361 0 1 0
685 879 2 1.05 -1.8513996368477872 16.35354955925515 4.903042380469818 0 0 0
688 882 2 1.05 11.22384312940383 0.3024538146921196 7.611156340987605 0 1 0
690 49 4 -0.95 1.140624738336294 16.604043439567707 2.7878941503833508 0 0 0
693 885 3 -1.05 -0.7336129530123412 13.466957498770892 10.11492917402263 0 0 0
694 886 3 -1.05 2.6926681744412853 14.76728513797173 3.9948227151577984 0 0 0
697 889 3 -1.05 -3.694240378962617 17.550961088328318 8.977596140221118 0 0 0
698 890 3 -1.05 2.521503271476332 17.21122476257716 4.789112715480526 0 0 0
701 893 3 -1.05 0.3973357777833353 13.464585666364734 7.865944756880496 0 0 0
702 894 3 -1.05 0.5028024703334585 15.675972710703384 5.100533053962243 0 0 0
705 897 3 -1.05 -5.802680691077745 18.36835714455091 7.785221716399193 0 0 0
708 51 4 -0.95 11.965051660229483 0.3371580296063821 3.0763649478551893 0 1 0
711 901 3 -1.05 -2.1924477669271516 15.59156361271404 9.870554021821276 0 0 0
712 902 3 -1.05 10.485806650858423 0.1525585725277831 5.088185341446573 0 1 0
715 905 3 -1.05 -3.769372873235313 15.344213147259897 7.843976610835817 0 0 0
716 906 3 -1.05 4.508444969162883 13.649467092164622 5.283345996044433 0 0 0
719 909 3 -1.05 -1.551676669169125 16.669660626905827 7.695907673210035 0 0 0
722 54 4 -0.95 0.20716170782384422 15.92745269053622 10.3877596523943 0 0 0
723 54 5 0.425 0.8827280112597897 16.348828215716846 11.06501017164256 0 0 0
626 859 3 -1.05 2.769025797109042 8.443799438031423 12.194445489118413 0 0 0
479 34 5 0.425 -6.393615735644751 15.099879800159204 12.284215963585313 0 0 0
1067 233 7 0.4238 11.789674672022466 8.013760750780413 2.20838016377321 -1 0 1
733 130 6 -0.8476 -1.112817050632634 18.374266104762743 10.41201127340678 0 0 0
734 130 7 0.4238 -0.37612790345330077 17.67495239623945 10.291341305601597 0 0 0
735 130 7 0.4238 11.561724798055922 0.34736732824820776 11.120101619238376 0 1 0
505 108 7 0.4238 7.437152519185331 16.801177768515046 12.181736376347434 -1 0 0
763 5 5 0.425 12.325070178306559 10.611684427335167 2.5698537372284376 0 0 0
764 7 5 0.425 10.055375091029719 13.084971179587237 2.0583530446795333 0 0 0
765 21 5 0.425 -2.74641996878047 10.27724649306794 2.472627170615234 0 0 0
766 23 5 0.425 -2.7514961790264816 13.160421418053476 2.1749787135302414 0 0 0
767 27 5 0.425 -6.879112705346082 17.373222752918352 2.9706868405532134 0 0 0
408 95 6 -0.8476 -6.535698479455315 11.316749750018964 12.000440016463035 0 0 0
769 35 5 0.425 8.486359261240102 5.014563257195384 2.9632776462528487 0 0 0
770 37 5 0.425 7.845117717464624 6.88886507202578 2.2260833396624173 0 0 0
771 43 5 0.425 4.383764368405035 11.18031562901007 2.6784018464607904 0 0 0
772 45 5 0.425 3.250091799476621 12.899406586492926 2.122929366689812 0 0 0
773 49 5 0.425 0.6988816714560181 17.541132027737973 2.8170958555265533 0 0 0
1211 281 7 0.4238 10.184305861324905 4.572174835094616 1.7923989348710958 0 0 1
657 122 7 0.4238 1.0208757877383383 12.786847592005081 11.856408897875921 0 0 0
1047 226 6 -0.8476 6.1167739241166315 4.100328355635516 1.9833280786813872 0 0 1
458 781 3 -1.05 11.291684238731307 13.591295240987685 11.592582664381707 -1 0 0
78 115 7 0.4238 10.909807921319024 2.816723711964278 11.641257440419446 0 0 0
292 700 3 -1.05 -0.553602773680318 2.2298017682280724 12.308045281612355 0 0 0
222 14 4 -0.95 6.660004697446892 15.26632895637248 11.967830341361479 0 0 0
1312 315 7 0.4238 -5.485810582438307 10.548817365132628 2.057258162777807 0 0 1
122 609 3 -1.05 8.46100076016417 7.503188580883981 12.025490655879292 0 0 0
876 169 6 -0.8476 8.882285412527466 1.0842611221527318 2.2057526770710636 0 0 1
489 103 6 -0.8476 3.458800604660873 1.1346327213172018 11.545336414551484 0 1 0
163 71 7 0.4238 13.789186016435117 9.616782562130327 11.979493910023859 0 0 0
57 4 5 0.425 14.767625829054596 3.7357696171487795 11.656007895995845 0 0 0
323 85 6 -0.8476 -0.31947012921682744 6.5531587702345195 12.587987031363541 0 0 0
142 64 7 0.4238 8.898532362703778 9.178253507078196 1.5999816354018115 0 0 0
577 113 7 0.4238 4.695665862349013 5.709925240257196 11.298541271810565 0 0 0
542 820 3 -1.05 6.539066268880569 2.190352338528836 12.100552765938266 0 0 0
398 91 7 0.4238 -2.221084093310234 6.982084895161401 1.7205443176484048 0 0 0
40 567 3 -1.05 12.211547928450297 1.405314700156485 11.96362593672685 0 0 0
504 108 6 -0.8476 7.749956828846582 17.685113002712868 12.582051512459461 -1 0 0
153 68 7 0.4238 7.6326478102008455 11.529701908405029 10.955727928144459 0 0 0
162 71 7 0.4238 12.378210611674877 8.584850150468622 11.899646356942846 0 0 0
472 31 4 -0.95 0.10623684872487708 0.3545851404977829 1.8196023419378544 0 1 0
238 77 7 0.4238 3.294686747255983 16.779486610929744 12.203536124191295 0 0 0
315 82 7 0.4238 -0.5063674131748584 4.3516136536686325 1.9750282513881368 0 0 0
670 126 7 0.4238 0.03721358383076717 10.137125607695637 12.483618297841181 0 0 0
2 6 1 2.1 14.510061429145688 4.109249609929473 23.2958307427497 0 0 0
3 536 1 2.1 12.918281971479775 0.8102607577586703 18.715659717378927 0 0 0
7 3 1 2.1 12.01242379526178 3.0039937911833428 16.694551920674463 0 0 0
168 622 1 2.1 6.517725486709009 16.569124098358163 23.1998159883082 0 0 0
11 540 1 2.1 10.574142107409827 4.450604341836164 19.044088480286256 0 0 0
14 543 2 1.05 14.056026248776098 4.2353979441172225 20.001761001359213 0 0 0
15 544 2 1.05 12.987873350571745 1.1961823478392033 22.122032803066805 0 0 0
18 547 2 1.05 10.968414433604753 4.358456354239189 22.243290991471103 0 0 0
19 548 2 1.05 16.341364652387693 1.0581268969120219 20.123357384820324 0 0 0
21 550 2 1.05 11.017539694839584 0.7032397378152061 13.930958245437058 0 0 0
24 553 3 -1.05 12.671845557536116 1.7660390396710313 17.41166726092537 0 0 0
713 903 3 -1.05 0.34189602744584513 12.95121593923785 22.229751276151905 0 0 0
28 557 3 -1.05 1.4651224392098359 18.11644566519298 18.299701268066485 0 -1 0
31 560 3 -1.05 7.590514813837801 17.490587561411704 22.535536319290284 0 -1 0
32 561 3 -1.05 13.694056679055715 1.6366554902796722 19.77979901675253 0 0 0
35 564 3 -1.05 13.373897262548134 3.5849826344430715 22.405581110268997 0 0 0
36 565 3 -1.05 11.56059835419625 0.343206980233974 19.292495312961496 0 0 0
84 63 7 0.4238 10.640912672954858 5.3172527287641564 14.723610429897679 0 0 0
41 568 3 -1.05 11.095407827257437 2.4483136446895206 15.587153027000998 0 0 0
44 571 3 -1.05 11.154959742212224 3.779966201519094 17.760325623878913 0 0 0
47 574 3 -1.05 15.454925294875943 0.6258818783354497 22.525687196317502 0 0 0
48 575 3 -1.05 9.613637715518996 3.523479087650316 19.930385254452048 0 0 0
51 578 3 -1.05 17.411665902870833 2.189645598034144 22.15368928300669 0 0 0
52 579 3 -1.05 3.376955629084018 17.246719083602365 19.788120638846785 0 -1 0
54 3 4 -0.95 13.177080070900427 4.000582712049039 16.263926783067117 0 0 0
55 3 5 0.425 14.125288442434377 3.7371382520372043 15.94583940965449 0 0 0
588 117 6 -0.8476 3.1833604142550027 3.3329998761734503 13.221827117360332 0 0 0
64 57 6 -0.8476 15.903677125503155 1.438199670502691 17.658825630673352 0 0 0
65 57 7 0.4238 15.44499270301145 1.829335306530336 16.862939672695404 0 0 0
66 57 7 0.4238 16.223297753749883 2.3407763556190346 18.046221322576837 0 0 0
328 86 7 0.4238 16.052135970599807 0.6980851857776696 13.184345808469432 -1 0 0
514 38 1 2.1 9.386155614011072 1.6825565715927617 23.258958036846494 0 0 0
73 60 6 -0.8476 0.3000108992927864 18.037627514645987 15.487748179478228 0 -1 0
74 60 7 0.4238 0.4864112228906818 17.09588955945532 15.132944120797758 0 -1 0
75 60 7 0.4238 0.42545899312555174 18.179044491684127 16.489723413460062 0 -1 0
421 99 7 0.4238 11.481761722933761 10.777959505156083 13.854830549172295 -1 0 0
590 117 7 0.4238 3.737389447377688 4.105864230171506 12.944936941680115 0 0 0
76 61 6 -0.8476 16.374538477549823 5.347367960926184 14.28630465891939 0 0 0
79 62 6 -0.8476 2.374619821466747 18.649672535132723 13.619340203320398 0 -1 0
80 62 7 0.4238 13.946406719282464 0.2321265393804672 14.335200715289313 0 0 0
81 62 7 0.4238 2.071801986186247 17.753047275291436 13.291811904522573 0 -1 0
82 63 6 -0.8476 10.917638101174076 4.598397948613661 14.03509928236618 0 0 0
83 63 7 0.4238 10.915928208910065 3.6625808176765324 14.562876032034442 0 0 0
667 125 7 0.4238 5.816501273108998 4.848042808385896 12.980313551078126 0 0 0
88 581 1 2.1 10.433850779939347 10.418106060196118 23.34127333134592 0 0 0
89 582 1 2.1 8.87953588371484 7.058955969774133 18.73266764169412 0 0 0
91 9 1 2.1 8.002056082028158 9.084750245493673 16.510727621116708 0 0 0
94 8 1 2.1 12.160141615214433 7.8108092325523595 23.31636080759012 0 0 0
95 584 1 2.1 6.294804233099108 10.680527590306632 18.51127529068501 0 0 0
98 587 2 1.05 9.898151809182146 10.45343590764759 20.011918679977036 0 0 0
99 588 2 1.05 9.112042774129732 7.613310294606537 22.180589161342482 0 0 0
102 591 2 1.05 6.938806104006217 10.589330687571497 22.011727900555563 0 0 0
103 592 2 1.05 12.20336550136994 7.439980666366857 19.611358762614575 0 0 0
105 594 2 1.05 8.006231541438028 6.524832937616958 14.064895445979028 0 0 0
108 595 3 -1.05 8.536571691399098 7.964698577886926 17.458211048654526 0 0 0
699 891 3 -1.05 4.435129980974025 11.204548781042398 22.520758121453493 0 0 0
112 599 3 -1.05 9.68466963566174 5.710516477604277 18.48964927423302 0 0 0
115 602 3 -1.05 15.35995017925054 5.137463050655386 22.610421832026432 0 0 0
116 603 3 -1.05 9.702154534041922 7.947093138337625 19.6877530825409 0 0 0
119 606 3 -1.05 9.240828424166473 10.118533151883861 22.34786563942545 0 0 0
120 607 3 -1.05 7.5825151855742225 6.581886922283936 19.362507028614385 0 0 0
749 135 7 0.4238 -4.645138041640456 15.272247256974481 13.850330583689257 0 0 0
123 610 3 -1.05 7.357387845565397 8.489739273880556 15.258347933837035 0 0 0
126 611 3 -1.05 6.916863401541514 9.995472283063469 17.229122019807306 0 0 0
129 614 3 -1.05 11.422994083299466 6.6706351225653755 22.720478686381334 0 0 0
130 615 3 -1.05 5.372013177049437 9.603984452943372 19.110981233660063 0 0 0
133 618 3 -1.05 13.211052660791607 8.38456984367726 22.26687150196522 0 0 0
134 619 3 -1.05 11.69188941267213 4.857516585382968 19.96488605649385 0 0 0
136 9 4 -0.95 9.281075843502919 10.015217031860582 16.098868409523586 0 0 0
137 9 5 0.425 9.952944671128213 9.74169818593742 15.346398040783734 0 0 0
748 135 6 -0.8476 -4.869410713945072 15.223157702719757 12.8420945713215 0 0 0
146 66 6 -0.8476 12.503371315056572 6.457440631238804 17.155178918817803 0 0 0
147 66 7 0.4238 12.689068374536806 5.468636574405824 16.905332188711856 0 0 0
148 66 7 0.4238 12.858928031694617 7.044542828599266 16.41125803521379 0 0 0
666 125 7 0.4238 6.86704570866215 3.7251203421777275 12.815556935290237 0 0 0
424 753 1 2.1 -7.378096109566417 16.64014548141488 23.367052231655528 0 0 0
155 69 6 -0.8476 10.088275680605916 6.280245842739266 15.677278819853225 0 0 0
156 69 7 0.4238 10.19869054936356 6.048246688591143 16.65665809735369 0 0 0
157 69 7 0.4238 10.513048996816742 7.20621810688852 15.558426762594907 0 0 0
158 70 6 -0.8476 10.879217630030357 8.496246061186564 14.442375595693507 0 0 0
159 124 7 0.4238 2.8713966814140375 9.70347253707763 13.097668248750736 0 0 0
673 871 1 2.1 -2.2173587135383275 13.268227036403056 18.94271480222469 0 0 0
430 30 1 2.1 -5.632507007007952 14.079956889810719 23.43963183243753 0 0 0
669 126 7 0.4238 -0.1335614288320806 9.665152097283762 13.981478783533541 0 0 0
682 876 2 1.05 -0.9342036477195049 16.542764146672823 20.184079128307605 0 0 0
164 72 6 -0.8476 5.805069936169718 9.653218269426842 13.475290367646306 0 0 0
165 72 7 0.4238 4.895035508050409 9.826647968984263 13.870251723482953 0 0 0
586 116 7 0.4238 8.24954154315636 0.7838431825203196 14.501672307360053 0 0 0
672 36 1 2.1 -0.4119248719720909 16.414498862758613 23.159966965596396 0 0 0
169 623 1 2.1 4.6062084871748 13.245597853468452 18.551167948926686 0 0 0
173 13 1 2.1 4.176030898959922 15.406796591410002 16.61444378250193 0 0 0
176 626 1 2.1 7.903921610964935 13.86057903453818 23.30848698176264 0 0 0
177 627 1 2.1 2.347660720043746 16.854729363501004 18.684251382111384 0 0 0
180 630 2 1.05 5.908838278503108 16.611216019138777 19.769449156738535 0 0 0
181 631 2 1.05 4.620192794571884 13.5598550564559 21.67227336307786 0 0 0
184 634 2 1.05 2.953131144799691 16.90503343138884 22.125551282390518 0 0 0
185 635 2 1.05 7.893012410945445 13.598910037980543 19.688864157712086 0 0 0
187 637 2 1.05 3.76357260733756 12.859766728280213 14.13862017389045 0 0 0
190 640 3 -1.05 4.28118175747189 13.927545349578338 17.24660239403616 0 0 0
707 899 3 -1.05 -3.8247948601913135 15.059374074761442 15.390025529157846 0 0 0
194 644 3 -1.05 5.411207483443534 11.926003279969086 18.19338676489704 0 0 0
197 647 3 -1.05 11.471711446828138 11.395561354872385 22.653287761856156 0 0 0
198 648 3 -1.05 5.507003894714468 14.181662929524743 19.45636441684875 0 0 0
201 651 3 -1.05 5.430502765386759 16.172185475910595 22.194285237544722 0 0 0
202 652 3 -1.05 3.32303345795484 12.854966297022777 19.391210879054082 0 0 0
721 53 5 0.425 -1.4667580239399622 16.377931688068582 15.533377487824016 0 0 0
207 655 3 -1.05 3.8389859165164797 15.34557454859574 15.141063306170123 0 0 0
210 658 3 -1.05 3.0394110616555103 16.210479767037153 17.446894155633615 0 0 0
213 661 3 -1.05 6.974022839225762 13.132274152538562 22.207150417730467 0 0 0
214 662 3 -1.05 1.2582060164203563 15.866395317039297 19.288791259167517 0 0 0
217 665 3 -1.05 9.235483215204514 14.210082243637292 22.606772380907152 0 0 0
218 666 3 -1.05 7.422864910821507 10.944307365577632 19.543445093945724 0 0 0
220 13 4 -0.95 5.562526898015266 16.181622760096598 16.96039758328288 0 0 0
221 13 5 0.425 5.835678135351086 16.87223933926852 16.2413699446134 0 0 0
747 134 7 0.4238 1.4810115042979766 13.338021860472756 16.120996214241288 0 0 0
230 75 6 -0.8476 7.9346346614303345 13.780579853909309 17.277541589659428 0 0 0
231 75 7 0.4238 8.51338603664885 13.581135230797047 16.482424331614684 0 0 0
232 75 7 0.4238 8.098566757986276 14.743012250922346 17.554437030224125 0 0 0
731 129 7 0.4238 0.8624535956256896 14.938729393866764 17.773959786167964 0 0 0
615 848 3 -1.05 4.380477702615381 8.88914078877939 23.3319599972703 0 0 0
239 78 6 -0.8476 5.888104449607612 11.960557258136054 15.019943060976292 0 0 0
240 78 7 0.4238 6.308042202614021 11.960029524799909 15.92568650766296 0 0 0
241 78 7 0.4238 6.06525222708873 11.135094412846318 14.431830386591026 0 0 0
242 79 6 -0.8476 4.6165158621974705 16.685554841795028 13.038839489481285 0 0 0
243 133 7 0.4238 -1.6155644593464817 16.379590759961662 13.164399511314254 0 0 0
77 115 7 0.4238 10.361081652694557 3.8728605348748157 12.677518816692631 0 0 0
245 80 6 -0.8476 7.9356861997417685 13.288544446837836 13.730327788092454 0 0 0
350 24 1 2.1 -1.8295443532886309 7.758067615391178 23.32084679094975 0 0 0
247 80 7 0.4238 7.367337682930788 12.952134065829771 14.482958265651952 0 0 0
248 81 6 -0.8476 1.11164709713175 15.799344699830101 14.471280409490488 0 0 0
249 81 7 0.4238 2.0833570569689175 15.57623962923992 14.70230606262254 0 0 0
250 81 7 0.4238 0.9040430335342375 15.129138523461007 13.742144322134353 0 0 0
254 22 1 2.1 0.5712191267647769 4.00689989730064 23.269821671671217 0 0 0
255 669 1 2.1 19.71472957338203 0.9630247457621893 18.73703178866547 -1 0 0
259 19 1 2.1 -1.8121605248197945 3.04218649698725 16.50900110984105 0 0 0
531 809 3 -1.05 8.59239521568567 3.043482998222323 23.53778419126671 0 0 0
263 673 1 2.1 -3.165436090496617 4.678292301763073 18.75240815119533 0 0 0
266 676 2 1.05 0.3932808637045276 4.1700057930738454 20.124295519191236 0 0 0
267 677 2 1.05 -1.0269001976969838 1.2237138395101292 22.153605396662652 0 0 0
270 680 2 1.05 -2.9402233413163392 4.4989466072582776 22.100998794846813 0 0 0
271 681 2 1.05 2.2488097822899515 1.1693216906164736 19.759207749450272 0 0 0
273 683 2 1.05 18.798000680979484 0.793665641679117 13.949449250053291 -1 0 0
276 686 3 -1.05 19.219463395694042 1.8056825972639634 17.535719463661295 -1 0 0
333 61 7 0.4238 17.11977304020592 4.8526878297337825 13.818042314788734 0 0 0
280 690 3 -1.05 -12.261135734616243 18.426339074822817 18.29626845377442 0 -1 0
283 693 3 -1.05 -6.490814583038957 17.52887689275779 22.411731466580736 0 -1 0
284 694 3 -1.05 -0.13933895568653837 1.9622139580557214 19.704232570036055 0 0 0
287 697 3 -1.05 -0.6682671074727325 3.659967622540075 22.465616322401814 0 0 0
288 698 3 -1.05 18.48501613234385 0.3554127521922613 19.494713374646526 0 0 0
746 134 7 0.4238 1.0839084755424497 12.804650090861239 14.700937487465854 0 0 0
293 701 3 -1.05 18.059155425763212 2.6284496046649894 15.287271810250969 -1 0 0
296 704 3 -1.05 -2.5401752711799594 4.128460992158738 17.398939648166774 0 0 0
299 707 3 -1.05 1.6674189678047624 0.5634506881145708 22.0370431220414 0 0 0
300 708 3 -1.05 16.48912653273589 3.5399033813632568 19.20167103747566 0 0 0
303 711 3 -1.05 3.706531739518953 2.066408323426301 22.75500523360239 0 0 0
304 712 3 -1.05 -10.546686669385041 17.3198705995546 19.755639550804133 0 -1 0
310 19 4 -0.95 -0.4236738170034471 3.5057627564440823 15.969389503210897 0 0 0
311 19 5 0.425 0.07511303124440284 2.8909138410007182 15.28538275490732 0 0 0
745 134 6 -0.8476 1.8486325186194146 12.749821062203937 15.386592415322824 0 0 0
320 84 6 -0.8476 2.4542070911980427 0.37133972556978023 16.621946157459863 0 0 0
321 84 7 0.4238 -9.201755532670724 18.243156524215667 16.809918537970617 0 -1 0
322 84 7 0.4238 2.952132329299832 0.83188597077627 15.8861377334833 0 0 0
678 52 1 2.1 1.2180711630951175 13.782213686574353 23.19012148285456 0 0 0
720 53 4 -0.95 -1.66021618426028 15.973619878815256 16.453873006917878 0 0 0
329 87 6 -0.8476 4.797523181286505 18.322530945048552 15.312931343286213 -1 -1 0
330 87 7 0.4238 16.63139919587955 0.22256923801973014 16.03139992873382 -1 0 0
331 87 7 0.4238 4.0598064374535845 18.105094980930552 14.627303864437422 -1 -1 0
332 88 6 -0.8476 1.1328172930239904 1.7652862149050828 13.943793081619102 0 0 0
166 72 7 0.4238 6.344409797221597 9.129597708104574 14.186620972019277 0 0 0
499 79 7 0.4238 5.474455977204855 16.226662781585226 12.692799785150859 0 0 0
335 89 6 -0.8476 -8.529737665817885 17.19407477453645 13.829681720706079 0 -1 0
336 89 7 0.4238 -8.200307404102487 16.56969517590055 13.108626728334034 0 -1 0
337 89 7 0.4238 -9.158439311821182 16.582431344869885 14.39548716877676 0 -1 0
679 873 1 2.1 -4.652220969098067 16.91895930650496 18.824014067399286 0 0 0
339 90 7 0.4238 -2.3066260356617185 3.4205966809755446 14.063148085957302 0 0 0
71 59 7 0.4238 12.177279702263965 5.3941363493482415 13.319672454228442 0 0 0
344 28 1 2.1 -3.406802103483596 10.549339888476037 23.348219368356908 0 0 0
345 714 1 2.1 -4.999674079092998 7.245739949672138 18.78881652939192 0 0 0
347 25 1 2.1 -6.011681291455485 9.095926267042284 16.47800555395281 0 0 0
696 888 3 -1.05 -1.4914971968993982 12.02175032195014 18.437914884496998 0 0 0
351 716 1 2.1 13.240490164268563 10.765633898211668 18.717577810594406 -1 0 0
354 719 2 1.05 -3.9439140750516843 10.53347365580501 20.1665348735019 0 0 0
355 720 2 1.05 -5.174642959637745 7.550163645471243 22.153424605865865 0 0 0
358 723 2 1.05 -7.069213272529192 10.87563831123734 22.16605002134126 0 0 0
359 724 2 1.05 -1.6248417556705725 7.412212973800541 19.771549348501903 0 0 0
361 726 2 1.05 14.71803702572852 7.139025425180707 13.464675358263888 -1 0 0
364 727 3 -1.05 -5.331299198691205 7.996854695661225 17.377116091533107 0 0 0
718 908 3 -1.05 0.5777930743742046 11.060075783133184 19.713032255170166 0 0 0
368 731 3 -1.05 -4.033966097319573 5.967791169985375 18.417982699647027 0 0 0
371 734 3 -1.05 1.5408487835528488 4.923620345680536 22.431519153718867 0 0 0
372 735 3 -1.05 -4.192407140666379 8.108361157571334 19.736070639903854 0 0 0
375 738 3 -1.05 -4.709752714725577 10.185612300023736 22.555737089008975 0 0 0
376 739 3 -1.05 14.427411227076645 6.765499492156396 19.5955789073156 0 0 0
675 53 1 2.1 -3.0744887104066385 15.286956381938863 16.73524490973022 0 0 0
379 742 3 -1.05 13.55256143532418 8.334018275596346 15.692821973315942 -1 0 0
382 743 3 -1.05 -6.688196450683449 10.150245806401555 17.46220913930302 0 0 0
385 746 3 -1.05 -2.7203199182636144 6.802262080016159 22.565763089482008 0 0 0
386 747 3 -1.05 12.158005543458644 9.863066982367007 19.28416882653117 0 0 0
389 750 3 -1.05 -0.5529621389144547 8.033179634876545 22.4754663640769 0 0 0
390 751 3 -1.05 -2.178822317104886 5.033659043011561 19.837363022017904 0 0 0
392 25 4 -0.95 -5.051430009298372 9.787033569300347 15.557684846457349 0 0 0
393 25 5 0.425 -4.127776599178206 9.438842690019426 15.2313471586586 0 0 0
418 98 7 0.4238 -0.10046385135152634 6.500308441340498 16.597104671624916 0 0 0
402 93 6 -0.8476 -2.192736140912153 7.459546273893702 17.088664111622247 0 0 0
403 93 7 0.4238 -2.791786435775025 6.696028620902194 16.85089105030467 0 0 0
404 93 7 0.4238 -2.2439908579385346 8.089823493048069 16.301892288042605 0 0 0
732 129 7 0.4238 -0.331927692865484 14.789197915189575 16.772879587002027 0 0 0
704 896 3 -1.05 -3.3316333140801233 12.843513807779429 19.91962065164733 0 0 0
411 96 6 -0.8476 15.360650176476824 2.771615686116714 15.164477861585613 -1 0 0
412 96 7 0.4238 16.366417863756695 2.5462081333889777 15.061297733249502 -1 0 0
413 96 7 0.4238 15.316078979706935 2.771264777042997 14.159776018979302 -1 0 0
414 97 6 -0.8476 -2.718259018173615 8.566915918470167 14.462489664092164 0 0 0
415 70 7 0.4238 11.841059482035856 8.494054961258703 14.782748114870115 0 0 0
416 70 7 0.4238 10.919824666807305 8.465848283460039 13.387621584793212 0 0 0
417 98 6 -0.8476 0.312395601992862 6.202252176304045 15.710047501513847 0 0 0
493 104 7 0.4238 0.4624692251401169 0.4970308206423234 14.82221288699779 0 1 0
419 98 7 0.4238 0.4772387650339971 5.203612848331025 15.850687936240465 0 0 0
420 99 6 -0.8476 11.92474921517266 11.69980778864362 13.911414132213256 -1 0 0
665 125 6 -0.8476 6.647928157602488 4.500645120257752 13.44910626426603 0 0 0
422 99 7 0.4238 12.46326013041351 11.63325807895588 13.01891047924776 -1 0 0
326 86 6 -0.8476 16.721993612274957 1.3670545943155996 12.808661122400325 -1 0 0
425 754 1 2.1 -9.05877233346069 13.47961831809152 18.784078619434823 0 0 0
427 33 1 2.1 -9.533110950225092 15.77870998357872 16.837524277433214 0 0 0
494 104 7 0.4238 -12.03893453996446 18.365152334297274 16.134157829718706 0 0 0
431 756 1 2.1 9.119215727617904 17.072336905893287 18.604404296919338 -1 0 0
434 759 2 1.05 -8.080294973761774 16.714922720075737 19.936495892336605 0 0 0
435 760 2 1.05 -8.99819118960039 13.74111528439167 22.481050019800843 0 0 0
438 763 2 1.05 -10.905410591118363 16.70660242597977 22.072095016105646 0 0 0
439 764 2 1.05 -5.854313780587387 13.642274944264502 20.119349055186177 0 0 0
441 766 2 1.05 10.32219881108318 13.76300609455172 13.734177021840422 -1 0 0
444 767 3 -1.05 -9.198209034173786 14.382972087160041 17.614733856644825 0 0 0
717 907 3 -1.05 2.4703702312547877 14.25207092689407 22.47032326217581 0 0 0
448 771 3 -1.05 -8.123596949834093 12.248716757095808 18.342041168370862 0 0 0
451 774 3 -1.05 -2.3160303016694814 11.30240144009155 22.528186047481828 0 0 0
452 775 3 -1.05 -8.283660041081209 14.119975911475654 20.01235629375959 0 0 0
455 778 3 -1.05 -8.666262502178792 16.210068717526774 22.560178642014748 0 0 0
456 779 3 -1.05 10.257438227277508 12.831072844491427 19.30869073211279 0 0 0
740 132 7 0.4238 -1.6968128212298261 12.41820495325932 15.94122174297977 0 0 0
459 782 3 -1.05 -9.637183627542841 15.460533752890468 15.351405997671085 0 0 0
462 783 3 -1.05 -10.729447093384584 16.43911002014461 17.44936177277417 0 0 0
465 786 3 -1.05 -6.344958124504122 13.119044953183463 22.480599657185408 0 0 0
466 787 3 -1.05 8.134859704807432 16.03352967768647 19.191086279396956 0 0 0
469 790 3 -1.05 -4.293985422495936 14.608241785054675 22.86245686195521 0 0 0
470 791 3 -1.05 -6.2635838541957005 11.200509168102485 19.71611843493138 0 0 0
476 33 4 -0.95 -8.220463162755282 16.689764443820902 17.148554921358453 0 0 0
477 33 5 0.425 -7.308330615527584 16.42857541773482 16.73440016408891 0 0 0
743 106 7 0.4238 -6.834041267007599 14.779588618446356 15.593562670911192 0 0 0
486 102 6 -0.8476 -6.997741333993883 12.753023352443012 15.744152811127885 0 0 0
487 102 7 0.4238 -7.532633349849577 12.12519255827718 15.204108219196813 0 0 0
488 102 7 0.4238 -7.094472076273633 12.427103498492421 16.679152990700544 0 0 0
730 129 6 -0.8476 0.4631978024547187 14.242512117218254 17.13144234887179 0 0 0
710 900 3 -1.05 -3.9048020082665444 16.34455891801751 17.6182413133741 0 0 0
495 105 6 -0.8476 9.902230229079812 12.64402052064794 15.834368482298284 -1 0 0
496 105 7 0.4238 9.800968224737645 11.59904051854734 15.911675331077882 -1 0 0
497 105 7 0.4238 10.797582683804519 12.795886422602539 16.29758581425995 -1 0 0
498 106 6 -0.8476 -6.267641608757659 15.598917893284291 15.818936861829444 0 0 0
668 126 6 -0.8476 -0.6788416427884523 9.941008444810965 13.15525887467914 0 0 0
500 79 7 0.4238 4.372065325637569 16.181496336205353 13.908750014136505 0 0 0
501 107 6 -0.8476 -5.065838935165038 12.04855490432182 13.963907403743361 0 0 0
502 107 7 0.4238 -5.101409320730133 11.26017146847964 14.624019195788021 0 0 0
503 107 7 0.4238 -5.5967594065888635 12.718684019405105 14.527064138279952 0 0 0
683 877 2 1.05 -2.273351491364933 13.722075363835751 21.976711166689586 0 0 0
686 880 2 1.05 -4.037947232485949 16.917448046488097 22.172215178949166 0 0 0
10 539 1 2.1 16.336834451214255 1.7413847633552046 23.1872765679511 0 0 0
508 44 1 2.1 7.569945725014475 4.173090909675666 23.217607376022155 0 0 0
509 793 1 2.1 5.9658236574784596 0.8654606402572997 18.672956887392843 0 0 0
511 41 1 2.1 5.132921703718512 2.85943937374246 16.46109517946192 0 0 0
744 106 7 0.4238 -5.275349779666758 15.27835586479688 15.660408582357512 0 0 0
515 795 1 2.1 3.5874058401004816 4.523094696690051 18.596156714492402 0 0 0
518 798 2 1.05 7.085380890143709 4.1842405071297835 20.009961230508775 0 0 0
519 799 2 1.05 6.059148195041289 1.2516461673397965 21.82000064754156 0 0 0
522 802 2 1.05 3.9819410188910918 4.449750884008654 21.78837971196178 0 0 0
523 803 2 1.05 9.212463950671022 1.1627502758862716 19.827969954368417 0 0 0
525 805 2 1.05 5.01532804250631 0.7410643750561221 13.36541874943912 0 0 0
528 806 3 -1.05 5.502679224379894 1.6081474536336013 17.374231357499536 0 0 0
703 895 3 -1.05 -1.7373760341024307 16.02652335204419 22.460374200915602 0 0 0
532 810 3 -1.05 -5.572835069601911 18.145665214251068 18.469083226812803 0 -1 0
535 813 3 -1.05 0.501783586812167 17.26702313124979 22.185844750605604 0 -1 0
536 814 3 -1.05 6.91127313136372 1.735012540819779 19.637538517980133 0 0 0
539 817 3 -1.05 6.355408362332607 3.620729994249444 22.41636708533339 0 0 0
540 818 3 -1.05 4.663610310205235 0.5223614313350372 19.478637059651827 0 0 0
246 80 7 0.4238 7.93965146062853 12.479572994864743 13.099500561112105 0 0 0
543 821 3 -1.05 4.495686709401804 2.2532897725425514 15.151553159259384 0 0 0
546 822 3 -1.05 4.186433559822014 3.8274461188831945 17.28018490886282 0 0 0
549 825 3 -1.05 8.486237013687187 0.8723346276335827 22.309768316433395 0 0 0
550 826 3 -1.05 2.6407240936989838 3.6084106786793533 19.327404155234152 0 0 0
553 829 3 -1.05 10.761670223267977 1.9944086829731449 22.63119529422359 0 0 0
554 830 3 -1.05 -3.609248671152366 17.382111384308825 19.942918282311492 0 -1 0
560 41 4 -0.95 6.418728904983145 3.644969258261366 16.088537686202773 0 0 0
561 41 5 0.425 6.639479945006722 3.8744941797003296 15.082967918777705 0 0 0
742 133 6 -0.8476 -2.0752540257366974 17.12175330499047 13.708081129661355 0 0 0
570 111 6 -0.8476 8.959452003711052 1.538921983375522 17.144326007983068 0 0 0
571 111 7 0.4238 8.134091849845545 2.047962670772905 16.82994989211529 0 0 0
572 111 7 0.4238 9.686154631274734 1.986453510557087 16.575477595858228 0 0 0
714 904 3 -1.05 -5.563609489356163 15.821523169363024 19.449023928229597 0 0 0
739 132 6 -0.8476 -1.7853741895810662 12.21429886946506 14.973939308539881 0 0 0
579 114 6 -0.8476 -5.713357878775991 18.270995495861698 14.99671737021038 0 -1 0
580 114 7 0.4238 -5.647808050339534 18.473039617973157 15.98168842288234 0 -1 0
581 114 7 0.4238 -6.168096886601324 17.34608162718747 15.013289534107347 0 -1 0
587 116 7 0.4238 7.968470749070564 1.678895686327837 13.264435741544192 0 0 0
583 88 7 0.4238 1.9984292536558501 2.3308522443764295 13.798128896715543 0 0 0
584 88 7 0.4238 0.46169646635800543 1.9940222127911646 13.194801244725555 0 0 0
585 116 6 -0.8476 8.713922895807668 1.303557560826993 13.779647320446863 0 0 0
279 689 3 -1.05 1.3191244881279183 2.6732497171947887 23.500200735677772 0 0 0
160 124 7 0.4238 2.5259430069297837 10.382358266332448 14.54806692382566 0 0 0
578 113 7 0.4238 4.170039673328426 6.15605508640999 12.791419533065882 0 0 0
589 117 7 0.4238 3.776716529067729 2.954494924025283 13.98104852895557 0 0 0
687 881 2 1.05 0.9798440437410676 13.426614114332066 19.980584317355735 0 0 0
592 50 1 2.1 3.4026215077982997 10.226152030078396 23.09790016296477 0 0 0
593 832 1 2.1 1.9168325624323748 7.031790328135597 18.66814463255627 0 0 0
595 47 1 2.1 1.1865868238920911 9.349388890591065 16.796365660332196 0 0 0
492 104 6 -0.8476 8.25331821336309 18.483145287305607 15.225158131959772 -1 0 0
599 834 1 2.1 -0.7099658449742493 10.69489575882201 18.814440724857143 0 0 0
602 837 2 1.05 2.87283785803225 10.260472450063048 19.751250571485354 0 0 0
603 838 2 1.05 1.801196165307573 7.27780470151913 22.200676850911673 0 0 0
606 841 2 1.05 -0.012814851551755668 10.509276615531949 22.127429981538995 0 0 0
607 842 2 1.05 5.274247200920658 7.334067032315394 19.777674289595375 0 0 0
609 844 2 1.05 1.39793029002871 7.432437463487046 13.930515293769243 0 0 0
612 845 3 -1.05 1.5313906459328877 7.98818979433786 17.50165593146781 0 0 0
700 892 3 -1.05 -1.2211084326117765 14.200590326839228 19.64381111768888 0 0 0
616 849 3 -1.05 2.8929112940856956 5.864622285447024 18.21594964884836 0 0 0
619 852 3 -1.05 8.287888352157683 5.357243895407335 22.42871776688858 0 0 0
620 853 3 -1.05 2.6388006979271994 7.86914646286943 19.807355571860118 0 0 0
623 856 3 -1.05 2.2567886551971466 9.840679143228328 22.201645053725095 0 0 0
624 857 3 -1.05 0.6357720827504373 6.389093560500926 19.339540251513885 0 0 0
692 884 3 -1.05 -2.8166661039566114 14.063025263832282 17.692464102072833 0 0 0
627 860 3 -1.05 0.930197941335893 9.220883844405117 15.300772084563388 0 0 0
630 861 3 -1.05 -0.0922522381483861 10.052104615915233 17.479860329041294 0 0 0
633 864 3 -1.05 4.5597639299739265 6.608236120619702 22.14546106827013 0 0 0
634 865 3 -1.05 -1.6597585445495502 9.755665187325977 19.633708355075324 0 0 0
637 868 3 -1.05 6.63485337585974 8.107036741660279 22.486052096165974 0 0 0
638 869 3 -1.05 4.734388137168911 4.8413928241612565 19.583304470536795 0 0 0
640 47 4 -0.95 2.3524838162739234 10.37417479773418 17.029753086325687 0 0 0
641 47 5 0.425 2.3198750145169327 11.223641608780294 16.394767389156105 0 0 0
741 132 7 0.4238 -1.5393221488652795 11.236046748514342 14.92912343396886 0 0 0
650 120 6 -0.8476 4.868689965595223 8.20531165644845 16.408048435816664 0 0 0
651 120 7 0.4238 4.9239859026330235 8.986082030489586 17.056626038484954 0 0 0
652 120 7 0.4238 5.685564812170816 8.24143523619966 15.824922861754292 0 0 0
689 883 2 1.05 -3.0854886910230634 13.545672902007835 13.286686162197316 0 0 0
262 672 1 2.1 2.2882099300812238 1.461806683219501 23.222175690045564 0 0 0
659 123 6 -0.8476 3.5365296301835207 6.491561630640338 14.635546756498925 0 0 0
660 123 7 0.4238 3.266700403541286 5.776429439223698 15.326900201411995 0 0 0
661 123 7 0.4238 4.169397400997211 7.165324425521197 15.089804774912201 0 0 0
662 124 6 -0.8476 3.119991398894917 10.465563721180933 13.730321947455304 0 0 0
663 97 7 0.4238 -1.9223342903720764 8.955003216293315 13.94566315953083 0 0 0
664 97 7 0.4238 -3.3354321304116796 8.39450631465337 13.657766057951138 0 0 0
598 46 1 2.1 5.308718404614071 7.594760368526605 23.06592029277156 0 0 0
334 61 7 0.4238 16.08358638826867 4.8024539855436315 15.08506316524926 0 0 0
244 133 7 0.4238 -2.7720316529565316 17.459386330498816 13.050031510928761 0 0 0
111 598 3 -1.05 11.210569480443715 9.06065211021682 23.563492856766874 0 0 0
338 90 6 -0.8476 -2.229277895474932 3.9704866748210423 13.150104682969788 0 0 0
325 85 7 0.4238 -0.8703550861208524 6.044168483798465 13.282662357658808 0 0 0
506 108 7 0.4238 8.679786826491915 17.46289259155324 12.906263432557058 -1 0 0
223 14 5 0.425 7.100292484462751 14.610527734741297 12.660099104821011 0 0 0
656 122 6 -0.8476 0.8910797348324354 13.058714335416084 12.82948647306671 0 0 0
410 95 7 0.4238 -6.007112186221244 11.489375032611122 12.868553850817273 0 0 0
695 887 3 -1.05 0.36528463410107903 15.107007335032089 23.467004177723805 0 0 0
658 122 7 0.4238 -0.03624331762550631 13.43806965123791 12.862658811736186 0 0 0
340 90 7 0.4238 -1.5688075978023828 3.3088168964895543 12.69419697491045 0 0 0
70 59 6 -0.8476 12.868019238123836 5.71283497951795 12.643445328163386 0 0 0
6 18 1 2.1 5.160875182288691 18.367664824600435 25.24727279298412 0 -1 0
23 552 3 -1.05 5.922045467581315 17.366968656832313 24.417833052932977 0 0 0
38 1 4 -0.95 3.7994869396866084 17.75949574112231 25.856853253703353 0 -1 0
43 570 3 -1.05 17.10681093127994 1.0095327917477068 24.391625657646166 0 0 0
61 56 6 -0.8476 8.780904198564285 7.80922623041639 24.612383842786823 0 0 0
62 56 7 0.4238 8.73026937036241 7.827210784814826 25.627543914019178 0 0 0
85 1 5 0.425 3.8244397133005203 17.7827635402082 26.91406120566968 0 -1 0
107 6 4 -0.95 13.83494732770626 4.7512513140982 24.641088846730813 0 0 0
125 8 4 -0.95 12.908986490193909 7.510187667543436 24.701105382167988 0 0 0
143 65 6 -0.8476 3.9576801573323848 7.285405350109005 26.441573543070092 0 0 0
144 65 7 0.4238 4.472340199215151 7.688251598072716 27.234829016814107 0 0 0
172 32 1 2.1 9.011690175955161 12.056838429581648 25.52915005564908 0 0 0
189 639 3 -1.05 9.935856700716261 11.12277237709454 24.63368052911234 0 0 0
204 11 4 -0.95 8.10091565355724 11.273978944101446 26.53641799260527 0 0 0
209 657 3 -1.05 8.13320104097468 12.902962576463711 24.499871471840283 0 0 0
227 74 6 -0.8476 1.202130288114343 17.700473978280296 26.26044055817979 0 0 0
228 74 7 0.4238 2.2170579459856357 17.714194556153565 26.27229669028596 0 0 0
251 11 5 0.425 8.692385017511397 10.593225659212413 27.083626100789296 0 0 0
258 40 1 2.1 -8.875502233491483 18.300036112557056 25.46797943046812 0 -1 0
275 685 3 -1.05 -7.854514665007271 17.345405252814547 24.6657501867894 0 0 0
290 15 4 -0.95 -9.990861016070728 17.392640292048224 26.14718319525661 0 -1 0
295 703 3 -1.05 2.6391849595003363 0.5499354107615652 24.5007528357958 0 0 0
308 18 4 -0.95 18.285387204569105 0.06445587316686495 26.45881269966931 -1 0 0
309 18 5 0.425 6.77473290403673 18.128588245097525 26.86419062447879 -1 -1 0
317 83 6 -0.8476 -2.31009814526797 5.04005429824891 26.01388544624942 0 0 0
318 83 7 0.4238 -2.2526584515238213 5.9877222227375215 25.535649696393794 0 0 0
341 15 5 0.425 -9.590568243930367 16.960176681289397 27.006370960408116 0 -1 0
363 22 4 -0.95 0.2674639582477146 4.66176420877136 24.65088152058345 0 0 0
381 24 4 -0.95 -1.4056196603496567 7.1254003950577305 24.689053829522734 0 0 0
399 92 6 -0.8476 -7.389609222865578 11.342672774367102 24.9873881463555 0 0 0
400 92 7 0.4238 12.338456293138668 11.60409421064288 24.830963059170017 -1 0 0
443 28 4 -0.95 -3.6655976831393176 11.357348354014869 24.67415709509407 0 0 0
461 30 4 -0.95 -5.308354624993068 13.343898062057853 24.879966548296053 0 0 0
474 32 4 -0.95 9.749525139652333 13.203298963585787 26.384668306818735 -1 0 0
475 32 5 0.425 9.060379172908831 13.47236531282022 27.1474531461158 -1 0 0
483 101 6 -0.8476 8.220622199460792 16.893523206183648 27.11550372742418 -1 0 0
484 101 7 0.4238 7.955245898620654 15.934936335555781 27.021462520155158 -1 0 0
527 36 4 -0.95 -0.7232485046560768 17.27523657617776 24.473802794050318 0 0 0
545 38 4 -0.95 9.566938406159185 0.9614930689504242 24.636265933510195 0 0 0
558 40 4 -0.95 4.150630642266627 0.5782729498947604 26.44970847617667 0 0 0
559 40 5 0.425 4.555563948915536 1.4101009823576303 25.9454111580515 0 0 0
567 110 6 -0.8476 1.2842860659405007 7.451986535956306 24.80942330720045 0 0 0
568 110 7 0.4238 1.2021479462119917 6.4438169120576365 24.893829037227583 0 0 0
611 44 4 -0.95 6.860562435239525 4.685301241231851 24.66678190326111 0 0 0
629 46 4 -0.95 5.5961010333936585 6.891833039742423 24.490309163810654 0 0 0
647 119 6 -0.8476 -2.1803616596108397 11.051948093105452 26.96374095332708 0 0 0
648 119 7 0.4238 -1.5526381247276952 11.844730150426507 27.04148416538477 0 0 0
691 50 4 -0.95 2.897420337892465 10.910759089631739 24.460692017773393 0 0 0
709 52 4 -0.95 1.4544897714690956 13.077738624321931 24.58114577146221 0 0 0
727 128 6 -0.8476 -4.386590201200533 14.306464763810277 28.039567142388247 0 0 0
728 128 7 0.4238 -5.273149280322022 13.94942798352223 27.662634114667487 0 0 0
751 6 5 0.425 13.779671117761335 4.033392463151636 25.393289268785782 0 0 0
752 8 5 0.425 13.149858281220041 6.528038730540565 24.887404903687372 0 0 0
753 22 5 0.425 0.7187789202016343 4.133059441190571 25.442788563190756 0 0 0
754 24 5 0.425 -0.3861195893145926 7.253545652153236 24.771558799214528 0 0 0
755 28 5 0.425 -3.161418042257566 11.068094040042169 25.560457455921004 0 0 0
756 30 5 0.425 -4.479825271655869 12.719434178970786 24.82548864801429 0 0 0
757 36 5 0.425 0.026509212879196484 17.52929028122778 25.16011377804903 0 0 0
758 38 5 0.425 10.29511910520237 0.2128299517707795 24.72417480163235 0 0 0
759 44 5 0.425 6.512538036534711 5.660010648633005 24.7397006449619 0 0 0
760 46 5 0.425 4.823524891224954 7.010687538786444 25.189819010167334 0 0 0
761 50 5 0.425 3.730274501759404 11.08872627264636 25.0828181369969 0 0 0
762 52 5 0.425 2.137582278029727 12.23998269752615 24.658062006337907 0 0 0
1368 333 6 -0.8476 2.2716558953603254 18.288935714548323 32.980086748057616 0 0 0
1372 335 7 0.4238 -2.0531118785692013 15.046751723053504 33.56873370842556 0 0 0
1925 519 7 0.4238 14.366816255692617 2.9953233214295163 32.237908953486595 0 1 0
799 144 7 0.4238 5.633486933698615 6.497059082988732 30.83401112578662 0 0 0
800 144 7 0.4238 5.153534482701903 7.6437528605969645 29.773266570836633 0 0 0
801 144 6 -0.8476 4.805319507563189 6.9925856131793696 30.459350901758455 0 0 0
817 150 7 0.4238 6.5262564386673425 14.641675763638418 31.709822631287892 0 0 0
1945 526 7 0.4238 1.1237385986041448 11.4013652067333 32.03865661560051 0 0 0
819 150 6 -0.8476 5.7363622116921995 15.264136080692266 31.76905120187704 0 0 0
820 151 7 0.4238 8.959189436783882 13.858359577040078 32.53585642017748 0 0 0
821 151 7 0.4238 8.565876734039572 14.160308482933658 31.02678998523149 0 0 0
822 151 6 -0.8476 8.15461061071807 13.81170212603998 31.92068417698529 0 0 0
838 157 7 0.4238 -2.258164925600684 12.818852487718253 32.691149653267345 0 0 0
1874 502 7 0.4238 11.942883798322862 2.0666572073168896 30.742908053753904 0 0 0
840 157 6 -0.8476 -2.066395808924492 12.202760564735893 31.91083234010442 0 0 0
871 168 7 0.4238 0.40915840113171353 11.16410663971932 27.2304701995087 0 0 0
872 168 7 0.4238 1.4590935155488167 10.818323329858766 28.53300286537343 0 0 0
873 168 6 -0.8476 0.753774468512935 10.441189222124653 27.89697776893844 0 0 0
877 170 7 0.4238 8.031333593133343 5.628819406465944 31.076000079697373 0 0 0
878 170 7 0.4238 6.745950472531409 4.571118995931926 31.121365201589807 0 0 0
879 170 6 -0.8476 6.998938055899451 5.571554852478409 31.223000362528673 0 0 0
880 171 7 0.4238 -2.0312078372515185 15.101803113900415 30.155484523118936 0 0 0
1790 474 7 0.4238 3.201609181088093 12.878726799933418 32.09351434281997 0 0 0
1724 452 7 0.4238 6.334379783855046 13.722421024918175 34.4863988177904 0 0 0
895 176 7 0.4238 -1.4641677182215591 7.767348516796966 29.296294608076373 0 0 0
896 176 7 0.4238 -0.6772037703755399 8.613042168612372 28.27848307358601 0 0 0
897 176 6 -0.8476 -1.551620693210192 8.638246257811094 28.789611695379808 0 0 0
1892 508 7 0.4238 14.169397975431714 8.009739364149825 27.183135176719034 -1 0 0
902 178 7 0.4238 17.20645908906038 4.3198407197383135 31.835380941681066 0 0 0
891 174 6 -0.8476 10.381974772403858 14.145791425747976 33.53718319065366 -1 0 0
1868 500 7 0.4238 8.082684071837237 17.752876535539432 31.172729852540513 0 0 0
1096 243 7 0.4238 11.106406035905636 8.032392542638297 31.385307407685712 0 0 0
1183 272 7 0.4238 12.630826479296172 9.744529665664293 27.617985702716794 0 0 0
919 184 7 0.4238 -4.572650214843029 18.484356493686818 32.01174456962034 0 -1 0
920 184 7 0.4238 8.144733214686063 1.095530745009388 32.74915713152708 0 0 0
921 184 6 -0.8476 8.4978058027595 0.2024461390864586 32.46094399188909 0 0 0
925 186 7 0.4238 4.499349124283082 4.3510600103407375 28.421546708013803 0 0 0
926 186 7 0.4238 3.992803953241303 2.918605544497823 28.900035444050182 0 0 0
927 186 6 -0.8476 3.6416713490253665 3.8544828468867753 28.575823724148652 0 0 0
1264 299 7 0.4238 18.071351739988174 3.457643284732999 33.527852740535 -1 0 0
1902 511 6 -0.8476 8.675597609856531 7.1502357042855325 27.112983344419057 0 0 0
1924 519 7 0.4238 14.374078817528563 1.435664495685402 32.5031194232229 0 1 0
982 205 7 0.4238 5.4118177950595285 12.943824291038945 28.990624817344507 0 0 0
983 205 7 0.4238 6.432973734610474 11.762712724336106 28.651617465836203 0 0 0
984 205 6 -0.8476 5.467840146117544 11.961268087027168 28.708318788576143 0 0 0
988 207 7 0.4238 -4.196487156044142 14.231318728484228 31.213787033609147 0 0 0
989 207 7 0.4238 -3.7824745172490735 14.328191901622358 29.589970950898767 0 0 0
990 207 6 -0.8476 -3.4316147386354205 14.157443661713094 30.530294212786675 0 0 0
1901 511 7 0.4238 9.569746778675967 6.633359581105007 27.22767100986996 0 0 0
998 210 7 0.4238 0.9134093985073026 15.444751996462733 32.08095910286271 0 -1 0
1974 535 6 -0.8476 16.35048530199947 3.262682006990668 29.265111668455155 -1 0 0
1018 217 7 0.4238 12.20773919044103 11.924716623349076 33.219008179992706 0 0 0
1019 217 7 0.4238 12.240431761901384 10.648775050042268 34.24135504932045 0 0 0
1020 217 6 -0.8476 11.652737351634045 11.39691394332527 33.89066328244628 0 0 0
1024 219 7 0.4238 10.108297463051242 2.327711527939759 25.80342510088129 0 0 0
1025 219 7 0.4238 11.551754023858841 2.9739998013192266 26.178470497400166 0 0 0
1026 219 6 -0.8476 10.5604109865364 3.155802398521605 26.120248859650157 0 1 0
1033 222 7 0.4238 6.158437324162779 9.467754600840848 28.437988858888136 0 0 0
1034 222 7 0.4238 6.382402393809291 8.184797022899932 27.48769064352309 0 0 0
1035 222 6 -0.8476 5.782995950036499 8.560866243605235 28.190968849953116 0 0 0
1042 225 7 0.4238 3.5491326005892168 7.899031842883108 31.12725620309686 0 0 0
1043 225 7 0.4238 2.670452783010503 9.1991080496514 30.798737131970032 0 0 0
1044 225 6 -0.8476 2.7656020178410405 8.420740222718104 31.46623695861938 0 0 0
1052 228 7 0.4238 -10.081970164760147 17.45652787173243 34.47801510939221 1 -1 0
1761 464 6 -0.8476 15.997596185707998 6.651397365581666 33.667550710772495 0 0 0
1946 526 7 0.4238 -0.5750774261217585 11.412770037706572 32.251052497021206 0 0 0
1060 231 7 0.4238 3.905908715001617 0.9258998633394723 29.91068023944035 0 0 0
1061 231 7 0.4238 4.570773989626671 1.0283999379076152 28.364075430981696 0 0 0
1062 231 6 -0.8476 4.495795511954363 1.4345892227468193 29.27864431948534 0 0 0
1075 236 7 0.4238 -8.168696791661867 13.538945613816432 28.61177520209131 1 0 0
1076 236 7 0.4238 10.981022452578962 13.308576993182356 28.20822990799411 0 0 0
1077 236 6 -0.8476 -9.102119170396696 13.994793184990936 28.632491436228527 1 0 0
1225 286 7 0.4238 7.108336873245019 17.338357697467032 33.7596733350424 0 -1 0
890 174 7 0.4238 10.810418843276661 13.252754287301869 33.72406114019376 -1 0 0
1330 321 7 0.4238 9.650317233016883 5.1354299159995485 32.32301729609211 0 0 0
1147 260 7 0.4238 10.379742381311607 9.56900140679402 28.232209802197936 -1 0 0
1148 260 7 0.4238 9.10086064287051 8.655215270211498 27.79455705282124 0 0 0
1149 260 6 -0.8476 9.355369098393009 9.590261402538212 28.105763033557626 0 0 0
1165 266 7 0.4238 13.44977941044984 10.150752576070625 25.87076922911657 0 0 0
1166 266 7 0.4238 13.385809123042543 8.628034649803084 25.73529040352183 0 0 0
1167 266 6 -0.8476 13.60447196211854 9.324907126590276 26.46238204232032 0 0 0
1587 406 6 -0.8476 9.261398651372021 10.479139803039281 32.339484821261806 0 0 0
63 56 7 0.4238 7.813212027659656 8.030299803529655 24.368292337643435 0 0 0
1973 535 7 0.4238 16.547380094145286 3.484748053615775 28.30158855586387 -1 0 0
145 65 7 0.4238 2.9762938562136454 7.350957684206575 26.684994086233722 0 0 0
447 770 3 -1.05 -6.526509754359984 15.30505898722077 23.760303283569872 0 0 0
1098 243 6 -0.8476 10.241273621032038 8.067309721698317 31.946144731031172 0 0 0
1972 535 7 0.4238 16.96131187468424 3.9565308417210527 29.722037962289228 -1 0 0
1968 533 6 -0.8476 3.672829300268623 3.580780761274763 34.31869041079964 0 0 0
1759 464 7 0.4238 -3.8599932518270035 6.905822187075119 33.15811667802534 0 0 0
839 157 7 0.4238 -2.394273277974198 12.624449140728506 31.066326111737443 0 0 0
1875 502 6 -0.8476 11.116977083936373 2.647585743883496 30.765012450099857 0 0 0
1908 513 6 -0.8476 -3.129166230713988 9.456646197110999 31.45398178602807 1 0 0
997 210 7 0.4238 0.18413184330561477 15.008292625134162 30.808517727531427 0 -1 0
1877 503 7 0.4238 2.7000362761343824 1.0895913507219974 31.375615714278478 1 0 0
790 141 7 0.4238 -2.4397631427283133 17.97951609897781 28.153640567238323 0 -1 0
992 208 7 0.4238 0.8157102242691199 5.976824619677943 32.442962785072396 0 0 0
1214 282 7 0.4238 9.627463699063277 5.045341009383484 29.417678591713234 0 0 0
1215 282 6 -0.8476 9.721597662679187 4.970336713187986 30.42118783323801 0 0 0
729 128 7 0.4238 -3.6543465135106277 14.224562893670468 27.342306492145653 0 0 0
1900 511 7 0.4238 7.945832809464616 6.422391838752614 27.084086446758192 0 0 0
1959 530 6 -0.8476 -0.08620751233995937 12.702604504622702 26.64221887027195 0 0 0
1891 508 7 0.4238 -5.147317799666262 7.601259766298012 27.523569399407442 0 0 0
229 74 7 0.4238 0.9215051368744446 17.83731256366036 27.228577443326433 0 0 0
1958 530 7 0.4238 0.6363922153729585 12.922550680577777 25.895475130496894 0 0 0
1765 466 7 0.4238 13.039165613171635 8.013319983494187 34.407128205418054 -1 0 0
1966 533 7 0.4238 4.451459577168856 4.095305384590469 33.89692295358052 0 0 0
792 141 6 -0.8476 -2.3630932582638335 17.24547938898908 27.451364769755028 0 0 0
1255 296 7 0.4238 1.6989720305657912 4.787533159116514 30.84806994150941 0 0 0
1256 296 7 0.4238 2.422440111161262 4.029492163567247 29.684377468510323 0 0 0
1257 296 6 -0.8476 1.5595780492229225 3.9746093399321962 30.259660196331758 0 0 0
1789 474 7 0.4238 1.9548343388488956 13.548373666124032 31.417950010351685 0 0 0
1188 273 6 -0.8476 -0.1880990981038291 8.372948713485695 33.18758859120025 1 0 0
1237 290 7 0.4238 -0.35421478882271085 16.455349703503636 33.52957681912345 0 0 0
963 198 6 -0.8476 7.449086093286642 9.882150797865537 34.344042677074135 0 0 0
1411 348 7 0.4238 13.364634535932499 3.969705181651882 27.46205432469412 0 0 0
1887 506 6 -0.8476 12.417451398520228 7.972836098758701 30.219021373666735 0 0 0
1213 282 7 0.4238 10.141417351899683 4.0586627975190215 30.615955948074426 0 0 0
901 178 7 0.4238 -3.3047186154246657 5.760189386317497 31.551710970207917 1 0 0
1187 273 7 0.4238 0.2075058624279805 9.240117361301696 32.83454090443336 1 0 0
1276 303 7 0.4238 11.043502410933087 13.908724835499104 25.70204313650976 -1 -1 0
1277 303 7 0.4238 -8.568866496116948 15.136003988524667 25.795339868620346 0 -1 0
1278 303 6 -0.8476 -8.881920256203095 14.409252576504125 25.212284110370167 0 0 0
1315 316 7 0.4238 3.751916962839313 10.904055510210403 29.603963731906774 0 0 0
1205 279 7 0.4238 13.124349733496565 6.439239237730308 32.71406345140049 0 0 0
1642 425 7 0.4238 9.615382743872855 0.11436157654867782 30.887977088978733 0 0 0
1285 306 7 0.4238 6.371612051322222 11.759035695901655 32.020917017060924 0 0 0
1286 306 7 0.4238 6.444728728615689 10.715232879097282 30.806669155445952 0 0 0
1287 306 6 -0.8476 5.844988784659543 11.023546838713521 31.602825068495633 0 0 0
1288 307 7 0.4238 6.055977277252771 11.401712155055492 25.923800013946643 0 0 0
1289 307 7 0.4238 4.987897880490216 11.974970851903093 26.94761273962942 0 0 0
1290 307 6 -0.8476 5.057497449726331 11.556021824968614 26.00818655680035 0 0 0
1294 309 7 0.4238 -8.501178120335643 15.877208631359514 28.70304250850674 0 -1 0
1295 309 7 0.4238 -7.356962059804814 16.93342521210669 28.36438372851156 0 -1 0
1296 309 6 -0.8476 -8.337255107268653 16.7267827396967 28.198903220823897 0 -1 0
1886 506 7 0.4238 12.91338795523528 7.723448084787223 29.372546934749753 0 0 0
1767 466 6 -0.8476 13.089153514823007 9.026619032400491 34.47061347072486 -1 0 0
856 163 7 0.4238 3.9537960352075436 8.962737132053004 34.24945182048794 0 0 0
936 189 6 -0.8476 -2.0332169060962393 16.713338258649845 33.62097275932443 0 -1 0
1947 526 6 -0.8476 0.32227335952337666 11.016820456187885 32.59323304257987 0 0 0
1501 378 7 0.4238 8.402862893296955 11.120005245147324 30.594133285544846 0 0 0
1321 318 7 0.4238 14.07422329422605 5.284124934162783 31.213604060449704 -1 0 0
1322 318 7 0.4238 15.353925055739115 4.449254183457055 30.682376857221858 -1 0 0
1323 318 6 -0.8476 14.436637024482163 4.361427029096414 31.05956545084848 -1 0 0
857 163 7 0.4238 3.309852219303104 7.989833489316011 33.11915641072233 0 0 0
1873 502 7 0.4238 10.98784076424941 2.5877217340821925 31.796437027053326 0 0 0
1502 378 7 0.4238 8.526351607148104 10.40358149165887 29.266446467713667 0 0 0
1331 321 7 0.4238 10.531567399042105 4.042280491191016 33.144408636211836 0 0 0
319 83 7 0.4238 -1.4647122189093886 5.065470862716812 26.572746213695616 0 0 0
1957 530 7 0.4238 -0.6454119507615076 13.584990154549546 26.62867440549874 0 0 0
1342 325 7 0.4238 9.79343709338578 16.046297225035218 30.218776589765966 -1 0 0
1343 325 7 0.4238 10.364872377859742 14.67619397650391 29.640682115825538 -1 0 0
1344 325 6 -0.8476 9.510178788686625 15.100578748632014 29.965442354644175 -1 0 0
991 208 7 0.4238 1.8389093654623208 7.010036646045788 31.799325105064096 0 0 0
1586 406 7 0.4238 9.552853101815556 9.564902337523385 32.00065402912119 0 0 0
1236 289 6 -0.8476 -1.0363781659051865 3.289080341284449 34.13629590206233 1 0 0
1348 327 7 0.4238 -6.458556232419962 12.642467898275607 32.14461222546908 0 0 0
1349 327 7 0.4238 -6.736023303631278 11.408769644772864 31.054313665304356 1 0 0
1350 327 6 -0.8476 -6.587015685498722 11.629449228616426 32.016128105171575 1 0 0
1354 329 7 0.4238 11.732686979271248 5.444958345509608 27.769637097590486 0 0 0
1355 329 7 0.4238 10.60132063943067 5.097404790373645 26.735834949457807 0 0 0
1356 329 6 -0.8476 10.79864569676046 5.721400800784065 27.511453300869462 0 0 0
1184 272 7 0.4238 12.305441636055436 9.164489495578238 29.031483269988083 0 0 0
1053 228 6 -0.8476 -9.279550518601036 16.959475086242687 34.09365987424393 1 0 0
193 643 3 -1.05 7.175462632356251 15.236976972236267 23.76482555477251 0 0 0
1378 337 7 0.4238 -0.1878275433633812 0.7331536413379471 29.481515916401346 1 1 0
1379 337 7 0.4238 8.611650985521866 18.003896512203298 28.840802958944874 0 0 0
1380 337 6 -0.8476 -11.889801271168356 18.554396057992662 29.6608003880209 1 0 0
1907 513 7 0.4238 -3.5844136999549376 9.84137575130614 30.656100636686727 1 0 0
1041 224 6 -0.8476 -6.224892505289403 14.718435328080464 31.695607688488693 1 0 0
1884 505 6 -0.8476 4.598013467694255 10.40279093141121 33.87641642525279 0 0 0
1279 304 7 0.4238 4.769730059418404 6.580911200647421 34.060771365177196 0 0 0
1412 348 7 0.4238 13.951170927879263 2.46619579187635 27.1118682783853 0 0 0
818 150 7 0.4238 6.279724123151359 16.152312016450292 31.81889011606858 0 0 0
1423 352 7 0.4238 1.6934111335463646 2.7890194865586477 27.098287618349648 0 0 0
1424 352 7 0.4238 2.040351540948525 4.197798258149823 27.440767338604587 0 0 0
1425 352 6 -0.8476 1.4816030283847121 3.7001284854061893 26.76820046654326 0 0 0
1441 358 7 0.4238 9.429343872161883 3.107994965407361 27.635868821546197 0 0 0
1442 358 7 0.4238 9.616540856785118 2.91676326493743 29.170496277047295 0 0 0
1443 358 6 -0.8476 8.878305519437538 3.0630788091026564 28.503926288266992 0 0 0
1453 362 7 0.4238 7.432406871588023 3.021602587028137 29.511387896918446 0 0 0
1454 362 7 0.4238 5.908547957800601 2.4291568538787875 29.762595200378783 0 0 0
1455 362 6 -0.8476 6.649804985024241 2.998574350705549 30.1869136682969 0 0 0
1954 529 7 0.4238 1.0892380244984838 7.301312458016501 28.47198136829907 0 0 0
401 92 7 0.4238 -6.670208878732726 12.083438204164118 25.0161880240256 0 0 0
649 119 7 0.4238 -1.9428192028026396 10.544319483887358 27.814670709677255 0 0 0
1477 370 7 0.4238 1.991778561525626 14.584478218281273 28.124815053743305 0 0 0
1478 370 7 0.4238 1.7740047844568243 15.554711495603211 29.498754128358005 0 0 0
1479 370 6 -0.8476 2.4129139275687526 15.267856903932511 28.73083717771 0 0 0
1486 373 7 0.4238 2.1485033159851805 3.046330162021424 31.855430919891703 0 0 0
1487 373 7 0.4238 1.3347247182172262 2.3546298055549353 33.03733068223566 1 0 0
1488 373 6 -0.8476 2.1735349527971337 2.2474159209921223 32.47270515087631 1 0 0
1332 321 6 -0.8476 10.16731037102078 4.986712763416011 33.18185434659002 0 0 0
858 163 6 -0.8476 3.4650041098031226 8.06958469265685 34.10661732094189 0 0 0
1882 505 7 0.4238 4.092619810846925 11.242548057514425 34.241208672465255 0 0 0
1507 380 7 0.4238 6.7967396223160685 14.326850268251457 27.940267959147103 -1 -1 0
1508 380 7 0.4238 8.23486002243474 14.53059563399121 28.72374096387214 0 -1 0
1509 380 6 -0.8476 7.817476645671186 14.172410539760731 27.87437698005582 0 0 0
1549 394 7 0.4238 4.6950063090996315 2.491663977162471 24.112806112018877 0 0 0
1585 406 7 0.4238 9.984740531487128 10.929710721146622 32.89535706442372 0 0 0
1898 510 7 0.4238 -8.489273043628693 16.986671095970483 31.28736338109706 1 -1 0
1516 383 7 0.4238 14.992384905810662 0.5474045762480901 28.394543983340476 0 1 0
1517 383 7 0.4238 15.164159062120984 2.066030936778058 28.827440529589314 0 1 0
1518 383 6 -0.8476 14.646526636534608 1.464238436432091 28.183484833139804 0 1 0
1519 384 7 0.4238 18.899090567921533 1.7835747150114167 26.96309610416137 -1 0 0
1520 384 7 0.4238 -1.760960362357315 3.3127923884706916 26.566467959957805 0 0 0
1521 384 6 -0.8476 -1.2830987333103419 2.6152229120395196 27.16302055432716 0 0 0
1471 368 7 0.4238 11.446128351875913 6.146543725451667 33.92673859378846 0 0 0
1496 376 7 0.4238 -5.165530384922599 13.751580817338725 34.397062933866195 1 0 0
1472 368 7 0.4238 12.712812363039982 5.562158153413942 34.74207489266631 0 0 0
1051 228 7 0.4238 -8.566525508770809 17.691237650860025 34.016586280547884 1 -1 0
1550 394 7 0.4238 5.554569638197651 3.3503046864350354 25.00492688443424 0 0 0
1551 394 6 -0.8476 5.173495294007819 2.435537601382928 25.000180169471573 0 0 0
1039 224 7 0.4238 -7.1080583226505505 15.052692077228865 31.343843615364403 0 0 0
1928 520 7 0.4238 10.214933981890685 1.1320976254723394 33.18058518555442 0 0 0
1956 529 6 -0.8476 1.339135637474256 7.704963295432334 27.575247260569903 0 0 0
1576 403 7 0.4238 -5.1317655719001225 10.8959470322265 33.78251597290599 1 0 0
1577 403 7 0.4238 -4.266126046867621 9.678335299503493 33.07702166210465 1 0 0
1578 403 6 -0.8476 -4.811558712519902 9.934443081988864 33.89487742981426 1 0 0
569 110 7 0.4238 1.3656669898461213 7.766225643148653 25.792467761114064 0 0 0
1583 405 7 0.4238 -1.340352144960019 6.407157973153662 30.849645753234558 0 0 0
1906 513 7 0.4238 -2.390440761394256 10.09449839535741 31.65076291321558 0 0 0
1238 290 7 0.4238 0.7614178429587409 15.803249922497926 34.406973423307534 0 0 0
1872 501 6 -0.8476 -2.3532639417564196 7.01150074964723 32.38250219837963 0 0 0
1663 432 7 0.4238 3.6379427999657636 17.659628547305022 31.529363756031678 0 0 0
1588 407 7 0.4238 6.673400700904485 4.823227462350579 26.44365589400166 0 0 0
1589 407 7 0.4238 7.371850033048086 4.49373626915521 27.96667901774528 0 0 0
1590 407 6 -0.8476 6.645648404757192 4.9461997057220914 27.468342720242326 0 0 0
1615 416 7 0.4238 6.272150659458386 2.1445243370467666 31.73159521046837 0 0 0
1616 416 7 0.4238 5.949388491027054 1.1469445381119345 33.06782243172822 0 0 0
1617 416 6 -0.8476 6.1689505003060425 2.0952384598910703 32.725678181603364 0 0 0
1624 419 7 0.4238 1.2842791588262337 18.645229268449867 30.79897572667431 0 -1 0
1625 419 7 0.4238 13.4687728212217 0.9494824289381256 29.498884871754672 0 0 0
1626 419 6 -0.8476 12.95502234488707 0.6268428989325118 30.323667667324273 0 0 0
1967 533 7 0.4238 3.289277164193572 2.940171765958215 33.63435046664251 0 0 0
1186 273 7 0.4238 0.05745749693104784 8.310922334327113 34.165644715176825 0 0 0
1883 505 7 0.4238 5.008773130849011 10.624397052381513 32.94633535186447 0 0 0
1651 428 7 0.4238 3.1904062715118298 16.65138866825352 28.392412166019337 0 0 0
1652 428 7 0.4238 3.79760747466365 17.78283431000495 29.35856462607177 0 0 0
1653 428 6 -0.8476 3.445258743635232 17.651187501210906 28.408276410526955 0 0 0
1725 452 6 -0.8476 5.390817065043081 13.795242797471037 34.18638369039646 0 0 0
1664 432 7 0.4238 17.11385697345069 0.007250002799892524 31.269382581625084 0 1 0
1234 289 7 0.4238 -0.4426132816933994 4.031680686768974 34.550447132849484 1 0 0
1675 436 7 0.4238 -4.970634604023162 17.549568823254347 27.93871640668249 0 -1 0
1676 436 7 0.4238 -5.246717929054571 15.932562140949948 28.260914685883623 0 -1 0
1677 436 6 -0.8476 -5.532925713484857 16.882930370793115 28.477009497486232 0 0 0
1699 444 7 0.4238 18.42532193832166 1.7497773489169746 30.977299138446437 0 1 0
1700 444 7 0.4238 17.486645398289987 2.127221630877827 32.32963013620104 0 1 0
1701 444 6 -0.8476 17.933285502228184 1.3816782745296352 31.803505190933066 0 1 0
1717 450 7 0.4238 4.4167179696586185 14.822034691465728 29.231663756284977 -1 -1 0
1718 450 7 0.4238 5.434881500542645 14.690030285328154 30.337071228700026 0 -1 0
1719 450 6 -0.8476 5.368778713538294 14.519473986601113 29.320850041270592 0 0 0
1878 503 6 -0.8476 2.6572359050153045 0.2659055058970117 30.794047410022074 1 0 0
1281 304 6 -0.8476 5.41193154596108 5.887044411172766 33.73064568768769 0 0 0
1955 529 7 0.4238 1.4206061954642029 8.727409716960937 27.63632005021329 0 0 0
1729 454 7 0.4238 12.8659129285804 11.470048300044928 29.043499800380847 -1 0 0
1730 454 7 0.4238 -6.171357295439745 11.541732513504627 28.734164417885125 0 0 0
1731 454 6 -0.8476 -7.0254994236398165 12.099291423922857 28.893255312370943 0 0 0
1503 378 6 -0.8476 7.786138205109591 10.797787668714529 29.854005388299925 0 0 0
485 101 7 0.4238 9.144733381548201 16.905759759796663 26.706642876997783 -1 0 0
1885 506 7 0.4238 13.054484229288633 7.562544239469508 30.955587167377363 -1 0 0
1893 508 6 -0.8476 14.588257447442285 7.315055609765946 27.80672321573704 -1 0 0
1766 466 7 0.4238 13.881573055560512 9.313984135474628 33.92023867913743 -1 0 0
999 210 6 -0.8476 1.1236909130932708 14.956710970513386 31.21133635678021 0 0 0
1771 468 7 0.4238 -0.18586125252100222 2.7443446568855165 30.295787761126803 0 0 0
1772 468 7 0.4238 -0.9089364908827255 2.4999694042821137 28.856339669239144 1 0 0
1773 468 6 -0.8476 -0.8966122642169936 2.184932610113725 29.832809149390265 1 0 0
1780 471 7 0.4238 8.272141546509484 0.298890852598079 25.75522828483321 0 0 0
1781 471 7 0.4238 -5.512740023889375 18.538957688919908 25.841995247956415 0 -1 0
1782 471 6 -0.8476 -4.611003496754829 18.36218199191367 26.267883444059567 0 0 0
1786 473 7 0.4238 17.055421283043042 4.286935015829099 26.42195642689849 0 0 0
1787 473 7 0.4238 16.17299232542355 3.116810287239736 25.7031641097236 0 0 0
1788 473 6 -0.8476 16.50540875572706 3.4222865659433848 26.62074681065472 0 0 0
1317 316 6 -0.8476 2.8253988743538203 10.808007456687163 30.021950851093543 0 0 0
791 141 7 0.4238 -3.1189735994872754 17.4352782815588 26.77398243487592 0 -1 0
1665 432 6 -0.8476 4.349315968323628 17.902786593765544 30.85199294601571 0 0 0
1798 477 7 0.4238 13.835792179889577 4.761784904315594 29.537998491682576 0 0 0
1799 477 7 0.4238 14.22351064141274 5.8246349662665615 28.35303674405358 0 0 0
1800 477 6 -0.8476 13.507163432252412 5.134066791535726 28.661699745745075 0 1 0
1801 478 7 0.4238 -3.200360938742097 8.446223254990262 26.386574503189394 0 0 0
1802 478 7 0.4238 -2.9216210843206145 8.589299293533427 27.929229520280675 0 0 0
1803 478 6 -0.8476 -3.6738639447466017 8.402920649275554 27.27148720278091 0 0 0
1831 488 7 0.4238 -3.9338768269257964 11.145653115477252 27.91203481000663 0 0 0
1832 488 7 0.4238 -4.851501307789315 9.81059478998958 28.004917279479393 0 0 0
1833 488 6 -0.8476 -4.756920620400326 10.744509859376612 28.398745202188454 0 0 0
1834 489 7 0.4238 -2.1948361941572143 15.671137846920802 26.613162213780527 0 0 0
1835 489 7 0.4238 -0.6761071507406827 15.467053805502086 26.108932195572578 0 0 0
1836 489 6 -0.8476 -1.5308115051792208 14.981218353625424 26.276873385800343 0 0 0
1846 493 7 0.4238 -5.793464837396552 17.528266185424076 30.173712349786154 0 0 0
1847 493 7 0.4238 -6.1330813637788335 16.864372451219268 31.561031394301803 1 0 0
1848 493 6 -0.8476 -5.74953403590212 17.68253876383248 31.181015019918622 1 0 0
1870 501 7 0.4238 -1.5836611061102597 7.244940728460499 33.003283940721786 0 0 0
1097 243 7 0.4238 9.926413231039252 7.180883216054314 31.578018932038574 0 0 0
1927 520 7 0.4238 11.255340119618321 2.003090922481116 34.063957564686476 0 0 0
1899 510 6 -0.8476 -8.507703277579136 16.061038107898057 31.6221234585836 1 -1 0
1643 425 7 0.4238 11.152089560263462 0.14085466444682626 30.22387416277288 0 0 0
1723 452 7 0.4238 5.311154913516829 14.407492594481317 33.39176212369142 0 0 0
1869 500 6 -0.8476 7.282836285589913 17.67362770352033 31.805506080229307 0 0 0
1206 279 6 -0.8476 13.790474579920597 6.728507658896816 31.98793568017678 0 0 0
1929 520 6 -0.8476 10.591800256187334 2.060535425811497 33.282414441367585 0 0 0
1644 425 6 -0.8476 -2.06204659164529 18.532926969738973 30.053941904972167 0 0 0
1876 503 7 0.4238 1.6800526185259799 0.09263085746068214 30.61590612264859 0 0 0
993 208 6 -0.8476 1.745509699964937 6.008904779712163 32.09469360529842 0 0 0
1413 348 6 -0.8476 13.380259187011399 3.2474566599922428 26.756126566151067 0 1 0
1185 272 6 -0.8476 11.92447282940656 9.853852022688415 28.369008531786445 0 0 0
1897 510 7 0.4238 -8.815131089488652 16.217305724050018 32.58851384480696 1 -1 0
1871 501 7 0.4238 -2.5461535348441395 7.930510076304277 31.96558904860116 0 0 0
1316 316 7 0.4238 2.7899373825607667 11.57552051074331 30.707677337356365 0 0 0
1791 474 6 -0.8476 2.317414422220208 12.631779272316296 31.715579602824697 0 0 0
1584 405 6 -0.8476 -0.6037790688455177 6.377951459032272 30.152672021447543 0 0 0
903 178 6 -0.8476 -3.2672493238988842 4.901403649210017 31.019053120308445 1 0 0
1280 304 7 0.4238 5.551014121488705 5.934531090842564 32.73698974743153 0 0 0
1239 290 6 -0.8476 0.6541774208974347 16.275102183690446 33.51784408243756 0 0 0
882 171 6 -0.8476 -1.1736976520377596 15.6451167167424 30.05253650333514 1 0 0
1582 405 7 0.4238 -0.4104254712950178 5.422773255229733 29.96587153796843 0 0 0
1926 519 6 -0.8476 13.94889701931874 2.2894175929760965 32.83488470333227 0 1 0
881 171 7 0.4238 -1.3683140957206497 16.602804877411472 29.841204301621467 1 0 0
1204 279 7 0.4238 14.63283030709886 6.793981707105591 32.55793649896388 -1 0 0
1867 500 7 0.4238 6.903195262362135 18.610485782558875 31.72633993933424 0 0 0
1040 224 7 0.4238 -6.38784189107943 14.837044108267511 32.67731930373569 1 0 0
786 139 6 -0.8476 -7.011888791674687 18.61659119469714 34.47622603354136 1 0 0
934 189 7 0.4238 -2.8783333233844615 17.156532013502176 33.275848197073934 0 -1 0
1266 299 6 -0.8476 17.108553107405527 3.4515292643892606 33.18243074690789 -1 0 0
1532 388 7 0.4238 13.249472454050967 1.675464485209857 34.23610548793163 0 0 0
1760 464 7 0.4238 -4.39064231938372 6.648751385762685 34.62984858889192 1 0 0
1265 299 7 0.4238 16.558464936791754 3.7281692545107434 34.009571007922275 -1 0 0
1374 335 6 -0.8476 -2.0592491500647463 14.12440430768834 34.00412007209958 0 0 0
961 198 7 0.4238 7.943547768731205 10.055025254168273 33.45453476199534 0 0 0
1367 333 7 0.4238 1.5436329596034106 17.621969891829462 33.21298532106941 0 -1 0
1366 333 7 0.4238 2.9644605626144584 18.182851661979683 33.71503007904829 0 -1 0
1473 368 6 -0.8476 12.415104152911407 6.355087814162267 34.17052483809508 0 0 0
889 174 7 0.4238 -9.802132379717579 14.893682351890122 34.04591127820409 0 0 0
1306 313 7 0.4238 9.759450311824986 7.567691365697084 34.33796776369453 0 0 0
1373 335 7 0.4238 -1.3853322529847178 14.213924952548595 34.74353213459276 0 0 0
935 189 7 0.4238 -1.8690471554060237 17.554645118309494 34.159560601626715 0 -1 0
962 198 7 0.4238 6.455258850963909 9.925374385405451 34.24004394323235 0 0 0
1727 453 7 0.4238 0.6428470260627269 10.82785071651164 34.278688636304004 0 0 0
27 556 3 -1.05 15.489768303322633 2.9738891149022093 23.723936968849976 0 0 0
1491 374 6 -0.8476 -6.408880317301705 14.737678165957702 34.36097257042784 1 0 0
1220 284 7 0.4238 9.015140046785918 14.400791402467151 34.42002687040667 0 0 0
1495 376 7 0.4238 -3.4937653018651593 13.572252593145299 34.41622017854816 1 0 0
1673 435 7 0.4238 7.856762359890758 4.4522991033281105 34.078394410542074 0 0 0
1497 376 6 -0.8476 -4.39538502919569 13.123039262527953 34.642152421089015 1 0 0
1031 221 7 0.4238 5.2295648999048385 18.249983830842385 34.712197564235915 0 0 0
367 730 3 -1.05 -2.712673008527037 9.119902131733461 23.801299601332776 0 0 0
775 136 7 0.4238 15.847787427362672 3.472266404003293 42.06745041055962 0 0 0
776 136 7 0.4238 15.91974395695404 1.8819418769115335 42.5279970498642 0 0 0
777 136 6 -0.8476 16.214318968927042 2.5467487657844323 41.83389239218099 0 0 0
778 137 7 0.4238 -1.065769380325417 1.2508504174103048 36.962570774637776 0 0 0
779 137 7 0.4238 -1.5070074447112194 2.8431304022365897 37.00353947012366 1 0 0
780 137 6 -0.8476 -1.3056656162889215 2.056753525660191 36.40433839196528 1 0 0
787 140 7 0.4238 14.689533541640818 8.379308635894745 43.05188086071375 -1 0 0
788 140 7 0.4238 13.375323085359364 7.718441111284256 43.60562150581328 0 0 0
789 140 6 -0.8476 13.990220831495169 7.711427588268693 42.80941866199229 0 0 0
1000 211 7 0.4238 15.990064150437185 1.984400462828422 36.4268245260331 0 0 0
1017 216 6 -0.8476 4.139227651888916 0.4939232591594921 38.87460282713904 0 1 0
847 160 7 0.4238 12.342660155981063 0.6994750461597761 40.80080032031024 0 0 0
793 142 7 0.4238 -0.2130482497719597 11.916910073258116 39.03707757357792 0 0 0
794 142 7 0.4238 0.1629552288374651 13.373332486138152 39.11184107312816 0 0 0
795 142 6 -0.8476 0.5637484447370342 12.486652104639637 39.27661551953328 0 0 0
1016 216 7 0.4238 3.797796801454115 1.1609487694756004 39.610297958091266 0 1 0
1784 472 7 0.4238 4.834496540287233 5.922314566369166 37.69352727173362 0 0 0
1681 438 7 0.4238 7.76242813927651 1.3179715667921164 37.29348091672494 0 0 0
1270 301 7 0.4238 7.852434454408389 11.898401500568543 36.66073227145785 0 0 0
1511 381 7 0.4238 -8.591954744490648 13.790504643130285 36.63967088029568 0 0 0
1777 470 7 0.4238 3.2408514371548405 3.6041559827507794 44.099556083228954 0 0 0
811 148 7 0.4238 2.9209945374206128 14.610012386605952 37.40137946924108 0 0 0
812 148 7 0.4238 2.0609625526225828 13.368459105074482 38.125832287818945 0 0 0
813 148 6 -0.8476 2.223215937422919 13.868119481397734 37.24525933804835 0 0 0
814 149 7 0.4238 -10.392746811987346 16.765028930498282 40.48016348974314 0 0 0
815 149 7 0.4238 8.852950320792585 17.052469112680505 39.667123416142374 -1 0 0
816 149 6 -0.8476 -10.80257743276414 17.133764554039697 39.617408098597316 0 0 0
829 154 7 0.4238 -4.998838242752073 8.08912367703524 37.21912234374308 1 0 0
830 154 7 0.4238 14.912933938535204 7.30173623794706 38.44406324907226 0 0 0
831 154 6 -0.8476 15.214007660286077 7.208001453749168 37.46688982148971 0 1 0
835 156 7 0.4238 -4.2980331233399625 10.49439908311374 36.756772385199376 1 0 0
836 156 7 0.4238 -4.6088300641753825 9.312667729717658 35.757132179442024 1 0 0
837 156 6 -0.8476 -4.371479354058246 9.498371510858288 36.724568180753124 1 0 0
859 164 7 0.4238 7.539362428674181 13.438541430350542 45.24273643255314 -1 0 0
845 159 7 0.4238 2.0489579519106633 6.589846292804252 40.52890745655997 0 0 0
846 159 6 -0.8476 1.7607925978698018 7.563030188244273 40.68820572263653 0 0 0
1944 525 6 -0.8476 -0.8838793095586036 12.238531069503411 36.95461869684121 0 0 0
848 160 7 0.4238 12.74674622124814 1.849696996180487 39.729237139739915 0 0 0
849 160 6 -0.8476 12.50013795582642 1.7078059843084656 40.715200444576936 0 1 0
1961 531 7 0.4238 -3.1771340780346846 10.221305908735658 45.19064625371267 0 0 0
1430 354 7 0.4238 13.429871994439374 3.806726695361627 45.022189562432615 -1 0 0
1337 323 7 0.4238 4.061468446348068 13.02579734964894 34.80516423031894 0 0 0
1002 211 6 -0.8476 15.790360059789121 1.2334635005945875 37.13003959244574 0 0 0
1962 531 6 -0.8476 -3.7570825155560783 9.361663694999116 45.2688726903094 0 0 0
1728 453 6 -0.8476 0.8731587232539902 10.768365652887933 35.26017531692433 0 0 0
1932 521 6 -0.8476 -3.3788961451129973 16.596630837594912 41.818449145467085 0 0 0
1015 216 7 0.4238 4.190448398184057 1.0944058838971147 38.03754678339808 0 1 0
1038 223 6 -0.8476 8.855393935980794 13.806024425383745 40.81812569125142 0 0 0
862 165 7 0.4238 12.762234065034571 10.324271856611121 36.15903462697283 0 0 0
863 165 7 0.4238 11.351992500294534 9.510208620710015 36.32269760443351 0 0 0
864 165 6 -0.8476 11.96565258939121 10.178522942276452 36.77490519780015 0 0 0
868 167 7 0.4238 15.281259349371673 0.29179857523064323 38.58621328927641 0 1 0
869 167 7 0.4238 3.1748867786455706 18.115928879856288 39.95616717832453 0 0 0
870 167 6 -0.8476 2.512160425710697 18.430444521018075 39.24184876994373 0 0 0
883 172 7 0.4238 1.0236517709181192 4.187216380704392 37.825709379456896 0 0 0
884 172 7 0.4238 -0.5180874331612731 4.131695699369231 38.45355267797101 0 0 0
885 172 6 -0.8476 0.4659370525994716 4.068628738890454 38.69376732161548 0 1 0
1965 532 6 -0.8476 1.0210797298239185 1.4759879276692014 44.41968724599993 0 1 0
1275 302 6 -0.8476 -7.649505491976031 16.7089244276156 39.21231103209543 1 0 0
1905 512 6 -0.8476 6.688204786530792 15.123303291595022 43.49801609457817 0 0 0
898 177 7 0.4238 9.847355133273483 9.772055681627243 41.86813169171466 0 0 0
899 177 7 0.4238 9.719737628533126 8.666175892754804 40.723093136748076 0 0 0
900 177 6 -0.8476 9.944432966128524 9.646948087585296 40.85250940050092 0 0 0
1302 311 6 -0.8476 4.446392325521363 7.512042008425558 37.365595786995684 0 0 0
973 202 7 0.4238 -2.571316218767089 3.658493669720974 44.85232998008261 0 0 0
844 159 7 0.4238 2.046696647274208 7.732258814717431 41.645756855157 0 0 0
1242 291 6 -0.8476 -0.5249665703291504 15.571652026215387 38.1722565607119 0 -1 0
1115 249 7 0.4238 -4.204529245678371 17.739744597012034 35.90914646608303 1 -1 0
1838 490 7 0.4238 9.596306555408036 6.874455004247549 36.77262189696519 0 0 0
922 185 7 0.4238 6.51556242321111 15.880453712731187 39.95606592364819 0 0 0
923 185 7 0.4238 7.316666099729149 15.591470607862062 38.49436553482119 0 0 0
924 185 6 -0.8476 7.200741133489441 16.256722747766254 39.25590305003093 0 0 0
931 188 7 0.4238 -5.912096460147102 12.721696126483618 39.383985258101774 1 0 0
932 188 7 0.4238 -4.7592554804088065 13.151149684155895 38.23055920407815 1 0 0
933 188 6 -0.8476 -5.56109461700055 13.484277246246888 38.80302143517138 1 0 0
1654 429 7 0.4238 3.2544820166612016 12.457896536477673 45.49752995046022 0 0 0
1682 438 7 0.4238 8.52744934060277 0.4039346832888574 38.34550199321006 0 0 0
1132 255 7 0.4238 1.317711278312714 12.683595193634517 43.73712952640369 0 0 0
1338 323 6 -0.8476 3.2382566886161435 12.497705043868411 35.15454822665279 0 0 0
1301 311 7 0.4238 4.932616875922037 8.30501082093092 36.97647991200638 0 0 0
1839 490 6 -0.8476 9.592892403345171 6.6641886737988365 37.77659780911718 0 0 0
909 180 6 -0.8476 0.1029108691530372 14.47163591622529 35.72415189825758 0 0 0
1135 256 7 0.4238 9.088429922917529 2.722896149288495 40.10076167373269 0 0 0
1106 246 7 0.4238 11.72554396254836 11.899577111641799 37.29576122506835 0 0 0
955 196 7 0.4238 1.480895610627683 9.011075820060235 43.53871443382582 0 0 0
956 196 7 0.4238 1.4374660239540211 7.425257218893764 43.65279388124413 0 0 0
957 196 6 -0.8476 2.066307962653244 8.18554480529235 43.31698530857665 0 0 0
1756 463 7 0.4238 14.605979163313679 -0.008219028053606046 44.14982325481563 0 0 0
940 191 7 0.4238 3.1704362044024674 9.616631876450835 37.976187548891104 0 0 0
1336 323 7 0.4238 2.9849429473188978 12.991334757084658 36.01484241374521 0 0 0
964 199 7 0.4238 3.512980502005477 16.83243680888417 41.93157591917431 0 0 0
965 199 7 0.4238 3.279614458327589 18.43703288845442 42.243951810196414 0 0 0
966 199 6 -0.8476 3.619511660119864 17.752992293230125 41.544937985018336 0 0 0
967 200 7 0.4238 -8.800014483116241 14.513799746590504 41.31269191704416 0 -1 0
968 200 7 0.4238 -8.381268110037443 15.932213891690354 40.76080305556879 1 -1 0
969 200 6 -0.8476 -8.687468159409796 15.469449657451293 41.61935383953689 1 0 0
947 193 7 0.4238 4.626118581913496 16.296550467319676 45.759506285069854 0 0 0
1785 472 6 -0.8476 4.849394183655418 4.869230926961023 37.73036447851436 0 0 0
1770 467 6 -0.8476 3.8416303698407104 4.9476633446661324 45.161761614890565 0 0 0
976 203 7 0.4238 8.154887242746343 5.664350067906236 40.20090438570422 0 0 0
977 203 7 0.4238 9.141862532940612 5.843824761210191 41.532244808939566 0 0 0
978 203 6 -0.8476 8.186885068917094 6.0191238914470615 41.17533405843451 0 0 0
1137 256 6 -0.8476 8.17511881525205 2.3888466528144523 39.76620731516689 0 0 0
1117 250 7 0.4238 9.742667946213558 16.07319179413194 43.818066075839546 -1 0 0
1114 249 7 0.4238 -5.188195819777543 16.75549997802529 36.59315850551669 0 -1 0
1307 313 7 0.4238 8.534342613801094 7.950912146357219 35.1461354667188 0 0 0
1261 298 7 0.4238 6.661457595698679 17.469400708739585 37.79362785074102 0 0 0
1235 289 7 0.4238 -1.0193746159763348 2.5248212673921326 34.800182515515054 1 0 0
1012 215 7 0.4238 -0.34959806342690575 1.5285799733881722 41.39050658318912 1 1 0
1013 215 7 0.4238 -12.089886769589183 18.58843168123624 41.65992374138765 1 0 0
1014 215 6 -0.8476 0.4587889860009844 0.8815273211712752 41.43976492029657 1 1 0
1546 393 7 0.4238 11.582683633046127 9.394634544861747 40.095194231660386 0 0 0
1850 494 7 0.4238 -5.313276531141793 12.370953098796482 43.81293876125131 1 0 0
1628 420 7 0.4238 11.047207715347147 2.5741914799440924 41.608802312112076 0 1 0
1021 218 7 0.4238 -1.884124210107698 11.64225771770431 43.92929602480064 0 0 0
1022 218 7 0.4238 -2.722225307871027 12.745417892895682 44.8792727076874 0 0 0
1023 218 6 -0.8476 -2.340507777119571 11.812042256826608 44.82887941064029 0 0 0
1274 302 7 0.4238 -8.100010685037004 17.64067441920583 39.235593009934604 1 0 0
1308 313 6 -0.8476 9.44043728689282 7.554218799617846 35.285242545151306 0 0 0
1671 434 6 -0.8476 12.043838851272028 10.679994386134606 45.643755651333194 0 0 0
913 182 7 0.4238 12.846424725737352 9.016944579918528 45.74696881982108 -1 0 0
1282 305 7 0.4238 11.143512427566945 0.5922111643998952 35.43167785259293 0 0 0
1127 253 7 0.4238 11.620052673343903 2.9963823135137853 44.37577994205516 0 0 0
1072 235 7 0.4238 2.5807908913485553 14.573614852036911 45.51707349551538 0 0 0
1531 388 7 0.4238 13.163559063701326 1.343586409236442 35.830991445997334 0 0 0
1074 235 6 -0.8476 2.9496374810286974 15.432482270046002 45.19403045319057 0 0 0
1004 212 7 0.4238 4.072545439894825 12.649149366254417 42.88894193929473 0 0 0
1574 402 7 0.4238 4.072639516578858 7.859377609034358 43.99026344964005 0 0 0
1783 472 7 0.4238 3.9511468755842403 4.666431733805669 37.26374680799541 0 0 0
1087 240 7 0.4238 7.2838102902937605 0.8961116082798598 45.02858805433618 0 0 0
1088 240 7 0.4238 6.35875966294968 1.6936751703064996 44.0462959807356 0 0 0
1089 240 6 -0.8476 6.77292996715104 1.7897231893309613 45.00248691124514 0 0 0
1090 241 7 0.4238 -6.800922756387773 17.536170978109993 42.10104994293324 0 0 0
1091 241 7 0.4238 -6.7989313625813805 16.335422157140098 43.18314929278171 1 0 0
1092 241 6 -0.8476 -6.287765722767063 17.09176380176462 42.79969566720433 1 0 0
1594 409 7 0.4238 8.522876206541188 18.006518371794655 35.06989048896046 0 -1 0
1683 438 6 -0.8476 8.624750550756408 0.7912250618246964 37.43881668956242 0 0 0
1036 223 7 0.4238 8.03674491075843 13.463386070087536 40.276424629176255 0 0 0
1102 245 7 0.4238 7.725478565989838 10.947399206548928 43.24286801388588 0 0 0
1189 274 7 0.4238 14.541790584245605 5.67982765337231 37.25437144050467 -1 0 0
1104 245 6 -0.8476 6.7606876853668245 10.981648722493324 43.51847864841047 0 0 0
1105 246 7 0.4238 11.19414764801892 12.613641220638431 38.72917562296062 -1 0 0
1111 248 7 0.4238 0.29425036476015504 5.480950822987008 44.746153737782954 0 0 0
1107 246 6 -0.8476 11.2539104305561 12.699810705464294 37.72018329839537 0 0 0
1001 211 7 0.4238 16.353088652626987 1.5124964683024322 37.94470721704705 0 0 0
1357 330 7 0.4238 -0.45973446782318905 18.029400715585563 36.853711126136574 0 0 0
1397 343 7 0.4238 8.167937713183052 9.585586778547778 37.4474379048885 0 0 0
1113 248 6 -0.8476 0.5233181892465927 6.145438924076687 44.01176349983845 0 0 0
1118 250 7 0.4238 -9.523084057820045 16.018832505831924 43.12411184270409 1 0 0
1119 250 6 -0.8476 -9.985102049651227 15.857543255975958 44.008858160466076 1 0 0
1769 467 7 0.4238 4.240500914900657 5.839434463255486 44.88503485263445 0 0 0
1837 490 7 0.4238 9.165583670229212 7.481957220168413 38.19382186838709 0 0 0
1640 424 7 0.4238 0.2846946161982868 17.78354091523593 45.28152484506585 0 0 0
1533 388 6 -0.8476 12.613383814300345 1.4680417733919073 35.0025223704009 0 0 0
911 181 7 0.4238 -5.012693549963364 17.74914920240314 43.73796231787305 0 -1 0
1757 463 7 0.4238 15.612156536022896 1.2608033914865608 44.46560935745337 0 0 0
1144 259 7 0.4238 -4.477547184836284 10.568133349748395 42.23521907212264 0 0 0
1145 259 7 0.4238 -3.9547482566817314 9.316208169938523 41.224913895953115 0 0 0
1146 259 6 -0.8476 -4.2480226666878025 9.58473724005595 42.19458872223841 0 0 0
1150 261 7 0.4238 8.318441683739351 8.952328278186675 43.492133999562085 0 0 0
1151 261 7 0.4238 9.862486275468639 9.159722094122364 43.948592209254485 0 0 0
1152 261 6 -0.8476 9.118368163692232 9.60226081916966 43.420541187097776 0 0 0
1153 262 7 0.4238 -2.5816105280195267 8.329721283420941 39.296268303647906 0 0 0
1154 262 7 0.4238 -3.9475571729873997 8.931533934811984 38.82841465001515 1 0 0
1155 262 6 -0.8476 -3.4087775198797434 8.775966166119137 39.69089540493653 1 0 0
1156 263 7 0.4238 -7.131895462026341 10.89690697042772 40.251457347638286 1 0 0
1157 263 7 0.4238 -7.864217224155183 12.257762773738285 40.70053570869882 1 0 0
1158 263 6 -0.8476 -6.952856538160119 11.768392936962059 40.71249286048142 1 0 0
1345 326 7 0.4238 3.490516913210651 2.3506844861184364 35.599071423484816 0 0 0
1840 491 7 0.4238 -10.211995873741992 18.60363821049467 45.138515779656736 0 0 0
1161 264 6 -0.8476 -5.791988066596789 13.511369472281798 44.953780444305494 0 0 0
1819 484 7 0.4238 12.235880790283911 7.216837158264106 44.74993486005548 0 0 0
1241 291 7 0.4238 0.1554323171721868 16.297518859433676 38.27672556677025 0 -1 0
1415 349 7 0.4238 11.347102897769508 5.581116562483227 41.29069655678051 0 0 0
1751 461 7 0.4238 -9.39539333607389 17.570431862036752 36.61279731471472 1 -1 0
907 180 7 0.4238 1.0455670534601886 14.170017199355069 35.91180623290929 0 0 0
1568 400 7 0.4238 8.87193460168842 5.133367999979954 45.362080149819754 0 1 0
1171 268 7 0.4238 13.234258899833254 5.998523328625118 40.097671853799746 -1 0 0
1172 268 7 0.4238 12.734315958024636 4.59985371785378 39.44516961285303 -1 0 0
1173 268 6 -0.8476 12.639059870264463 5.1638924938512245 40.29486924424492 -1 0 0
1201 278 7 0.4238 -1.505721330314117 2.7004598475585584 43.07915413920607 0 0 0
1037 223 7 0.4238 8.697111790014358 14.812485500762007 40.78126987476041 0 0 0
1510 381 7 0.4238 -8.759479134179088 15.411479794070036 36.1946396254285 0 0 0
1365 332 6 -0.8476 18.123928006296296 0.13058584409466933 44.04520518324582 0 0 0
1849 494 7 0.4238 -6.018046601359257 12.102477758336185 42.407924892780464 1 0 0
975 202 6 -0.8476 -1.6989676076801272 3.107518921619144 44.958186083408 0 0 0
1291 308 7 0.4238 8.652910092492958 3.6046222714971314 36.08291090310219 0 1 0
1229 287 7 0.4238 0.5481525145962762 5.282463086597439 40.99647859219951 0 0 0
1230 287 6 -0.8476 -0.23586078692777332 5.079547248642724 41.595461039586986 0 0 0
1192 275 7 0.4238 -1.0019655772587557 5.918545086485996 35.40803087500651 1 1 0
1190 274 7 0.4238 13.076226530466325 4.886285191161255 37.084865191499844 0 0 0
1112 248 7 0.4238 0.09153382640571174 5.694386865573879 43.167529819645864 0 0 0
1580 404 7 0.4238 9.897313231603064 13.197374773911994 45.224038291559815 0 0 0
1938 523 6 -0.8476 4.817795978694577 14.829263593789577 39.685531130781726 0 0 0
1592 408 7 0.4238 -3.578001011233288 16.945771808123027 38.777820642116026 1 0 0
1249 294 7 0.4238 5.845883565926557 2.9546219704630694 41.88612360616567 0 0 0
1250 294 7 0.4238 5.935431071830885 1.268455161056816 41.80142061772284 0 0 0
1251 294 6 -0.8476 5.843872308206996 2.0840120108014677 42.441063630105084 0 1 0
1252 295 7 0.4238 6.581590947389835 4.884636721141347 38.20280894198817 0 0 0
1253 295 7 0.4238 8.121487298168029 5.145653196609748 37.99633554561946 0 0 0
1254 295 6 -0.8476 7.45705216218931 5.022234380046333 38.72776009907524 0 0 0
1160 264 7 0.4238 -5.7223516024808605 14.524677358666558 45.14676940698786 0 0 0
1262 298 7 0.4238 6.284587809248353 17.331924095398282 36.24086091896852 0 0 0
1263 298 6 -0.8476 6.031199643920118 17.844358724848995 37.07978622429567 0 0 0
1136 256 7 0.4238 7.79236807557621 3.1803338427809313 39.29429771356259 0 0 0
1942 525 7 0.4238 -0.6335163653970015 13.158114971936367 36.62001849500527 0 0 0
1726 453 7 0.4238 1.8531258255177885 11.071028058131922 35.22500827220811 0 0 0
1126 253 7 0.4238 10.427870716458596 3.979621428415629 44.87199297862784 0 0 0
1641 424 6 -0.8476 1.1600779849224911 18.329007435963945 45.17387374777513 0 0 0
1943 525 7 0.4238 -0.18865508474183623 11.691321219857592 36.46061942924052 0 0 0
1930 521 7 0.4238 -3.704441044247955 15.63455850538318 41.65317869462544 0 0 0
1409 347 7 0.4238 9.21358496144022 13.47454504709 37.70437809180696 0 -1 0
1240 291 7 0.4238 -1.383042406421466 16.01293716716757 38.525119324157224 0 -1 0
1309 314 7 0.4238 7.342061391981722 16.48910994782661 42.588087272808664 0 0 0
1310 314 7 0.4238 7.073578787762273 18.067479818788016 42.883012619360436 0 0 0
1311 314 6 -0.8476 7.611581554520929 17.439812275653466 42.2830376387826 0 0 0
1573 402 7 0.4238 4.325991361113437 8.421510337807367 45.51353764901053 0 0 0
1191 274 6 -0.8476 14.085629971104987 4.868422021375459 36.81428921683418 0 0 0
1226 286 7 0.4238 7.4331346958864595 16.11646206573309 34.76839264715689 0 -1 0
1324 319 7 0.4238 -0.41704546815829074 8.426794084820608 36.48849203660119 0 0 0
1325 319 7 0.4238 -0.7068524780460943 7.7981372728756515 37.971731571346375 0 0 0
1326 319 6 -0.8476 -1.1251321054685197 7.97063192388798 37.05592994209466 0 0 0
1333 322 7 0.4238 -1.003429093379806 8.927439199136943 40.61757538554726 1 0 0
1334 322 7 0.4238 -1.1177456093833278 10.464252079707487 40.51666425017066 1 0 0
1335 322 6 -0.8476 -0.744138114425471 9.759535036142767 41.11614388857705 1 0 0
1489 374 7 0.4238 -7.2946191892770775 14.702044006524755 34.91765722784912 0 0 0
1363 332 7 0.4238 18.05698581993522 0.9784990171279025 44.5565373450053 -1 0 0
1293 308 6 -0.8476 9.49182858184843 3.2733764966073906 36.5410703043493 0 1 0
1467 366 6 -0.8476 6.519407046861666 2.5263495741940405 36.88340569391143 1 1 0
1564 399 7 0.4238 2.7719917785230717 4.426907293894431 35.5768243386751 0 0 0
1737 456 6 -0.8476 16.652766971299467 4.346484302060919 44.34492876639865 -1 0 0
1347 326 6 -0.8476 3.4423927635851923 1.5152382407603509 36.15517347064324 0 1 0
1358 330 7 0.4238 0.7660349222671704 18.636699397788632 37.76104301350491 0 0 0
912 181 6 -0.8476 -4.337705883651207 17.961626640709618 44.48031613637812 0 0 0
1364 332 7 0.4238 4.9104452805670125 18.58064767517838 43.81335026690179 0 -1 0
1565 399 7 0.4238 1.2039179906916482 4.850947420144282 35.93379570857261 0 0 0
1820 484 7 0.4238 10.844983968451281 6.601975145906966 44.96040713413317 0 0 0
1272 301 6 -0.8476 7.203476003123875 11.122260749194627 36.64438668153689 0 0 0
785 139 7 0.4238 4.841350765725682 0.5014927819910286 35.24181154166861 1 1 0
1371 334 6 -0.8476 -2.224645599221414 4.159013997666068 37.77246336830329 1 0 0
1005 212 6 -0.8476 5.010452528363901 13.020444934521466 42.96472438383617 0 0 0
1512 381 6 -0.8476 -8.255068226626818 14.514438096181431 36.03179736903217 0 0 0
1030 221 7 0.4238 4.412023857416395 18.507701651663137 36.08571780156191 0 0 0
1396 343 7 0.4238 8.91017331316047 9.565477434380746 38.92694069137596 0 0 0
1841 491 7 0.4238 -9.62999283148618 17.114304174527014 45.28509384790437 0 0 0
1398 343 6 -0.8476 8.601663820169902 8.992034551412528 38.15779039735755 0 0 0
1402 345 7 0.4238 -6.142027864292953 16.36336857419653 38.49146227215651 0 -1 0
1116 249 6 -0.8476 -4.936159431342903 17.097398988556577 35.677456657079 1 -1 0
1404 345 6 -0.8476 -5.163133733965033 16.08095227656723 38.38662215719342 0 0 0
1416 349 6 -0.8476 10.489584495609739 5.599878061117403 41.829148685573294 0 1 0
1359 330 6 -0.8476 0.4891910676301951 17.88397912839838 37.16230136681685 0 0 0
1558 397 7 0.4238 1.1523120568665577 1.5671292194188753 38.03757252065843 0 0 0
1420 351 7 0.4238 2.2627798958349623 1.30772497875983 40.930910232053435 0 1 0
1421 351 7 0.4238 3.2277582274536476 2.3640263097966097 41.605012179461866 1 1 0
1422 351 6 -0.8476 3.0864818003057177 1.900253780789629 40.71840884743803 1 1 0
915 182 6 -0.8476 13.303465140505258 8.100186312839217 45.62278434036969 -1 0 0
1895 509 7 0.4238 -2.3427094382770735 14.954166596611897 42.71005225857386 0 0 0
1896 509 6 -0.8476 -1.4843751463153116 14.553259947144516 43.10114561304584 0 0 0
1450 361 7 0.4238 20.00194803555274 0.556147947563745 40.08473354942263 0 0 0
1451 361 7 0.4238 6.661247918641037 18.10010617263518 40.01846488113921 0 -1 0
1452 361 6 -0.8476 19.04090361059857 0.4080356687837988 39.849285549593816 0 1 0
1459 364 7 0.4238 1.8770478509499355 10.219393588005332 40.76384268538812 0 0 0
1460 364 7 0.4238 1.9768684520013744 11.522653667126736 39.88748957394593 0 0 0
1461 364 6 -0.8476 2.465925460796812 11.041252489280396 40.58639218817389 0 0 0
941 191 7 0.4238 2.4452109978351553 8.710455782799142 39.039059378097356 0 0 0
1003 212 7 0.4238 5.578444888272258 12.248401994620291 43.306083370362245 0 0 0
1937 523 7 0.4238 4.407688756467607 15.315905717323336 38.87744471988251 0 0 0
1964 532 7 0.4238 0.3151656652309053 1.4067217598779644 43.73005721819375 0 1 0
1328 320 7 0.4238 1.3672746438919763 8.825495136170959 36.37579310699872 0 0 0
1903 512 7 0.4238 6.05590841754832 14.337775733197544 43.263868982866 0 0 0
1566 399 6 -0.8476 2.067731612892903 4.448512592579237 36.3379757241221 0 0 0
1439 357 7 0.4238 13.66804140796474 1.9136315294344 43.57282891258775 0 0 0
948 193 6 -0.8476 5.641456247940941 16.320462183675797 45.599039204382144 0 0 0
1911 514 6 -0.8476 11.429132439847333 4.777647949033364 37.18354633315367 0 0 0
908 180 7 0.4238 -0.12645882193314065 14.885084471168641 36.638558445054144 0 0 0
1383 338 6 -0.8476 14.569341927181572 4.722460055718655 42.44775753513853 0 1 0
1513 382 7 0.4238 13.312955606066073 3.139468713366254 37.40346103325922 0 1 0
1514 382 7 0.4238 13.981581870468874 1.8001636852190548 37.57840214256525 0 1 0
1515 382 6 -0.8476 13.111714805900926 2.2685629286203923 37.86135453729893 0 1 0
1525 386 7 0.4238 5.940364204399258 10.316484762253195 41.19957484552319 0 0 0
1526 386 7 0.4238 4.458737254849103 10.848639314952568 41.06386626041929 0 0 0
1527 386 6 -0.8476 5.362462091503554 10.867339766242072 40.549463498555504 0 0 0
1528 387 7 0.4238 5.668950688251019 4.274098156830611 39.96745997433911 0 0 0
1529 387 7 0.4238 6.387311831241216 5.094546180926171 41.150942656654 0 0 0
1530 387 6 -0.8476 5.674016664518519 4.409887895573912 40.956266358070856 0 0 0
1543 392 7 0.4238 6.263452598665321 12.227713750167231 40.04033547080642 0 0 0
1544 392 7 0.4238 5.894280019972803 13.719524300304608 39.416719769575536 0 0 0
1545 392 6 -0.8476 6.6474384480669615 13.000860666435985 39.505340821692215 0 0 0
860 164 7 0.4238 8.201565193759986 13.647199901715313 43.77451983691782 0 0 0
1547 393 7 0.4238 12.176416949778552 9.463620595247468 38.58887309856668 0 0 0
1548 393 6 -0.8476 12.44217549761379 9.378755017668151 39.561668488198364 0 0 0
1552 395 7 0.4238 2.3877440918508364 13.245865002603493 41.3140675956873 0 0 0
1553 395 7 0.4238 1.9667536837558726 14.85662004132468 41.6326250314716 0 0 0
1554 395 6 -0.8476 2.6307821168448804 14.219725170208235 41.21214901292739 0 0 0
1466 366 7 0.4238 6.750791570566015 3.0531915917212844 36.02403548708847 1 0 0
1465 366 7 0.4238 5.689837709114968 2.9642849881995037 37.28956933157824 0 0 0
1560 397 6 -0.8476 0.9491889506236364 0.5962900799780919 37.906634691868156 1 0 0
1203 278 6 -0.8476 -1.6293010280687554 2.4349814473351645 42.11030640322229 1 1 0
1828 487 7 0.4238 -1.3233341310263436 17.33188412433034 41.697396762915034 0 0 0
1572 401 6 -0.8476 0.35280706149481017 10.158433123049077 43.82021287780264 0 0 0
1750 461 7 0.4238 -9.983752399271493 16.826593777968743 37.97956825960491 0 -1 0
1134 255 6 -0.8476 2.265055140698017 12.372348921450477 43.76122457909438 0 0 0
1329 320 6 -0.8476 1.2480941477322476 8.156199706632254 35.60836020365132 0 0 0
1300 311 7 0.4238 3.5246911977701374 7.887274352666781 37.65752862657698 0 0 0
1752 461 6 -0.8476 -9.323051115328658 16.74687436366564 37.18221823392846 1 0 0
1559 397 7 0.4238 1.4448784182388623 0.021499999497582883 38.58911709615036 1 0 0
1591 408 7 0.4238 -2.6182464029752137 17.12648390785724 40.123307366081875 1 0 0
861 164 6 -0.8476 8.327959409106844 13.155443710011888 44.6461398015694 0 0 0
1593 408 6 -0.8476 -2.6079377033717033 16.876544931639618 39.13054269375583 1 0 0
1674 435 6 -0.8476 7.345673769019585 4.177809738051632 34.888978588357844 0 0 0
1595 409 7 0.4238 -11.228667513787887 18.557707998980906 36.17041758312317 1 -1 0
1596 409 6 -0.8476 -11.257420594568966 18.42216397061741 35.18516616651445 1 -1 0
1600 411 7 0.4238 -2.378442776565239 6.966034576036847 36.315039653158024 1 0 0
1601 411 7 0.4238 -3.9382459431224883 6.539605574890886 36.72560315210971 1 0 0
1602 411 6 -0.8476 -3.0737784926282945 6.189983761121581 36.29029800690212 1 0 0
1603 412 7 0.4238 2.80508205504023 16.65611423771875 37.443432659782495 -1 0 0
1604 412 7 0.4238 4.366251907210594 16.89259999267673 37.44820279136403 0 0 0
1605 412 6 -0.8476 3.6580475085019493 16.1485213728641 37.52818928597846 0 0 0
1403 345 7 0.4238 -5.121583448104942 15.091970993251387 38.514141135923666 0 -1 0
1133 255 7 0.4238 2.150589404016516 11.378660901642439 43.727044388528725 0 0 0
1431 354 6 -0.8476 14.063681442981897 4.155541993851154 45.738341582026194 -1 0 0
1630 421 7 0.4238 0.39755445966207836 15.55125121836286 43.32026842077046 0 0 0
1631 421 7 0.4238 1.0575592420221958 16.772744880298692 42.65542142330907 0 0 0
1632 421 6 -0.8476 1.3077657205013271 15.920147304078776 43.15282825408622 0 0 0
1629 420 6 -0.8476 10.147688252272838 3.0114426237353187 41.78439927577653 0 1 0
1758 463 6 -0.8476 15.37297118578335 0.5616925165756486 43.73075729310412 0 0 0
1960 531 7 0.4238 -4.128569079888454 9.240974393514811 44.30701676469213 0 0 0
1936 523 7 0.4238 3.9742655894950225 14.523518571815968 40.185807209009525 0 0 0
1910 514 7 0.4238 10.699904531970942 5.431156620411835 37.49225209586181 0 0 0
1271 301 7 0.4238 7.412840761990745 10.583441063446605 35.797336919866034 0 0 0
1414 349 7 0.4238 10.881921650582674 6.138478034732253 42.60248612023652 0 0 0
1963 532 7 0.4238 1.7455577412376997 1.8604628068058076 43.842102137724666 0 1 0
1865 499 7 0.4238 -3.3072459074277307 7.746872406327484 45.640936733149324 0 0 0
1657 430 7 0.4238 9.995550306277472 1.3885131409686013 43.038526678325624 0 0 0
1658 430 7 0.4238 10.872365755329108 0.9199949351149265 44.309576572855306 0 0 0
1659 430 6 -0.8476 10.25226384090968 0.5943404161377961 43.628749681915764 0 1 0
1660 431 7 0.4238 3.039744249789469 4.565105414912527 40.31934162731335 0 0 0
1661 431 7 0.4238 1.6696546261330791 4.539495980859662 39.57450811450349 1 0 0
1662 431 6 -0.8476 2.1995455586003363 5.139886733753346 40.21640460172007 1 1 0
1570 401 7 0.4238 -0.2694056109921923 9.986188527318212 43.04613553306906 0 0 0
1370 334 7 0.4238 17.771301617386122 3.506599069019503 38.11939330333138 0 0 0
1438 357 7 0.4238 12.734119613183422 2.077028608387447 42.26483959962107 0 0 0
1821 484 6 -0.8476 11.452491845162186 6.899267415843005 44.18878917842024 0 0 0
942 191 6 -0.8476 2.3589370501693097 8.975171317984675 38.07968198496761 0 0 0
1904 512 7 0.4238 6.231459164472339 15.621740310479126 44.286546758658716 0 0 0
1684 439 7 0.4238 5.253553701774253 10.817497346399033 37.3857349698999 0 0 0
1685 439 7 0.4238 4.920250067940915 10.441358932714428 38.8253421689337 0 0 0
1686 439 6 -0.8476 4.504364627317737 10.39051892710213 37.88642665985457 0 0 0
1687 440 7 0.4238 13.436951556153854 8.19888645103591 39.92532075956173 0 0 0
1688 440 7 0.4238 14.023751204218247 7.460978505162276 41.18153693858209 0 0 0
1689 440 6 -0.8476 13.979870232468496 7.335981945708279 40.149637839175625 0 1 0
1690 441 7 0.4238 5.934585299219361 0.17972651891736086 39.937684855869996 0 0 0
1691 441 7 0.4238 7.259270023426424 1.0520859610471303 40.35217675747642 0 0 0
1692 441 6 -0.8476 6.718896264123938 0.2131490497285414 40.592324905457495 0 1 0
1194 275 6 -0.8476 -0.013195403353502555 5.715001117211798 35.270149893232315 1 1 0
1408 347 7 0.4238 7.625890253087481 13.210186542268008 38.01294262043694 0 -1 0
1381 338 7 0.4238 13.853811891639182 4.352592164367705 41.86035339220935 0 1 0
1702 445 7 0.4238 6.432752949478925 7.431933615387772 43.797602650303126 0 0 0
1703 445 7 0.4238 7.518239661572063 7.0026114556174175 42.69363350189076 0 0 0
1704 445 6 -0.8476 7.358724279354992 7.655537209116662 43.46025030189603 0 0 0
1382 338 7 0.4238 14.27621848165627 5.6391488808415495 42.749341535853645 0 1 0
1931 521 7 0.4238 -4.2342354348045665 17.131042972911526 41.656597236259366 0 0 0
1283 305 7 0.4238 9.754490864746078 0.17988161292833332 36.331078290361795 0 0 0
1708 447 7 0.4238 -4.586221960611328 13.861424551691583 40.47551683526049 0 0 0
1909 514 7 0.4238 10.843571163118225 3.982094758875607 36.85815821196757 0 0 0
1710 447 6 -0.8476 -4.1777557710406485 13.941465614311923 41.37298267710571 0 0 0
1866 499 6 -0.8476 -3.0701228436216588 6.759868580543731 45.71220090604866 0 0 0
1735 456 7 0.4238 15.808856100215475 4.588308275178444 43.8370179377662 -1 0 0
796 143 7 0.4238 7.936895213597298 4.052845732082965 43.29202755329527 0 0 0
1103 245 7 0.4238 6.702932557829527 10.47010477639199 44.409036246593445 0 0 0
1410 347 6 -0.8476 8.292258567160774 13.557627888090897 37.33406007856403 0 0 0
1273 302 7 0.4238 -7.8945945340737715 16.486998441989066 38.23586030850631 1 0 0
1202 278 7 0.4238 18.069224871934676 2.4221699050383254 41.91689339530992 0 0 0
1221 284 6 -0.8476 8.119291245833702 14.63355886927631 34.91313957386957 0 0 0
784 139 7 0.4238 -6.112019772566299 18.216091343347284 34.77830108713948 0 0 0
1709 447 7 0.4238 -4.408427709287552 13.125867751029693 41.924071507063964 0 0 0
1369 334 7 0.4238 -2.7165366069650303 4.870779314636606 37.222995641524655 0 0 0
1894 509 7 0.4238 -1.732889292942525 14.636274043717304 44.08457722686507 0 0 0
1571 401 7 0.4238 -0.09004909482351536 9.666141023995394 44.58152061008799 0 0 0
1778 470 7 0.4238 2.546475548789381 4.289209421870758 42.89017124488462 0 0 0
1779 470 6 -0.8476 2.8167172736345902 3.3830210847989037 43.22298843990736 0 0 0
1599 410 6 -0.8476 -0.5229249072397487 8.285502474318308 45.67196819308081 0 0 0
1829 487 7 0.4238 -0.8871247441057216 18.472024347580096 42.670798195096665 0 0 0
1627 420 7 0.4238 10.29466999860346 3.995935033504728 42.04909955075971 0 1 0
1810 481 7 0.4238 0.19346375552059333 7.433720776300841 40.33529443380457 0 0 0
1811 481 7 0.4238 -1.2587467565338308 6.600560525368301 40.39128804429469 1 0 0
1812 481 6 -0.8476 -0.776257901598971 7.4033982147631106 39.97302577640634 1 0 0
1813 482 7 0.4238 17.93346191583642 1.4468211556448927 39.395791962467506 0 1 0
1814 482 7 0.4238 16.8493900098732 2.30804775894595 40.043009203827225 0 1 0
1815 482 6 -0.8476 17.23797665148203 2.141963090213218 39.142271377571284 0 1 0
1816 483 7 0.4238 -2.841249518351365 12.189665319841783 37.095250734081155 0 0 0
1817 483 7 0.4238 -4.137737683301275 12.722442742414055 36.25496046093299 0 0 0
1818 483 6 -0.8476 -3.869625863414029 12.201434558779638 37.096585331495305 0 0 0
1830 487 6 -0.8476 -0.49429092713205464 17.736225775425112 42.06879388967985 0 0 0
1851 494 6 -0.8476 -5.103323073993127 12.060255433071204 42.85320238886869 1 0 0
1073 235 7 0.4238 2.4846715510811648 15.682566797495138 44.28098946906541 0 0 0
1825 486 7 0.4238 10.689805659533565 11.263948852102809 40.64346717869004 -1 0 0
1826 486 7 0.4238 10.105711424203458 12.854908683120318 40.67785394022796 0 0 0
1827 486 6 -0.8476 10.933009221210616 12.251808486520689 40.57211264554923 0 0 0
1346 326 7 0.4238 2.6628281233728854 0.9963377531097314 35.788286522820655 0 0 0
1228 287 7 0.4238 -0.7693520551158763 4.264001149534134 41.221518739865985 0 0 0
1575 402 6 -0.8476 4.741790634285056 7.9018129695547294 44.75338749423219 0 0 0
798 143 6 -0.8476 7.936675838765871 4.125661071488327 44.28392896973796 0 1 0
1128 253 6 -0.8476 10.922994101858011 3.133093436674469 45.11024116566302 0 1 0
1949 527 7 0.4238 15.23689534184281 4.043478575838708 35.905372417709565 0 0 0
1736 456 7 0.4238 -3.6544303768683553 5.228998251387272 44.642385338865246 0 0 0
797 143 7 0.4238 7.406162192926978 3.3070178538370048 44.53946791479211 0 0 0
1327 320 7 0.4238 2.1374319035949845 8.13327575005365 35.087054189023206 0 0 0
1440 357 6 -0.8476 12.808635418644807 2.347728427601508 43.26317968183134 0 0 0
1292 308 7 0.4238 9.111122099681536 2.5303918144100517 37.07295163389987 0 1 0
910 181 7 0.4238 -3.463332418663429 18.265826297553097 44.03295603785164 0 -1 0
1219 284 7 0.4238 8.16721264219789 14.23043174893694 35.82184590252644 0 0 0
1284 305 6 -0.8476 -1.8735797799905045 18.641754953384297 35.56066679933867 0 -1 0
1950 527 6 -0.8476 15.77352797806308 3.268769589166267 35.46253399202123 0 0 0
1193 275 7 0.4238 0.411078802362304 6.657629415533942 35.29808552083453 1 1 0
1597 410 7 0.4238 -0.38101630416029797 7.446040525567703 45.054763706528185 0 0 0
1069 234 7 0.4238 -1.7264712476666224 16.419043272919374 45.185096032236395 0 0 0
1032 221 6 -0.8476 4.2950532041056135 18.233298801592724 35.112257014904465 0 0 0
1842 491 6 -0.8476 -9.588283972557653 18.016311776758997 45.71798047120997 0 0 0
843 158 6 -0.8476 -2.6390817478496333 14.494922561064339 45.41030107570012 0 0 0
1579 404 7 0.4238 11.288702731913009 13.944085092216481 45.536559954867435 -1 0 0
1768 467 7 0.4238 4.543518201774997 4.3793874994406385 45.6350334572001 0 0 0
1244 292 7 0.4238 -4.393531556063822 16.893488079965984 45.758458188698434 0 0 0
1669 434 7 0.4238 11.55612133691335 11.555773751109555 45.69946946828741 0 0 0
841 158 7 0.4238 -3.526877666354908 14.817236897169783 45.786001991725996 0 0 0
1569 400 6 -0.8476 9.620218083514231 5.667852234508525 45.76409511973461 0 1 0
1581 404 6 -0.8476 10.73645979836382 13.153202618875335 45.812906116055466 0 0 0
1670 434 7 0.4238 11.194844758355314 10.115880957806901 45.80512790657591 0 0 0
946 193 7 0.4238 5.9743401533313 17.26387326619135 45.713321217531615 -1 0 0
1852 495 7 0.4238 15.388832892306072 3.0002393447483002 45.76872192850344 0 0 0
1490 374 7 0.4238 -5.996613132041342 15.556385197273565 34.77997577285629 1 0 0
1672 435 7 0.4238 6.587778875386429 4.872970529722679 34.8174259297942 0 0 0
1948 527 7 0.4238 15.072959997398508 2.8857298189602325 34.82402051079805 0 0 0
1227 286 6 -0.8476 7.092203268605062 17.095745203966597 34.76566772613797 0 0 0
781 138 7 0.4238 8.649313464546927 6.898550033114804 55.47053704730309 0 0 0
782 138 7 0.4238 7.441840788088083 7.867789574718778 54.965692676689095 0 0 0
783 138 6 -0.8476 8.057129849812751 7.669632677300592 55.76408582544184 0 0 0
802 145 7 0.4238 14.067025417403558 7.634038185651568 53.76612886313465 0 0 0
803 145 7 0.4238 13.95072678631894 7.302623219412122 52.19894194739665 0 0 0
804 145 6 -0.8476 13.443411304592615 7.662821211011332 53.00020231099722 0 0 0
808 147 7 0.4238 16.67831501960373 1.0559550311308294 51.42161376784412 -1 1 0
809 147 7 0.4238 5.316744119656772 18.477369263763723 51.43482264259268 0 0 0
810 147 6 -0.8476 17.55818331400647 0.7460937847753346 51.8337023586142 0 1 0
823 152 7 0.4238 7.746406258679366 7.0073145674451585 46.60970526030323 0 0 0
824 152 7 0.4238 6.846051002677024 6.9963746807794625 47.7239117181657 0 0 0
825 152 6 -0.8476 7.425869723676664 7.668761117397339 47.24721494136138 0 0 0
826 153 7 0.4238 -6.263009273757719 13.6593743622042 50.74032352605127 0 0 0
827 153 7 0.4238 -5.487439383147367 14.644130710093577 49.65651938366098 1 0 0
828 153 6 -0.8476 -6.341057074786742 14.496647726963356 50.17858960112339 1 0 0
832 155 7 0.4238 -5.86359389738078 11.344663657620757 50.974712766156806 0 0 0
833 155 7 0.4238 -4.9025583403954505 12.053899591200707 52.11779971145741 0 0 0
834 155 6 -0.8476 -5.51490040439379 12.235384886954721 51.32468887266647 0 0 0
1656 429 6 -0.8476 3.773380857431105 12.280925304211337 46.35631874696713 0 0 0
1163 265 7 0.4238 9.202979883727105 8.581966055079475 46.49772641313653 0 0 0
1476 369 6 -0.8476 -3.5158447489219173 11.169314343619078 54.33542088960664 0 0 0
1655 429 7 0.4238 4.46660668581429 12.985949381230231 46.54280934517722 0 0 0
1059 230 6 -0.8476 7.394475968395505 14.72590959658971 46.71037463381826 0 0 0
1131 254 6 -0.8476 6.188657830728577 1.4614907811395847 56.826130390559946 1 1 0
1857 496 6 -0.8476 13.046254536457246 0.359952160650278 51.92649119171521 0 0 0
1705 446 7 0.4238 10.46794146645899 3.5784740461460007 50.27621804902667 0 1 0
1108 247 7 0.4238 0.7455491105519406 14.369845576215733 47.58044829548202 0 0 0
473 31 5 0.425 -11.300279354856679 18.54729422403064 56.71109056067272 0 0 -1
1218 283 6 -0.8476 -2.1977011147698646 7.97798782397725 55.61274826552947 0 0 0
1606 413 7 0.4238 4.469234158689044 9.092395319201723 56.61195455874929 0 0 0
886 173 7 0.4238 -4.150429134789543 15.84425552742558 48.009051108996466 0 0 0
887 173 7 0.4238 -4.279885705903402 16.220005059341574 49.53710193932674 0 0 0
888 173 6 -0.8476 -4.058931003502107 15.435901696959466 48.92527096081438 0 0 0
892 175 7 0.4238 15.808959429877634 0.7661412298017153 54.5597853048815 0 0 0
893 175 7 0.4238 14.687540814645125 0.9974381628834331 53.400294850465535 0 0 0
894 175 6 -0.8476 14.789355239641095 0.8176086023441905 54.398841538910204 0 1 0
1920 517 6 -0.8476 -9.716867234990596 15.257773384319224 54.878627279833566 1 0 0
1212 281 6 -0.8476 10.82907564631379 4.800646469170803 56.39576126388194 0 0 0
1169 267 7 0.4238 11.062162336041364 12.81950232135347 47.473109821910384 0 0 0
916 183 7 0.4238 8.75945518189023 16.58332682407968 52.92192627134471 0 0 0
917 183 7 0.4238 -10.49689676702523 17.397000107655227 52.82272997507741 1 0 0
918 183 6 -0.8476 -11.147908819325504 16.920777037707158 53.481728366791835 1 0 0
1481 371 7 0.4238 2.242526396727235 1.255681485186114 48.48701068654991 0 1 0
1598 410 7 0.4238 -1.3486154484257948 8.004125511908644 46.1759866871704 0 0 0
59 55 7 0.4238 12.845545472482529 2.7147693140033873 56.464412761418586 0 0 -1
1697 443 7 0.4238 -4.643786727490645 9.100159540735381 46.75805130283083 0 0 0
1352 328 7 0.4238 -2.211465785670261 3.252830017359386 47.956124662950764 0 0 0
958 197 7 0.4238 -9.628163457835653 16.24418376188814 56.60267554008916 0 0 0
943 192 7 0.4238 13.389944267691071 10.738268273761706 52.44624600993781 0 0 0
944 192 7 0.4238 12.763044807359508 9.257338339383224 52.7569417852225 0 0 0
945 192 6 -0.8476 12.69513644806985 10.27538122980818 52.98241952617497 0 0 0
1029 220 6 -0.8476 -9.486640768212387 18.477205304809633 52.143383233269034 0 0 0
1058 230 7 0.4238 8.229725406523665 15.342340862324868 46.75710454443154 0 0 0
1071 234 6 -0.8476 -0.9523858703355259 16.62058701636458 45.82795987328753 0 0 0
1081 238 7 0.4238 4.429365141144091 1.7357816775474473 48.72611824296728 0 0 0
1734 455 6 -0.8476 7.532998285772867 15.13728982879129 55.124081776628636 0 0 0
1027 220 7 0.4238 2.8471881807737485 0.5986558019335092 51.52144331066008 0 0 0
1268 300 7 0.4238 -7.00950553555169 16.66060709331191 52.31032145580083 0 0 0
1353 328 6 -0.8476 17.51460637320758 2.9094752778139545 48.03731931957756 -1 0 0
806 146 7 0.4238 -7.314353033722724 15.478031536044531 47.472124302502365 1 0 0
979 204 7 0.4238 11.59400226509585 11.793503906238639 53.20716012010157 -1 0 0
980 204 7 0.4238 10.534106028551186 12.689604643490263 53.88994329507994 0 0 0
981 204 6 -0.8476 11.225320747921387 12.743654509742614 53.18617276245271 0 0 0
1635 422 6 -0.8476 12.048319123942315 7.565342074484369 48.97276996673262 0 0 0
807 146 6 -0.8476 -8.28917147716019 15.57929686088344 47.57956877706687 1 0 0
1919 517 7 0.4238 -9.532842399652989 14.55994633316271 54.142773187584666 1 0 0
1952 528 7 0.4238 10.412888512436892 6.830373712864935 49.28061699309184 0 0 0
995 209 7 0.4238 -1.761628834949773 18.108083526939023 47.276869528928266 0 -1 0
996 209 6 -0.8476 -1.7759296543971526 18.388602342969122 48.23567637434909 0 -1 0
1935 522 6 -0.8476 4.376341085965422 0.9207857565684232 54.73784227555352 1 1 0
1159 264 7 0.4238 -5.8437973710105275 13.054791436464127 45.86191341619979 0 0 0
906 179 6 -0.8476 -0.13026861394299236 0.2647975735657574 47.347243929809125 1 1 0
1006 213 7 0.4238 -0.20662569170452805 18.563539989393757 48.50118466521124 0 -1 0
1007 213 7 0.4238 0.8829963755255122 17.820338031098476 49.546306156934406 0 -1 0
1008 213 6 -0.8476 0.7650370041496822 18.554257686362657 48.865902501179285 0 0 0
1009 214 7 0.4238 -4.512859745688474 7.539612344717287 51.75353885304403 0 0 0
1010 214 7 0.4238 -3.2591509626270287 8.438761853369 51.7778643460874 1 0 0
1011 214 6 -0.8476 -3.6543305940059976 7.649149435812738 52.28376413620398 1 0 0
953 195 7 0.4238 0.3016477039073068 8.493529176719914 47.151803345523035 0 0 0
1028 220 7 0.4238 -8.776298838971993 17.839581281305023 51.789386578986836 0 -1 0
1267 300 7 0.4238 -7.1102282297466335 15.853661066176617 50.96000965431874 0 0 0
342 16 5 0.425 0.7652839653804188 4.051947370271981 56.09748159790416 0 0 -1
1969 534 7 0.4238 5.55824333896412 9.144172851724496 54.55145553413596 0 0 0
1747 460 7 0.4238 4.229241351272021 6.860251329221278 48.77061591360199 0 0 0
1180 271 7 0.4238 3.1845092498606253 9.095826310586203 54.248534016658304 0 0 0
1376 336 7 0.4238 5.096919497535348 11.649008042972248 55.95565049916362 0 0 0
1068 233 6 -0.8476 11.422731890888102 7.458381871499062 56.78639640007098 -1 0 0
1048 227 7 0.4238 5.016478316175918 13.403315087770979 50.660078254725484 0 0 0
1049 227 7 0.4238 6.339688620820387 12.989562362354159 49.86137068501581 0 0 0
1050 227 6 -0.8476 5.672457710661704 12.647049838866186 50.56272703446188 0 0 0
1567 400 7 0.4238 9.550931047880457 5.5787407524167 46.78096236995941 0 1 0
1698 443 6 -0.8476 -5.255152987887305 8.661433170261795 47.466847119021736 0 0 0
1056 229 6 -0.8476 -9.983053351837194 18.292029708467155 55.74296193190136 0 0 0
1303 312 7 0.4238 4.62604927626917 18.507088128354305 47.5368950986868 0 -1 0
306 17 4 -0.95 15.638177633669232 5.854923774767389 56.16766858014497 -1 0 -1
1399 344 7 0.4238 -1.8091650688714778 17.519721281220416 56.31586118809053 0 -1 0
1063 232 7 0.4238 15.465154930823378 4.123523688120629 52.39362379044892 0 0 0
1064 232 7 0.4238 13.842670652877452 4.08492238781184 52.31315461035719 0 0 0
1065 232 6 -0.8476 14.712924851522772 3.9393439321119805 51.73787509977391 0 0 0
1889 507 7 0.4238 12.28700833198029 2.5395726203456803 54.04704157531327 0 0 0
1045 226 7 0.4238 5.766538161597966 4.499659827991313 56.45445632557835 0 0 0
1749 460 6 -0.8476 3.647884008784224 7.680569549531094 48.91693225179368 0 0 0
726 127 7 0.4238 -1.0723306253973575 14.063593645201031 55.885137136843596 0 0 -1
1168 267 7 0.4238 11.192391777143902 13.259229978174316 49.12117022565927 0 0 0
805 146 7 0.4238 -8.470507492719129 16.54857282042715 47.363063087972 1 0 0
1775 469 7 0.4238 5.788874917214882 18.12320284325537 49.57769074613107 0 0 0
1079 237 7 0.4238 -5.675484914654015 15.67297779212648 54.29815279979924 0 0 0
1940 524 7 0.4238 15.313428059005851 0.7962306844534482 47.26247012605372 0 1 0
1084 239 7 0.4238 2.506150759005941 3.448031241486609 52.172276812029196 0 0 0
1085 239 7 0.4238 3.192152660096417 4.779836214148596 51.438394914043194 0 0 0
1086 239 6 -0.8476 3.0841041146781265 3.7698921079071135 51.422001256442805 0 1 0
1093 242 7 0.4238 5.54519438281169 7.373506122366496 52.99911133971814 0 0 0
1094 242 7 0.4238 4.254079620848668 6.576186668868284 52.34997860057185 0 0 0
1095 242 6 -0.8476 5.2617740787009275 6.464136720173686 52.591574517185386 0 0 0
1099 244 7 0.4238 8.547458223964354 13.803404793740327 55.78813981083913 -1 -1 0
1100 244 7 0.4238 10.176600585813834 13.853387185965854 55.62120597477484 -1 -1 0
1101 244 6 -0.8476 9.40840770543961 13.277237992165196 55.991087116590535 -1 0 0
1915 516 7 0.4238 17.595880342157763 2.4502108133138827 55.46405379375108 -1 0 0
1741 458 7 0.4238 -0.041960920490842255 10.72305635699066 55.3196338240039 0 0 0
939 190 6 -0.8476 0.33615197777180944 2.5326149580337876 55.59496859478038 0 0 0
1120 251 7 0.4238 1.8288301049538251 12.879709986744679 49.318919858854805 0 0 0
1121 251 7 0.4238 2.5501203694688206 12.919699891517887 47.877429004479765 0 0 0
1122 251 6 -0.8476 2.144470699573573 13.50764847365365 48.579946605533436 0 0 0
1385 339 7 0.4238 -4.2727516377048325 8.088842543205347 53.718469221454825 0 0 0
1680 437 6 -0.8476 4.513005531254261 5.0758141612750896 55.071466082398075 0 0 0
1125 252 6 -0.8476 1.1048366370065077 1.9757581284345462 49.31065554970024 1 1 0
1216 283 7 0.4238 -3.1767210155593935 8.180385782883597 55.445903246180315 0 0 0
1716 449 6 -0.8476 7.488754166126176 0.7917914445534477 48.36668368122844 0 1 0
1245 292 6 -0.8476 -4.731243921014447 16.170563359756382 46.40006192078882 0 0 0
1109 247 7 0.4238 -0.7569103143195908 13.763959421395194 47.22181094025766 0 0 0
1387 340 7 0.4238 1.8073856736905158 16.152325767624838 53.34895911735449 0 0 0
1620 417 6 -0.8476 -2.2638815795111302 12.685013864884034 52.567017366906185 0 0 0
1138 257 7 0.4238 11.543176029442748 5.050426530604322 53.3353719186111 0 0 0
1139 257 7 0.4238 11.67457417270477 6.436303564311322 52.67861211067028 0 0 0
1140 257 6 -0.8476 10.967855709361201 5.7719644313298595 52.88985963973251 0 0 0
1110 247 6 -0.8476 0.028179434689894853 14.381155438388571 46.88979173511382 0 0 0
1483 372 7 0.4238 10.09163196223845 14.389693799677117 50.65905656015174 -1 0 0
1923 518 6 -0.8476 -2.489303701240835 17.782824498418577 51.88076710967356 0 0 0
905 179 7 0.4238 19.555093115419396 0.10085870066207912 47.31749622557962 0 1 0
1181 271 7 0.4238 2.7265787561620067 9.384917845859697 52.69785241891596 0 0 0
1176 269 6 -0.8476 7.99044132527031 8.38832502001783 50.01260264745158 0 0 0
1177 270 7 0.4238 0.41313600176709586 15.925092735148878 54.63916096562975 0 -1 0
1178 270 7 0.4238 -0.9210803370132818 15.15552929171568 54.07700558477963 0 -1 0
1179 270 6 -0.8476 0.03552272408603297 15.000128119636768 54.47530810844438 0 0 0
1941 524 6 -0.8476 3.052143590582196 18.505578207839225 47.55316873482181 0 0 0
1485 372 6 -0.8476 10.07367891561039 13.36735261617575 50.68130198783184 0 0 0
1174 269 7 0.4238 8.577634294864817 9.174216690538856 50.27141185260052 -1 0 0
1195 276 7 0.4238 0.08847830660336223 6.10756078082349 51.40071953934465 0 0 0
1196 276 7 0.4238 -1.201670698407948 5.155276887667347 51.394297511757976 0 0 0
1197 276 6 -0.8476 -0.4270556019805455 5.423524779941875 50.80332805621063 0 0 0
1198 277 7 0.4238 6.778603610571667 16.59824451201428 51.471684999313794 -1 -1 0
1199 277 7 0.4238 5.984389366288249 15.88086708235613 52.64724927044855 0 -1 0
1200 277 6 -0.8476 6.923373685179835 16.105421418468374 52.34719867212397 0 0 0
1207 280 7 0.4238 5.616273965442686 5.1457523417839 47.49237338753516 0 0 0
1208 280 7 0.4238 6.146597901489323 5.417967907363873 48.97103941586409 0 0 0
1209 280 6 -0.8476 5.709056672813914 5.899090133889239 48.19511450584551 0 0 0
1534 389 7 0.4238 11.716902079155979 9.96448386472138 54.27906411933057 0 0 0
724 127 6 -0.8476 -1.512454044802344 13.799789036988503 56.76953740084514 0 0 -1
1175 269 7 0.4238 8.148296122306997 8.347663065801369 49.01256342106123 0 0 0
1482 371 6 -0.8476 3.115918791276022 0.850075806411015 48.11337950649579 0 1 0
1707 446 6 -0.8476 10.790635976616246 3.8322739361895164 49.36196396620932 0 1 0
1492 375 7 0.4238 1.3918095915185142 2.6827637339652792 54.38617957178577 0 0 0
1142 258 7 0.4238 7.682158883942395 11.582107117697317 53.31448169248089 0 0 0
1269 300 6 -0.8476 -7.606588540977773 16.60103364860898 51.46880389088499 0 0 0
1224 285 6 -0.8476 6.183600448019867 12.775624728780599 53.175492400624016 0 0 0
1888 507 7 0.4238 11.430531516452142 3.2253591759994134 52.95506833152008 0 0 0
1057 230 7 0.4238 6.657317847315989 15.326344751926223 46.337076878357095 0 0 0
1881 504 6 -0.8476 -0.807215927547699 6.165727857524692 54.35046472469242 0 0 0
1246 293 7 0.4238 9.489990034816335 11.632464107219644 50.71984189705316 0 0 0
1247 293 7 0.4238 9.474744145582134 10.766279197844176 52.032432133800505 0 0 0
1248 293 6 -0.8476 9.805255825731493 10.695634896227416 51.070375270093265 0 0 0
1258 297 7 0.4238 -5.697193150516428 17.69528268599534 50.855428217360874 0 0 0
1259 297 7 0.4238 -4.772399602262359 18.462552786628844 49.73804869717282 0 0 0
1260 297 6 -0.8476 -4.80557394315151 17.673044211997734 50.36608025640073 0 0 0
1297 310 7 0.4238 -0.4673905221341789 7.800726429765393 48.914136420180384 0 0 0
1298 310 7 0.4238 -0.8958532445798536 6.487197185747517 49.58872523913636 0 0 0
1299 310 6 -0.8476 -1.3024169412706128 7.337636354320156 49.20053361511718 0 0 0
1694 442 7 0.4238 8.979310855389034 2.8171873137309458 51.93069553717012 0 0 0
1304 312 7 0.4238 17.588277508672736 1.1049089373377472 48.14613336881292 0 0 0
1305 312 6 -0.8476 17.82757509988502 0.24251220025941578 47.6861043962263 0 1 0
307 17 5 0.425 -4.472082192083045 6.676454391368207 56.323132476600826 0 0 -1
1082 238 7 0.4238 5.157450784918476 2.561294118711784 49.928489999337486 0 0 0
1619 417 7 0.4238 -2.108522743240317 13.07342242894703 51.629441174381284 0 0 0
1318 317 7 0.4238 -4.8369847113709215 11.464020782519428 48.134381367239406 0 0 0
1319 317 7 0.4238 -4.594123582361007 12.08482887051827 49.653067392355084 0 0 0
1320 317 6 -0.8476 -4.132639759599897 11.694864867559735 48.84588560193158 0 0 0
1339 324 7 0.4238 3.701945236283001 15.167172450690249 49.30252130351438 0 0 0
1340 324 7 0.4238 4.871877939933183 14.329346731522088 48.4699534490409 0 0 0
1341 324 6 -0.8476 4.679262586180955 15.085184384803192 49.04824124934311 0 0 0
1360 331 7 0.4238 -2.558190667767373 14.007626576936985 53.29087755058055 0 0 0
1361 331 7 0.4238 -3.5421603067001204 14.81968845234939 54.29313731503843 0 0 0
1362 331 6 -0.8476 -2.6090459441290608 14.865282313267953 53.84609034787433 0 0 0
928 187 7 0.4238 -5.733494189378961 13.182490721394851 54.352575507070895 0 0 0
1522 385 7 0.4238 5.524353068678602 9.592450584020135 46.13740993419482 0 0 0
865 166 7 0.4238 1.8979517945327928 18.11380033002325 55.072699402558406 0 0 0
842 158 7 0.4238 -2.1185298424460353 14.285524138527412 46.26845356982982 0 0 0
1971 534 6 -0.8476 6.204032353301854 8.732839578628342 53.90574490498414 0 0 0
1970 534 7 0.4238 6.408178161509768 9.472074566253285 53.24357162827132 0 0 0
1375 336 7 0.4238 4.994680129673477 12.248860979825324 54.547209902043605 0 0 0
1647 426 6 -0.8476 -6.518252901580415 12.214133502623161 47.103529701218214 1 0 0
1377 336 6 -0.8476 4.416662393849211 12.114577013030079 55.37724913986527 0 0 0
1124 252 7 0.4238 0.5698862854536404 1.6028327230721329 48.54294546544007 1 1 0
1388 340 7 0.4238 1.220085100704692 16.155744227430752 51.85887566632991 0 0 0
1389 340 6 -0.8476 2.082956592249568 16.19546092082935 52.374243810217884 0 0 0
994 209 7 0.4238 9.584027549309278 0.1652049123568023 48.309197663224296 0 0 0
1748 460 7 0.4238 2.721746764970302 7.469563386030706 48.616729566322256 0 0 0
1712 448 7 0.4238 7.835767675606489 0.6932561122749306 54.921113301072324 0 0 0
1393 342 7 0.4238 3.5835736331622914 15.78794322850814 52.877437664935464 -1 -1 0
1394 342 7 0.4238 3.765383383084644 15.187870598644405 54.31259384631331 0 -1 0
1395 342 6 -0.8476 4.309349913996565 15.471405548493232 53.52020835885838 0 0 0
1864 499 7 0.4238 -3.307327375972486 6.505584330969356 46.67745507447809 0 0 0
1164 265 6 -0.8476 9.9090779528749 9.277283064028467 46.48007089258046 0 0 0
1401 344 6 -0.8476 -1.576863917380375 18.024130353263317 55.44644535300005 0 -1 0
1405 346 7 0.4238 -5.3277300804146 17.479047396973538 54.06519709698645 0 -1 0
1406 346 7 0.4238 -6.751851501325655 17.968277482865297 53.94724999726244 0 -1 0
1407 346 6 -0.8476 -6.240670536602472 17.118463684989212 53.78407134655261 0 0 0
1914 515 6 -0.8476 1.6691505534716649 12.97426415898271 53.29088210301538 0 0 0
1646 426 7 0.4238 -7.1213682439578445 12.482863369950131 47.88723623570545 1 0 0
1922 518 7 0.4238 -3.145190480834762 17.498206487904977 51.182293794821064 0 -1 0
1426 353 7 0.4238 -1.582022122157547 10.389023222191792 51.24289627288168 0 0 0
1427 353 7 0.4238 -0.3584739371733186 9.57815887916475 52.02334620864492 0 0 0
1428 353 6 -0.8476 -0.6233006678934859 10.484552355432383 51.61564645368783 0 0 0
1055 229 7 0.4238 -10.149911565879087 17.692947384483382 54.968969660648845 0 0 0
1123 252 7 0.4238 0.4460229407946703 2.2238377671423946 50.052511917783335 0 1 0
853 162 7 0.4238 -9.096874191905226 16.02928618411836 50.55782174205661 0 0 0
1432 355 7 0.4238 8.433419384058123 13.759572259388573 49.572946426003206 0 0 0
556 39 4 -0.95 2.9089445948412664 6.49509762555868 56.654560441692134 0 0 -1
1434 355 6 -0.8476 7.655858068347859 13.481520349313056 48.95620504218274 0 0 0
1435 356 7 0.4238 -4.165495336015116 6.110143466844646 53.306051231377815 1 0 0
1436 356 7 0.4238 15.914990671907141 5.441507112071212 54.640762023301086 0 0 0
1437 356 6 -0.8476 16.19023003809315 5.222310870084817 53.64838695174127 0 0 0
1444 359 7 0.4238 15.042847550412304 3.9679301572580368 48.684342020586435 -1 0 0
1445 359 7 0.4238 15.27514442868044 4.329192274651017 50.2655544191415 -1 0 0
1446 359 6 -0.8476 15.540476179881628 4.6035511117556895 49.298471203938504 -1 0 0
1447 360 7 0.4238 2.3607135594039117 11.075636853979146 55.37750053716841 0 0 0
1448 360 7 0.4238 1.5007930439093389 12.149824034257469 54.64187838459175 0 0 0
1449 360 6 -0.8476 1.5229385536594817 11.591647731831161 55.52132098971344 0 0 0
1456 363 7 0.4238 -6.316126112236449 9.30943368907371 49.437068462613524 1 0 0
1457 363 7 0.4238 13.056441604543792 10.209431448641245 49.57926922951011 0 0 0
1458 363 6 -0.8476 -6.642562164084992 10.161833016670746 49.88216178681152 1 0 0
1462 365 7 0.4238 -0.5923072181156447 4.38941749813067 48.83311636886013 0 0 0
1463 365 7 0.4238 0.06608594425986068 4.473162876858101 47.26792142564692 1 0 0
1464 365 6 -0.8476 -0.7199791020489278 4.197827660684461 47.84446493299195 1 0 0
1468 367 7 0.4238 5.903334874356122 2.6152523654677875 52.512334292696444 0 0 0
1469 367 7 0.4238 4.367480491468311 2.97056757063751 51.986540971748596 0 0 0
1470 367 6 -0.8476 4.949800284192919 2.2531629258768016 52.46109816191608 0 1 0
1474 369 7 0.4238 -2.675646471321344 10.982387030965509 54.86958671676444 0 0 0
985 206 7 0.4238 9.32523748701283 4.685528821381876 54.808022522603125 0 0 0
1066 233 7 0.4238 11.370110111299372 8.176907139173105 56.04926107889807 -1 0 0
1384 339 7 0.4238 -5.149783538742837 9.161406493708741 54.66047845840573 0 0 0
986 206 7 0.4238 9.511630074083454 5.475831338732142 53.4310256375363 0 0 0
1386 339 6 -0.8476 -4.675831731195418 8.272773585539635 54.63355524283721 0 0 0
1494 375 6 -0.8476 2.054304584666627 2.8435346053077732 53.63329233249543 0 1 0
1080 237 6 -0.8476 -5.2918572555389805 15.005617151522367 54.967046973399405 0 0 0
1912 515 7 0.4238 1.8342342652805614 12.759288964748725 52.293095965667376 0 0 0
1498 377 7 0.4238 10.814227219000227 10.181618640029368 49.93234655140809 0 0 0
1499 377 7 0.4238 11.678074795043576 11.004698494953535 48.77736238360246 0 0 0
1500 377 6 -0.8476 11.501452975670565 10.033504843883456 49.172775847578166 0 0 0
1504 379 7 0.4238 2.0951460854717046 5.384534857846076 47.91064521973051 0 0 0
1505 379 7 0.4238 2.3270267099837145 5.641599188102572 46.49630691709068 0 0 0
1506 379 6 -0.8476 1.6550712697993182 5.925034643275011 47.17099400760502 0 0 0
1182 271 6 -0.8476 2.4005582474049962 9.060542204596862 53.604637320604546 0 0 0
1243 292 7 0.4238 -5.566742864465377 16.609973597112994 46.8190445049522 0 0 0
1917 516 6 -0.8476 17.561672699163573 3.2162191562895757 56.1271140956326 -1 0 0
1078 237 7 0.4238 -5.6796734890229965 15.339560227764498 55.82274909381901 0 0 0
855 162 6 -0.8476 -9.889377090030731 15.73957562625454 49.96951063935518 1 0 0
1913 515 7 0.4238 1.286318982706092 13.921456851383509 53.31811654021324 0 0 0
1418 350 7 0.4238 7.867409291393805 11.090235773875905 56.61695613058162 0 0 0
1419 350 6 -0.8476 6.984474572976803 11.550475846232922 56.42791237566365 0 0 0
557 39 5 0.425 3.4685856806670397 5.8660462108215965 56.035509686309396 0 0 -1
1540 391 7 0.4238 -1.5654825047720373 5.087612671767733 53.35472674709762 0 0 0
1541 391 7 0.4238 -3.059918341407291 4.55937816817252 52.97905044407674 1 0 0
1542 391 6 -0.8476 -2.058075212958081 4.472568170774399 52.704203568374844 1 0 0
1555 396 7 0.4238 -1.2806218992830571 3.1618331803973847 51.594514112917885 1 0 0
1556 396 7 0.4238 19.190474616833107 1.6171491407784102 51.326564733506224 0 0 0
1557 396 6 -0.8476 -0.898221209463681 2.38184600251105 51.06749721415666 1 1 0
1561 398 7 0.4238 2.766192103578509 4.045909403748257 49.90205282735599 0 0 0
1562 398 7 0.4238 2.728100255615767 3.1333939023073114 48.64496290829114 1 0 0
1563 398 6 -0.8476 2.8085644005682964 4.108812830221829 48.87540624452494 1 0 0
1645 426 7 0.4238 -7.164387920656407 11.816160102505222 46.440519788735834 1 0 0
1639 424 7 0.4238 1.6961670620037586 18.006545175460598 45.97335135059141 0 0 0
949 194 7 0.4238 6.404236054681543 3.166618186236208 46.12008310430133 0 0 0
1493 375 7 0.4238 2.346633503890481 1.8932998228442481 53.51156617334034 0 0 0
854 162 7 0.4238 -9.516242532393237 15.468455840879813 49.05179776010554 1 0 0
1711 448 7 0.4238 -3.0927861611913783 18.4546177680547 54.800949863835385 0 -1 0
1679 437 7 0.4238 5.142615203456687 5.4967205919060405 54.38076785852147 0 0 0
929 187 7 0.4238 -5.020323163749801 11.839833326568673 54.58273931956241 1 0 0
1480 371 7 0.4238 2.821360413250257 0.12722811858002 47.433608491344444 0 1 0
1609 414 7 0.4238 14.54205227016839 6.004143615423293 50.020146693455374 -1 0 0
1610 414 7 0.4238 13.33441008425979 7.036125042099124 50.09572085033551 0 0 0
1611 414 6 -0.8476 14.268056007120421 6.8574089359035915 50.49176780109144 0 0 0
291 16 4 -0.95 0.7498538711495428 5.056575961126469 56.35599860635711 0 0 -1
60 55 7 0.4238 13.593828218042978 1.4836039055556873 55.700443175134154 0 0 -1
1939 524 7 0.4238 2.321650520692523 18.541088836040807 48.253775562079674 0 0 0
904 179 7 0.4238 0.17196843199636808 0.4554679098025639 46.388733702174356 1 1 0
1921 518 7 0.4238 -2.9943872879834705 17.934143821735873 52.76086609523135 0 -1 0
1890 507 6 -0.8476 12.323704311541396 3.3457765735948017 53.405716666168544 0 0 0
1621 418 7 0.4238 -0.8880413175809402 17.22026921354064 51.17274600135987 0 0 0
1622 418 7 0.4238 -0.49875856167360777 15.998417540308697 50.26672890602323 0 0 0
1623 418 6 -0.8476 -0.08620252649074155 16.668214174904513 50.87931088630059 0 0 0
1636 423 7 0.4238 4.029483845337468 9.732642648869044 51.02436383263397 0 0 0
1637 423 7 0.4238 2.8917869374331024 9.294763579878257 50.01663243297679 0 0 0
1638 423 6 -0.8476 2.984180505373606 9.809251823769316 50.89927131532504 0 0 0
914 182 7 0.4238 14.15595835040816 8.281706568236398 46.17483868902479 -1 0 0
1742 458 7 0.4238 -1.3572048578662697 10.573711222810148 56.204553945837766 0 0 0
1162 265 7 0.4238 9.520054641029878 10.019563760615029 47.09472934638226 0 0 0
1648 427 7 0.4238 6.329642589585023 6.202785784930898 51.51209323217289 0 0 0
1649 427 7 0.4238 7.276140254198566 6.771449302445006 50.457681806038565 0 0 0
1650 427 6 -0.8476 6.949801453934591 5.8430342551465015 50.739589943459066 0 0 0
1666 433 7 0.4238 -3.1678764716728884 9.153695481083268 49.41135503340413 0 0 0
1667 433 7 0.4238 -3.5656029065141275 10.597144016361288 49.72269181653375 0 0 0
1668 433 6 -0.8476 -3.1396098420956786 9.792345697084372 50.21287256011268 0 0 0
867 166 6 -0.8476 1.5094136333239851 17.17132079915897 55.25100994236818 0 0 0
952 195 7 0.4238 1.0170122370535943 7.198516685993562 47.57627150170251 0 0 0
1523 385 7 0.4238 7.093723425322125 9.253598605252852 46.24886059045594 0 0 0
1858 497 7 0.4238 7.99039391470545 11.754169950517882 48.10952831604817 0 0 0
1217 283 7 0.4238 -1.6097231490281674 8.807606980708808 55.37786436124669 0 0 0
252 12 5 0.425 5.71006414715439 17.188135654818574 56.52387922231829 0 0 -1
950 194 7 0.4238 5.813855756024996 3.14560888835249 47.64452867004641 0 0 0
205 12 4 -0.95 6.613223258903275 17.65791930944674 56.25224266652473 0 0 -1
1678 437 7 0.4238 3.8703763319495574 4.618737952441093 54.44364361801595 0 0 0
1853 495 7 0.4238 16.5992730147102 2.502955000664006 46.524239815295246 0 0 0
1918 517 7 0.4238 -10.267962246573378 15.968150703054345 54.412477049381316 0 0 0
1713 448 6 -0.8476 -4.001590793271562 18.633159567638742 54.32285120506613 0 0 0
1351 328 7 0.4238 17.202059198158896 3.337167552219571 48.8756392909109 -1 0 0
1951 528 7 0.4238 8.95973019872858 6.519025906093751 49.50878847261462 0 0 0
1863 498 6 -0.8476 -6.750341439948981 17.935404167470832 47.21650243874162 1 0 0
1720 451 7 0.4238 12.155002163882747 3.0015872957894962 48.56514738789077 0 0 0
1721 451 7 0.4238 13.319064056670006 2.230960450445048 49.305630101007374 0 0 0
1722 451 6 -0.8476 13.166294321232527 2.892948218140032 48.59173904015616 0 1 0
1715 449 7 0.4238 8.274745482929202 1.4601428867516721 48.18396732421517 0 0 0
1733 455 7 0.4238 7.01514301596117 15.810088486689754 55.698666193032636 0 0 0
1714 449 7 0.4238 6.6728397633098755 1.4298899495852888 48.536863303732666 0 0 0
1738 457 7 0.4238 6.378020116631981 9.37786666790785 50.32853438953998 0 0 0
1739 457 7 0.4238 5.775866737749277 10.894272329210565 50.67576739886836 0 0 0
1740 457 6 -0.8476 5.700723864933669 9.876696665831602 50.88399894278403 0 0 0
1222 285 7 0.4238 6.364579131608091 13.62660792834499 53.71367060529941 0 0 0
1210 281 7 0.4238 11.083752466022537 5.7857765887899895 56.538522002318544 0 0 0
1732 455 7 0.4238 7.615545639758471 15.764364871489704 54.35843425299446 -1 0 0
1744 459 7 0.4238 3.1798633381552466 6.960183435828084 50.74765200188491 0 0 0
1745 459 7 0.4238 2.0652339065705503 7.208601007910799 51.840913150544615 0 0 0
1746 459 6 -0.8476 2.823594625480153 6.5894139147275474 51.60391809614159 0 0 0
1855 496 7 0.4238 12.080937645311515 0.5682363739996448 51.79081880800207 -1 0 0
1537 390 7 0.4238 17.832031343325127 0.8507774383554788 53.544597122106474 0 0 0
951 194 6 -0.8476 5.908112706967165 3.7370193380274417 46.796425375679846 0 1 0
1753 462 7 0.4238 2.1479600161052326 11.106160768690414 50.779231711895605 0 0 0
1754 462 7 0.4238 0.6338068510949831 11.545328743857551 50.899658756079845 0 0 0
1755 462 6 -0.8476 1.5360906987173077 11.949856132235832 50.68925552973734 0 0 0
1953 528 6 -0.8476 9.701819230648093 6.212891273662586 48.93175393956601 0 0 0
1633 422 7 0.4238 11.89403400800423 8.578324586827435 49.15662298866656 0 0 0
1933 522 7 0.4238 4.6207285453301665 1.4384435053562064 53.87992833041678 0 0 0
1762 465 7 0.4238 10.013513228678068 2.816501834010341 48.10280027278 0 1 0
1763 465 7 0.4238 9.887858142839052 2.386892621511517 46.59800842527733 0 1 0
1764 465 6 -0.8476 9.379615819405068 2.3084691723944184 47.47670642602926 0 1 0
1774 469 7 0.4238 5.796480863728955 16.496602148893338 49.52136344209218 0 0 0
1634 422 7 0.4238 12.272774761328034 7.481466427001146 47.96751568178626 0 0 0
1776 469 6 -0.8476 5.909625448787042 17.31766584077362 50.14002034907817 0 0 0
1792 475 7 0.4238 7.372529544001249 4.286101406369089 51.43041869479401 0 0 0
1793 475 7 0.4238 7.675020682991708 4.213115386873524 52.920411831926 0 0 0
1794 475 6 -0.8476 7.542129909371632 3.5743192737426934 52.13077150771145 0 0 0
1795 476 7 0.4238 -0.11525078661347159 7.031669421942163 53.16268465631936 0 0 0
1796 476 7 0.4238 1.1294584339468132 8.205264617329254 53.138494952283025 0 0 0
1797 476 6 -0.8476 0.31330045349359753 7.824903120371398 52.64139279416899 0 0 0
1804 479 7 0.4238 -1.787478781123702 13.747992606441917 49.20698223593405 0 0 0
1805 479 7 0.4238 -2.981395068899124 14.500281201287097 49.91869571174121 0 0 0
1806 479 6 -0.8476 -2.0957244040978735 13.99079562903446 50.13097072480599 0 0 0
1807 480 7 0.4238 2.5947366441023583 9.62474218019706 46.96631116414185 0 0 0
1524 385 6 -0.8476 6.431372935071105 9.99338245916128 46.0212187176709 0 0 0
1809 480 6 -0.8476 3.3889733772476007 9.587409091242407 46.34237688632835 0 0 0
1822 485 7 0.4238 -2.8234687331557446 6.720634426225696 48.854802132359424 0 0 0
1823 485 7 0.4238 16.42326080343178 5.969156555266087 48.92960999481305 -1 0 0
1824 485 6 -0.8476 -3.6527163137147114 6.459159841195253 48.291979502661 0 0 0
226 73 7 0.4238 1.9275259865149488 14.163164183250876 56.06231432386903 0 0 -1
1696 443 7 0.4238 -4.689072433160612 7.8505569278870215 47.72014130441911 0 0 0
1539 390 6 -0.8476 17.771178806940895 1.0364361838198397 54.56251650607885 0 0 0
1843 492 7 0.4238 14.901441606065463 2.4352164083070664 51.069860854159465 0 0 0
1844 492 7 0.4238 14.563401514796393 0.9392558697772596 51.050569291685434 0 0 0
1845 492 6 -0.8476 15.337205774179662 1.5752834616657168 50.79029695939534 0 0 0
1695 442 6 -0.8476 9.922326038622392 2.4092041530547115 51.88355196248748 0 0 0
866 166 7 0.4238 1.5511050880357213 16.8332506999695 56.19747486353355 0 0 0
1854 495 6 -0.8476 15.885311746140486 2.121601715587695 45.91799542091161 0 0 0
987 206 6 -0.8476 8.785132372489489 5.138051023351412 54.076859559574395 0 0 0
930 187 6 -0.8476 -5.8520127595827365 12.329834784409652 54.824952771224005 1 0 0
1880 504 7 0.4238 -1.3910227074895225 6.8526710946642915 54.8519631168203 0 0 0
1143 258 6 -0.8476 8.217533920324465 10.780794712657405 53.597165295038636 0 0 0
224 73 6 -0.8476 2.876713001431233 14.30946810859424 55.69696277647274 0 0 -1
1934 522 7 0.4238 4.926573529328412 1.3581409106753812 55.47817603246229 1 0 0
1808 480 7 0.4238 3.7315730323723915 10.510801841766813 46.502987008485334 0 0 0
1070 234 7 0.4238 -0.5957019977302942 15.694356325223204 46.02346075613287 0 0 0
225 73 7 0.4238 3.1845213920481172 13.363451998490703 55.40082277417088 0 0 -1
1879 504 7 0.4238 -0.40950852292334083 5.580776417077356 55.11526182807616 0 0 0
1223 285 7 0.4238 6.189141985555831 13.07558151096689 52.19566228728004 0 0 0
937 190 7 0.4238 0.20648417405235184 1.756217012631024 56.27706298529398 0 0 0
971 201 7 0.4238 -10.965599560488716 16.43085676226361 48.40909460324949 0 0 0
1859 497 7 0.4238 7.783695924236095 10.86165018918949 46.77405267993709 0 0 0
1618 417 7 0.4238 -1.4955444053966023 12.025322046856141 52.64843631410357 0 0 0
1231 288 7 0.4238 -6.868099151165786 11.740612069400678 56.144477161362865 0 0 0
954 195 6 -0.8476 0.8626413254727493 8.153136489767693 47.93638668340524 0 0 0
1390 341 7 0.4238 -2.457066578924046 12.09940619813166 48.09557949384129 0 0 0
1856 496 7 0.4238 0.853840230875596 18.02004807364361 51.94762815354785 0 -1 0
1475 369 7 0.4238 -3.17931881538064 11.888429338288816 53.65837774301455 0 0 0
1743 458 6 -0.8476 -1.0035595151991956 10.438502681565494 55.261289883528036 0 0 0
1535 389 7 0.4238 10.1177508261774 9.628787347069943 54.75065994042334 0 0 0
938 190 7 0.4238 -0.3379587836161193 2.123655535865612 54.96844978606428 0 0 0
1536 389 6 -0.8476 11.106536128627681 9.457178473938528 54.95812182335127 0 0 0
1706 446 7 0.4238 10.516338923401614 4.825606627406777 49.18050698406548 0 1 0
1693 442 7 0.4238 9.671809559819227 1.423589265506973 51.76247185242707 0 0 0
1054 229 7 0.4238 3.1652837264683846 -0.002536351552639536 55.40112265682362 0 1 0
1429 354 7 0.4238 13.40325205237063 4.041748222234554 46.49749216791247 -1 0 0
1484 372 7 0.4238 10.67120153068641 13.06431914061146 51.42809354830427 0 0 0
970 201 7 0.4238 8.912990556619473 17.30928745974286 47.260376613449864 -1 0 0
972 201 6 -0.8476 9.423042918820075 16.43900574968155 47.440292285718535 -1 0 0
1391 341 7 0.4238 -2.4443467049098184 12.22167778339837 46.509017208623526 0 0 0
1141 258 7 0.4238 8.005138285790542 10.714782629429392 54.58114797200441 0 0 0
1400 344 7 0.4238 -0.6495677582570893 18.44379089797288 55.476762927493986 0 -1 0
1607 413 7 0.4238 3.626086387342672 7.966815805077738 55.939123389399086 0 0 0
1433 355 7 0.4238 7.734983782943471 13.952815853044559 48.044793064897476 0 0 0
1860 497 6 -0.8476 8.435416755575764 11.044420182870017 47.57068120773028 0 0 0
1392 341 6 -0.8476 -2.0238913665353957 12.64439918659263 47.34164318359404 0 0 0
1170 267 6 -0.8476 11.518900699433736 12.642433249416998 48.379898858287945 0 0 0
1083 238 6 -0.8476 5.31548854520328 2.1948451395697797 49.00507510538129 0 1 0
1862 498 7 0.4238 -5.98818398521093 18.490130306749194 47.53625410163024 1 0 0
1538 390 7 0.4238 18.165095352463798 0.26975040443334475 55.11737198514141 0 0 0
1608 413 6 -0.8476 4.217039176228066 8.738775794918192 55.69328671548846 0 0 0
58 55 6 -0.8476 12.713015678626912 1.7270008174508558 56.17344761228796 0 0 -1
1861 498 7 0.4238 -7.5174363156411275 18.607506739163345 47.14802170414843 0 0 0
1613 415 7 0.4238 3.872623638768254 15.597377738401619 56.58609954379626 0 0 0
1916 516 7 0.4238 16.60152716747094 3.4106728564745663 56.413793997317015 -1 0 0
86 2 5 0.425 12.612284830001531 4.852970606347272 56.76539555791613 0 0 -1
565 109 7 0.4238 -3.2604237096077053 16.115788589171274 56.85141588871608 0 -1 -1
39 2 4 -0.95 13.56093951587856 4.402793339751835 56.88328811235962 0 0 -1
974 202 7 0.4238 -1.4875611947610874 3.043346671806727 45.94349937037967 0 0 0

Velocities

1 -0.004036519823734574 -0.0014607451311352778 -0.002022457591645471
4 0.0015502692220247338 0.003028258458954778 0.005191248717104629
5 -0.0020774557532010373 -0.0025186161458061514 -0.005982671814298157
8 -0.00031736139601835374 0.0018583413444306159 -0.0014657581593036616
9 -0.0037329357272415623 0.001448961904263428 -0.0018171980043002489
12 3.2014928165202745e-05 -0.003217345863677685 0.005541940969763107
13 -0.0050168122955914374 0.0023040190572546065 -0.004303815736512124
16 0.0010395786101202063 -6.847795366246028e-05 0.004855461745681041
17 -0.0036132836040066747 0.0033641552421192302 0.00032415283462059624
20 -0.0035304661165650925 0.001071174424196004 0.0020886700105860697
22 0.009968343788810877 0.0016372983396023715 -0.005896480482156113
25 -0.0009674349433948741 0.0073625334711589704 -0.003416383256522011
26 -0.000986654570909724 0.000971160733805645 -0.0009100194009425822
29 0.0008149317826559466 -1.7028866106594434e-05 0.0057252134391319485
30 -0.00907200124937895 -0.008935841289394852 0.002628510188600567
33 -0.0011678355576495755 0.0068947858570328835 -0.008719405804640416
34 0.0047815206490489 -0.00442736641787695 0.004440934697996767
37 0.0024381899724525433 0.00204152659071477 -0.0027007808373565503
644 -0.007379307089225743 0.0039047930361536037 -0.008957938945163446
42 0.0009012658895140049 -0.004783289920650431 -0.003148756484836894
45 0.006071911807553514 -0.00035006324312945224 -0.0014002665183817306
46 -0.001074172552925835 -0.001771047697045625 -0.0007805679367247512
49 0.0021198573863361737 -1.22275533575632e-05 0.000881358867703757
50 0.002764958474346682 -0.004401598743104475 0.00010783264126582342
53 0.0013660701617374878 0.0020577277988042364 0.003558741934190517
56 0.0027492456222173046 -0.0024677267198202693 -0.0003751158180910763
960 0.004794806826252112 0.0005629653966063857 -0.0038458804165678274
725 0.010935605363013736 -0.012774170522023507 0.007478221713179219
1314 -8.512936987946923e-05 0.004956970650007856 -0.0013387868992158986
564 0.009896781399054465 0.0059067550556596606 -0.004303076970899219
67 -0.0014426762418344656 -0.0009194834384902117 -0.0014910444407542965
68 0.0007514029223587381 -0.049725423474797366 0.013773669099073817
69 -0.01515089754699447 0.0007814057772790402 0.015580234169466136
316 0.01667228003326128 -0.009039407878851937 -0.010184894413104446
1313 -0.016579297336686886 -0.011628905325305965 0.009783584920517355
87 -0.0017900943980322637 -0.0018558638014593268 0.003600908030589078
90 2.9300239380947608e-05 0.001248009450349893 0.0031212156650208835
92 0.002586711445834744 0.003234397453755867 -0.0009994450189650189
93 0.000773817678265923 -0.0043670287998159195 -0.0008628689722981309
96 -0.002226728670164111 -0.005029700394011296 0.0072248246052617785
97 0.002727778098390658 0.004808671350064498 0.0005407932987958147
100 0.0012371649167427126 -0.002860849498518811 -0.0010751650068857044
101 0.0018905716033170794 -0.0032304385518307248 -0.0025517271921997155
104 -0.00034558149417037473 0.0031599041866908154 -0.0024424032232105075
106 0.005222588340098962 0.006941700712339738 0.0012810484114871166
109 -0.0017980380520439538 0.0004831912316270485 -0.008749466473333873
110 0.00039694935670494055 -0.0008491535603426914 0.00493756261834121
113 0.0008968041771848553 -0.005625215616994572 0.003515830074615066
114 -0.0020117204488083944 -0.002402273825746317 -0.0007279327533547561
117 0.0018157648095746591 -0.003842187140328028 0.0028839002121147993
118 -0.0009948970082771565 0.0027636132616991496 0.0043897614636440015
121 -0.0034789078276871075 -0.004105516671811696 0.0010202793058341911
124 0.0009019324575152162 -0.007292429293047553 0.0009820431316402236
127 0.003824112202208602 -0.0018784321462390354 0.009098801199433076
128 -0.0026391516793495477 -0.002296992069769004 0.003177306517670078
131 -0.008526681685448305 -0.005961694801281715 0.00028728302272876775
132 -0.0015593173568373574 0.0017050680126990368 -0.0021839304674550735
135 -0.0019475429051293968 -0.0038311358571054906 0.005411768592784171
138 0.001375587848462614 -0.0024205310504364567 0.002245562732641118
139 -0.008172197527215623 0.003175008605049979 -0.00973714226650953
1614 0.003654065821341899 -0.002061821535510613 0.00033153143300031945
141 -0.0036821830955272613 0.0075125780535421054 -0.008619013728696627
563 0.005195553105575649 0.009977935483107147 0.014977576002118362
149 0.004434075014618717 -0.0013816981287378422 -0.003442530869537792
959 -0.002301352269532776 0.002705246285774368 -0.016601298516412125
151 -0.03099290448409591 0.016476268195922825 0.01186154201057212
236 -0.0002495364753080206 -0.005619541156868928 0.0015097122046234066
167 0.001520548406828578 0.0035419083542057375 0.011397540567537485
170 -0.000326250681223563 0.008306184209333586 0.0026955847517934756
171 0.0013412549947834766 0.002984793531845456 -0.0023619702869973795
174 0.002931704640833672 -0.0037060175450426293 -0.0020217393477937346
175 -0.004251220737350368 0.0022321204167679576 0.00012711235932629243
178 -0.004135512045644454 -0.00016295618481860981 -0.0003078293684396419
179 -0.0011343030683951475 0.001806651778102495 -0.0027360040407764237
182 0.0018568140671485886 0.0005635612133026279 0.00023625158248892172
183 -0.0011120750375600463 -0.002260315268135767 0.00229431481092743
186 -0.0010301860828831528 -0.007019899000568642 0.0017766002108764191
188 0.002902482117992755 -0.002491771902733751 0.0029193652294182636
191 -0.0030076687065528065 -0.009071565054022894 0.002106431097398523
192 0.0030781352039206166 -0.0005516899370411856 -0.0027883426385873914
195 -0.003561109696385427 -0.0023277164824600416 -0.0003803406341613639
196 -0.0041295875469663495 -5.058023937600142e-06 -0.004683814045240545
199 -0.004377197472895832 0.006633231660167217 0.002664248543253908
200 0.0022925630041931468 -0.0010528453633422154 -0.009273373164182704
203 -0.0023807713732815943 -0.0022720650725863156 0.005124608273570633
1233 -0.003427086863374131 -0.01220749344007381 -0.001378902504046143
208 0.004529563194127416 0.0021322808450656163 1.2730472798149209e-06
211 0.002141867550777693 0.0009235795225543342 0.004036318447970234
212 -0.006168397919234489 -0.006772083053320797 -0.008079025276846922
215 0.01221064803506352 0.004565453855449295 0.0014991335641816074
216 -0.0026914193296787175 0.0008162089636265509 0.006540488284615917
219 0.006767546322702467 -0.0007977709993854466 0.006914292250997423
738 -0.01195415163684534 0.005318394189606504 0.019793699492836558
750 -0.021014836872876808 -0.007486083977887057 -0.00011562135443793868
850 0.02919717976191625 0.004570335157588506 0.023873934934936218
566 -0.016129700086282613 -0.012727849301775677 0.013953544043945564
161 0.0029130035171356966 0.010431693476935702 -0.0015264389946605776
233 -0.000472332636432083 -0.0007903063325882108 0.004812215444878243
234 0.01885875739557087 0.006041581569262288 0.009861168331678535
235 -0.007752613962999687 -0.0031526520032045396 -0.01359780018569337
140 -0.002813916767100481 -0.011967440206239846 0.0005400521630350073
646 -0.008703068709850074 0.004589589934622204 -0.0027733623654474585
253 -0.0023225696040122482 0.0029445169046586894 -0.0034682325344127843
256 -0.0024314703079256223 -0.002243420107019004 -0.0012979487586476392
257 0.0030951120648265783 0.0033576619827171013 -0.0024575268027321783
260 0.0002373836170661423 -0.0004421876826073452 0.003741343682913169
261 0.002279982715689856 0.003057564057503295 0.003524869809901323
264 -0.004666045018747258 0.002486142916682046 -0.0020778377535312677
265 -0.0035233959755053114 -0.0030667804396045284 0.001724395707468821
268 -1.4080641746645625e-05 -0.0021513639829441196 0.0012026051947448741
269 0.0017658845243057372 -0.0007256335655754537 0.002832347274503898
272 0.0002651663238159485 0.0018527031006252105 0.0020389248353896595
274 0.0021423315324293713 -0.010334282080839731 -0.0019281391431907955
277 -0.005128423933291933 0.0029918082586445722 2.9710811792637325e-05
278 -0.002855537175111683 -0.0018277354456738776 -0.001189582021988516
281 0.0021076765208003995 -0.003956954294532509 -0.0032228200771773786
282 0.004529294346627256 0.0023176227382560905 -0.004795307872459388
285 0.0018365335981020325 0.006038893767949111 -0.005524301883513953
286 0.004808038875221096 0.0032132033390504496 0.004984757812111595
289 -0.005370150291845186 -0.007321361310300774 0.0024658218653204993
1417 -0.009370370045199543 0.02052397991981103 0.02128458358448501
294 -0.0021707867728016634 0.0005379400026380152 0.004494514439980493
297 0.0009429827690451007 -0.0011226057049532677 -0.0029807246878845546
298 0.00372801207898496 0.0016716986190535008 -0.002877392411675417
301 0.003672205930234923 -0.00554101568389464 -0.003226296933752445
302 -0.0001794180079242234 -0.004537743959253509 0.0011480825902313227
305 0.002989378690840151 0.004250214292825804 -0.0036314125797918344
737 -0.03250046649755202 -0.01810487504020838 -0.01255273351499419
1129 -0.023434845107684836 0.0033398966391253028 0.005157939252395263
312 0.003944286119495802 -0.002152141746926229 -0.0011997309114854578
313 -0.0153611365532777 -0.00018475129420639753 0.007777114434395435
314 0.001891220004596916 -0.001972289463054151 -0.00043016477927248353
490 0.013022426393578304 -0.012556514919065773 -0.015354170763030342
152 0.0038385231340685947 0.00016134083240011376 0.0015914807156427572
324 -0.024249722215156134 0.022775423161222535 0.0028060537677843146
851 0.003668612282053706 -0.012126763643365537 -0.022086209450880266
150 0.019575105653876986 0.0019810629467704993 0.0302888303538972
1130 0.004228947599946945 -0.006221693893513237 -0.03451904358036462
774 -0.03751611983587455 -0.003738411695120452 0.005152772302862123
343 -0.005307570086303504 -2.7728256870260467e-05 -0.0037386068812964744
346 0.00796355865802683 0.005453676259787485 -0.000901255960226815
348 -0.004742714913561728 -0.003921049806766345 0.0019814876979452885
349 0.006219070525390855 -0.003412026074254453 -0.005218603221748073
352 -0.0019773243139996808 0.006850793189041914 -0.0052074768084245495
353 0.0033622892401561624 0.0010845976019945335 -0.0015875986652112127
356 0.00496078588296015 -0.0004948513305136425 0.0008088780237229447
357 0.0008883070959164572 0.007126455226331295 0.0016175879941405934
360 0.004138510187682193 0.0009348689841995701 -0.0014717272184173176
362 0.00583240457914948 0.002008403602103909 -0.0004581931192631455
365 -0.004919167449280161 0.001462602449915739 -0.005194144043515979
366 -7.457863441745096e-05 -0.0019189588222422787 0.006575916362466781
369 -0.001290637921639901 -0.00146121044417318 0.0023413477322951396
370 0.003423941862963717 -0.0012378696447933703 0.004281772163574732
373 0.001986416409701048 -0.004648372530226122 -0.0002771737085659469
374 0.008519386357863848 0.0022749016069252706 0.0013082917701643683
377 0.0011853735404771606 -0.004948273832489602 -0.0007414893274401486
380 -0.004613052683404014 -0.0014297860765044197 0.0031040115097592854
383 0.007051856516962453 -0.010021296543079282 0.00821902336778158
384 0.0044547729462730825 0.0035988964643540924 -0.0029909015962537766
387 -0.0006861970818220765 -0.0020108607139398883 0.0011711238681138246
388 0.0004741152773416043 0.003518494860297818 -0.00018701162638372533
391 0.0029416465911941405 -0.0018495407521044141 0.007379003207075064
394 -0.0056169826809864595 -0.0003293653991845259 -0.00834048512211536
395 -0.0043848759668809805 0.006423416457691373 -0.014640550593703254
396 -0.006165978132312217 0.0040946573307980745 0.0004958036164282884
397 0.004082016038041432 -0.0019884676823056294 -0.0029722955585612656
1612 -0.005409831193948331 0.012185868955908511 0.02743328009936902
405 -0.004337354257124974 -0.0028318308199349485 0.00018517069390876028
406 -0.004780369748047015 0.011036627655137654 0.015671859553789285
407 -0.009757734733541084 -0.004808170555593238 -0.01426502158472852
154 -0.019332263813163098 0.00011504372607133083 0.008217107455766171
423 -0.0023044882052037337 0.0031879072584107718 0.003460840660301803
426 -0.005665790624104094 0.0008819562727161434 0.0014906386654398268
428 -0.004095225806651725 0.00502107980388358 0.004243123357090745
429 -0.00025836128510390547 0.0023729839011522465 0.005299393304693926
432 -0.001269171526222782 0.002651515509452193 -0.0004102251148475518
433 0.0010062361784771712 -0.0016815657715083295 0.0003481170833982615
436 0.0026574877846973566 -0.0008485120924385797 -0.0008758795201330641
437 0.0035637056050575565 -0.0020852085774280154 -0.0011391610155446368
440 -0.0005672853890140315 0.002932014602730762 0.002336934731864476
442 7.860510009642834e-05 -0.007345260601061268 -0.0015012747568979882
445 0.0005015946201969252 -0.00716554830100191 -0.0006317823541309345
446 0.003255330891745772 -0.0028788705002092863 0.001064432321475272
449 0.0015527373686598494 -0.001832496628682978 -0.001764245918400566
450 -0.0028638262763763657 0.0006600417773208985 0.0011876045060285655
453 0.010131491082161161 -0.00016704796264460558 -0.0022409055225974424
454 -0.00045946320516661765 0.0048972323781711295 -0.005528076400835027
457 -0.002694657027686384 -0.0004731447388530853 0.0013134396251366994
460 -0.004846491830679028 -1.202229667703899e-05 -0.00117306084207151
463 -0.008019723565674505 -0.0007297277736528548 -0.010764665762333137
464 0.0036934935319276408 -0.0016113273461169353 -0.000611346612945129
467 0.0006303601660403239 0.0001179076820937721 -0.0002726139375326224
468 -0.003582216115482525 -0.0014504963554417155 0.0028230217855458933
471 -0.0046748977155507965 0.00477852649061019 -0.005093455545535128
875 -0.013040983998041754 -0.012491710377964087 -0.009782870811639314
491 -0.005866436669537518 0.006824792476831879 0.025744118935683916
478 0.003552088294686734 -0.00873653638583664 0.0039871461563703746
378 0.002062550982420222 -0.004225526329729346 0.0004136439140302597
480 -0.0030990226944640617 -0.0015359456682462033 0.0017323574005719223
576 -0.0020071538738520604 -0.0018549047290353242 -0.0017820496609856015
1046 -0.009655922307641177 -0.013664601508517976 1.0691763237815037e-05
874 -0.010956085471687018 0.006352663805015996 0.013716224820119156
582 -0.0018644308550701664 -0.0032640000451032492 0.0020748516916514826
645 0.009598275679901127 -0.0008330002046398043 0.01243091168480686
706 -0.003282389288121237 0.005336558356030344 -0.005625010738260607
507 0.001013555103919541 0.0011573041697928122 -0.003618687485430686
510 -0.0034884987839739604 -0.0023556677330693583 -0.0028576425843192844
512 0.003995849615328041 -0.003200694463050391 -0.0027916350528292056
513 -0.0024690977017884884 -0.0017121546116538812 -0.004558359266422406
516 0.0012657123646461674 0.00010565784711094882 -0.004110997165219286
517 -0.0013171567785908076 0.005033946201329781 -0.005118956393474655
520 -0.005747042389030045 -3.571538461337859e-05 0.0019340639200665507
521 0.0017356946445055187 0.001992191244527341 0.005116482020504604
524 0.004095017480030876 -4.306173840396504e-05 -0.002068355367721216
526 -0.0015172045564624476 -0.006637552489162945 0.0035895554908968895
529 -0.005239344701936152 -0.0053076237178219 -0.0034587397697678586
530 0.0023390950669594473 -0.0005248801016374633 0.006250728467497649
533 -0.0017305529823522022 0.008152746309965039 -0.0003071565568426273
534 -0.0021052465738667083 -0.0018486202520780106 -0.0019132784206876234
537 -0.0049613626766843175 -0.002298562608798895 -8.692444027093345e-06
538 -0.006205234768343589 0.004952383982470576 -0.0019946453829350207
541 -0.004965445809859833 0.002634244631694183 -0.0020714270584980586
544 0.00037104569326431707 -0.0003845073530849417 0.006351372758057102
547 -0.0015243400567402545 0.0033399312790830687 0.009070593043242547
548 0.0016491153548959406 0.005376467843516039 -0.0069247561302067
551 0.006104242103935783 -0.0016409800585738615 -0.002764176121307337
552 -0.006295269946181692 0.005051679434524636 -0.00039876782952038897
555 -0.0033075804393316163 -0.003075570705959002 -0.0005682795750214698
327 -0.014135952942977372 0.0023850647180200506 -0.010894095785104245
72 0.0009543225346196685 -0.005204036588557092 -0.0020341027621488465
562 -0.003015009936962554 0.005239889155688522 0.0020399631209732857
206 0.005079463853728014 0.0014781310158825322 -0.000810287025802798
481 0.022069007032968317 -0.0044133061234791745 0.018844235063287893
409 0.029396628534720207 -0.003463591184308576 0.0075841567288200094
768 -0.012291732468524094 -0.03421348831456295 -0.011157745855083665
573 -0.009518922607435865 0.002573101282569427 0.005373653229702076
574 -0.009627399135396097 0.011252613230053419 0.010495147776935276
575 -0.020776030108019584 -0.011528043851131826 -0.02721015984185445
1232 -0.017018876982061427 -0.030215396189593537 -0.003852959259976223
591 -0.003960185019412152 -0.0017598268143485675 -0.0016560165065874653
594 -0.0023929343593632186 0.001908690145808012 0.0035326076082615944
596 -0.004884213956221642 0.00030398923017285127 0.0010798996779077749
597 -0.002341795054539051 -0.0028697038207179744 0.0008683173067345483
600 -0.0003124534603285319 0.0002011364805049799 0.0036788694558818847
601 0.003729264475045735 0.0008836937524982312 0.0010455255770179914
604 -0.0032476274982298206 0.0002115592320231949 -0.003401808176585211
605 0.002195700277733201 0.0008871883431130395 0.0002164705607868245
608 0.0007599581191151818 -0.0009926347455663023 -0.002897092660736826
610 0.0072185731471949574 0.002010667756774264 -0.0022251935189385188
613 -0.0037123143587512557 -0.004383360427551943 0.0043773856784532035
614 0.006001181460166106 0.001988292103306147 0.0008851792251394127
617 -2.6264249118584656e-05 -0.00990199891336028 0.00014734147312590732
618 -0.0026334101685222227 0.0020917688115898187 0.0016541163904348509
621 -0.0004359041853351447 0.00310006621722226 0.004279176306933445
622 -0.0020588499685289963 -0.0026973318161510264 0.0035568713350488607
625 0.0003997222633444545 -0.0005781458479422482 -0.00682599870290844
628 0.005936755186551236 -0.0014240209525076776 0.002184428331140184
631 0.0015107600883597669 -0.0025100153739233025 -0.00130965313591698
632 -0.0009608199389332855 -0.002640369903065401 0.0030180727155386037
635 0.0018505089308484754 -0.008393152691154966 -0.0023055532623094863
636 0.002646177327659383 0.0051678318478284154 0.003498682506167996
639 0.005618855657119169 -0.0015697210161653148 -0.0018023112360678756
642 0.00438199365419001 -0.008997067866875303 -0.0006419997349845148
643 -0.0018952004063663786 -0.006550550224226169 -0.005376840512022922
852 -0.00010397085568240317 -0.001587710971462142 0.002540593737421997
237 -0.0031677072287513634 -0.0031734153683853003 0.001023851852337131
482 0.015000789179453855 -0.0019257424246688988 0.0017219775998066208
653 0.002389633294019848 0.0029513564421430744 -0.0050512740120239145
654 -0.0013335969656635045 -0.0018761435506734097 0.013692651411835824
655 -0.01495229262094141 0.02190816200789471 0.011914790485638642
736 0.0007737382466021989 0.0018743959823389398 -9.622565548264201e-05
671 -0.00543953309903227 -0.0028877957725083558 0.000404465300864937
674 0.0012601083058268166 -0.007041275172725344 0.002872724997687453
676 0.0024798320989398233 0.0005938761213101845 -0.007673029737991033
677 0.0015366688280240466 0.0021851247547004394 0.0044860073527749865
680 -0.0012768133195096452 -0.0034864400147489073 0.0037090808929054666
681 0.001142193366195773 0.0012427498112070176 0.0022856397400707624
684 0.0003930933542778007 0.0013508431369183204 -0.0022421019818166994
685 -0.0015756240285770542 0.0024635059538478605 0.0016976159426751196
688 0.003682738175124728 -0.003992741621244423 0.005372440040560496
690 0.0003913596774757651 0.002257255450276611 -0.002144396009617181
693 0.006521943197121787 -0.0033319733399883754 0.004351320153223811
694 -0.003733105282546004 0.0050429949589609405 -0.0012981402986176097
697 -0.0030712631838953498 -0.0004548518919098779 0.0021074304290691487
698 0.010966067714887456 -0.0005559045474351821 -0.0001186419251310982
701 0.004790161538253534 -0.0035756752057933988 0.007336276235587038
702 -0.003827679515239374 -0.00513100779897046 -0.005193894275660232
705 -0.0015134991428966595 -0.00031797990537602586 0.0010939937981093968
708 0.001395794491006131 -0.003926258282652689 -0.0015301229873843484
711 0.0023516390905899682 0.0027722679749509252 -0.0019667179048854363
712 -0.004797942195789656 0.004057940784394113 -0.0009975079547767925
715 0.0008048333272138543 -0.001993491023408123 0.0036024770636350558
716 -0.002396716824414893 0.0026703596222003535 -0.0059764615325909815
719 -0.0035300992000746835 0.002124972032885709 0.004045506963141489
722 -0.004245278847200343 0.006154891556770136 -7.274888097354053e-05
723 -0.023265861824929433 0.01832657380737805 -0.017193760895316504
626 -1.4491214007643992e-05 0.002725147975804683 -4.011255287457942e-05
479 0.004317014055413505 0.0020798212584817303 0.02810389987372552
1067 0.0019671588188554362 -0.019860518731808396 0.006277782705788766
733 -0.0006999108827857687 -0.0016216984135993104 0.00015800687164990176
734 0.017592908947502695 0.007249084885121928 0.011214718625274518
735 -0.0074543116409751566 0.010367565731544034 0.013055296487364493
505 0.004143768140912911 -0.02027247825043876 0.0415343312158637
763 0.0006913715545372956 -0.006254528170661525 -0.014328001560725473
764 0.049875875559196835 -0.044626870409621835 -0.0023894091265857804
765 0.004190886622367345 -0.014784606389277158 -0.00231386943777106
766 -0.01194178370951637 -0.003871401334328687 -0.01383640481843952
767 0.026727223669078808 0.00407777052991641 -0.007328197471122889
408 -0.0016353946816238794 -0.004096497286648808 -0.0007603955126052596
769 0.01880259572631435 -0.011136722734088736 0.009434586674050999
770 -0.02307472720850009 0.0024454075543104688 -0.001184555157217386
771 0.01146752896417897 -0.013106033819894634 0.014613108403102404
772 0.009053130432583344 -0.009597349286414094 -0.003151153359453548
773 0.026013914571351587 0.005598030085371564 0.0007813374522210644
1211 0.0005716363251513786 -0.004794574465858233 -0.001599739103172767
657 0.0014806321090501617 0.009999689323431307 -0.0031039796855914198
1047 -0.00592775840631594 -0.004018103772003993 -0.005229736808024196
458 0.00019857174281033685 0.0062641320258040555 0.003504236978566316
78 0.016640934309830647 0.001054534204747113 0.003028625372654248
292 -0.004411325243267037 0.012113418972639062 0.0005363906047151013
222 -0.005988353063311448 0.0031648211572974892 -0.005522701436737088
1312 -0.0009148216914607989 -0.0012899562983283836 -0.03269065876872044
122 -0.005124175508280219 -0.006315159863337106 0.0018086755045090015
876 0.0012027842651623044 -0.002265970707143032 -0.00030243667801845676
489 -0.005183515018297727 -0.001844043869151758 0.0006816868827757305
163 0.016426492022406362 0.01252383902318983 -0.006650667064168584
57 0.011631828407665972 0.00706682225634982 -0.010015565332107377
323 -0.0053094847792611284 0.006411373077748573 -0.00035967952110969506
142 -0.015079694864661266 0.005401043481937108 -0.004352199068296828
577 0.005154598788416966 -0.005897852704637744 -0.01010272697900154
542 0.004713835773431769 -0.0016962179926424646 -0.0028200290908155143
398 0.019590382231212743 -0.02475265154748263 -0.008902730470621982
40 -0.004154073913462741 -0.0015297663503072733 0.004374892597962357
504 0.0016279234184994435 0.0006590199374557276 1.9631027542282978e-05
153 0.005776069335872136 0.001679387633068133 0.0011262353506850168
162 -0.0019383435974123907 0.026729366155707385 0.004095685866998793
472 -0.0006630728293276831 -0.0021090906267454044 -0.00499854651162511
238 -0.004506588973705555 0.005226662347372401 0.022228957244254062
315 -0.010798636605029041 0.01200010587640901 -0.008429805721288671
670 -0.0020735030233205794 0.013528404014088478 0.010870289280211278
2 -0.0008562421521268706 0.002341822943333297 2.7357997759742566e-05
3 0.0013920262687541845 0.0026095082343170657 0.0039285036563117244
7 -0.001002890573427478 0.004495259440286272 0.0026567369667516326
168 0.002787129533033139 -0.0027966055548160093 -0.0005304466390310231
11 0.0006890433699527099 0.001463515193939939 0.0007867926157093181
14 -0.0009864731180667568 0.005760807647490344 -0.0018350348705379871
15 0.002778653760033615 -0.00036554423279024583 0.00030789367180560003
18 -0.0029385991614713663 0.007707930577605859 0.001598709449655723
19 0.0026347540919614792 0.0028512083331671055 0.0010665535065313297
21 -0.004044929291816104 -0.004151705122316237 0.0021239137111633685
24 0.00011377353571018591 0.00170575105453861 0.007380395681282911
713 -0.0006184246616507792 -0.0015109750706529025 -0.006169922962707411
28 0.001699504838738243 0.005456060186287752 -0.0045575821795873
31 0.002887208622954093 -0.0011338299567734448 -0.010993749631046618
32 -2.5411080027797304e-06 -0.004946219091411061 -0.009553692746975883
35 0.0017019183655135218 0.0001001239319557811 0.004380728772652867
36 -0.0008795265248727793 -0.0041265855443584866 0.002149023795654971
84 -0.013280082426063936 0.0030051721845458417 -0.0037460067973678814
41 -0.0006752821518486375 0.0012721484001178816 -0.0009974666835334206
44 0.002657678723797847 -0.003118216023587564 -0.001612211561724064
47 0.0008596000197584908 0.0031203241654351377 0.0015894464224914151
48 -0.00646473036812577 0.003077433520479795 -0.003852666730799568
51 0.007477700445406502 0.0016787476517055764 7.655047170647476e-05
52 0.00225900847146999 -0.002667353332898463 0.0021844891953945933
54 0.0032917508834519665 0.006289253954333325 -0.0017150261931191757
55 -0.009111101686743202 0.015321352505214918 -0.008245036413693526
588 -0.00019437177888039165 -0.0008097098301162388 -0.0025761969184529155
64 0.00026106570296314694 0.00888369282433845 0.004298394710882906
65 -0.0014631236770562988 0.00031588614883210417 0.003315545397686805
66 0.0022913140821567736 0.005541823427762333 0.002117968578254877
328 0.003216737502292899 0.011103512888550836 -0.010057537507645284
514 -0.001974187391032072 -0.004592489379169873 8.690209292671201e-06
73 0.004786810254875562 0.0004218159810923675 0.002117324403983421
74 0.021509788036830714 -0.009575204000779882 0.015822447881695793
75 0.016852143994668844 0.013534533873467048 0.005551795049052358
421 0.010403811783721873 -0.009260424652419113 0.0183239895650767
590 -0.00621115243141717 0.004884974395243507 0.03611282469536463
76 0.0025426225953290205 -0.0008525142580508371 0.0010309557807209122
79 -0.0041476540838127325 -0.0018218783045931047 -0.007942665090316573
80 0.01414982382329948 0.013178866144686698 0.009357506447676413
81 0.00014165778060596951 0.002622306623446946 -0.024795530335789743
82 -0.0002990082581866471 0.00632539505526309 -0.0018613466727292343
83 -0.008138071082224876 -4.885855866552377e-05 0.009992740012362286
667 -0.012516932474107848 0.0031436053044951355 -0.002475534632836178
88 -0.0009381715601302283 0.002002583619580961 0.0011993797039870472
89 0.002486087359205206 0.004322783520672095 0.0075518416660193535
91 -0.0016756477902154677 0.0006077025590315307 0.00040265167023042305
94 -0.0014436257569111098 0.0031199038178247977 0.0003023221686567963
95 0.0010174282656301179 0.0010585891503059283 0.003024722653579756
98 -0.0028280412612457237 -0.0019957236140318844 -0.0012772681165728508
99 -0.0008623773488580294 0.005042311048699668 0.005864344307351271
102 0.002839429973509899 -0.0007863306138024534 -0.0037504929057266293
103 0.00019283360207487788 0.0050511210221281504 0.0015381901984241313
105 0.001591001946011721 0.00025478967408575727 -0.00013508674465982393
108 0.0013649909481698308 0.0029086148175880046 0.007611852300987628
699 0.005865737153063806 -0.00519589118532454 0.0005305627403179471
112 0.007484455496175704 -0.0019774553215317703 0.0002698914886171578
115 -0.0016846632360418444 -0.0047312658434124424 -0.0036384830926778355
116 0.0003053177767119331 0.0023349718178966965 0.007912284119642909
119 -0.008459052848070638 -0.009612594933197004 0.00237920357152616
120 -0.006890360562654979 -0.00188007939702058 -0.0005788769790417741
749 -0.010877543406063537 0.0037147242340811854 -0.009984823048361539
123 0.009912066396849007 0.0030024547093093095 0.0014535075828695733
126 -0.0015586882688459372 -0.0015196080496467246 -0.00035663816906026654
129 -0.004875041260143956 0.0030611874047525903 0.0015813367298925345
130 -0.005120022720694806 0.0061381744475622795 -0.0005514007213936809
133 -0.00386481281449877 -0.0008993512327962281 0.006027983823924152
134 -3.70386632334742e-05 -0.006014358477090496 0.0021452784003795637
136 -0.0017553388612020398 0.00761060937555963 0.0006974730768172552
137 -0.01439779730721243 -0.009216167403623092 -0.007631271180919684
748 -0.0031379081286536993 -0.003998233487750298 -0.0030779472617771617
146 -0.0058224661136522474 0.0007246407154954691 0.004932335774426025
147 0.006586138536594956 0.00961385956759408 -0.0036519031355323668
148 -0.017691682467516304 0.008184377692082589 0.0047148203015579
666 -0.037792537975299495 -0.025126867075220157 0.015114208326891577
424 -0.006438501170745773 0.004366866005752993 0.0021578788971708704
155 -0.00011030488991395495 -0.006438898690510444 -0.0031471629552023484
156 -0.00011259051569522776 -0.007208993268413222 -0.004595412268980863
157 0.008187413563358125 0.015314480825886974 -0.002646067158849982
158 0.00479969706773461 -0.0018395231427220712 -0.0019309362977008423
159 -0.027218306033326978 0.030461985585258748 0.003462868743652769
673 -0.006236121570879717 -0.0066198289527506825 0.0027121011172365817
430 0.004303382009050302 0.0006129437961031216 0.0010433289353240927
669 -0.008782123591403243 0.01024938304216323 -0.023807793909890372
682 -0.00032380634503806723 -0.00045343124136145574 0.0006270400864611258
164 -0.0006981100932676946 0.0004219245228090432 0.0017863319497222613
165 0.00900699199702654 0.025390539092100154 0.002138936838597714
586 -0.008829234320929526 -0.014487537117675366 -0.01977307807029497
672 0.004838256801721201 -0.0007148563345237986 -0.00026689774979721573
169 5.525346621565334e-05 -0.007162670884358359 0.003641131629056539
173 0.0009452296604012723 0.0001556290660282126 -0.006467753180419017
176 0.0024491432854512087 0.003607148129416732 0.0055113769477188376
177 -9.834404817808371e-05 -0.0013072402705409539 -0.0015188235867592001
180 -5.4374909854750066e-05 0.0007864552806976559 0.0030828953785375216
181 0.0011153415320066466 -0.0005623329898510698 0.0014864224518608682
184 -0.005011078212288663 -0.002050670746808996 -0.003463347668509077
185 -0.00017079370820698958 -0.0003057250895699068 0.002386383805291621
187 0.0006584920676069609 -0.004934399070277738 0.002185057407426597
190 0.0021778682541344634 -0.00019908892548797414 0.0013371879080620347
707 -0.00481819469155524 -0.0034281329472451954 -0.002408799664169583
194 0.0049423357474416485 -0.0022465519826173406 0.004631508889725915
197 0.006915804965288821 0.0009974712001994102 -0.0002700638162109616
198 0.006611493668393517 -0.006065322381433657 -0.0015254717590722296
201 -0.003883302238361815 0.004984260961983019 0.0021480512837518642
202 0.0029178556583064497 0.0014178285068503853 -0.008264512183346479
721 -0.001216113892442431 -0.0009044033269076846 0.009464937037072378
207 0.008597126870802043 -0.0015248524545246615 -0.003135577666051943
210 -0.00041832091281748227 -0.0029410503459156023 -0.008688054001805032
213 -0.00023014125389100645 -0.0034642602084735425 0.00012085215951398701
214 -0.0017993244067981498 0.001892409528122919 0.002406585101239756
217 -0.003936123879359058 0.0018882865732658225 -0.0022766187658639146
218 0.0067944903334071285 0.0039521614612919665 -0.005031050883760676
220 0.00216381627959773 -0.00047382532542580033 0.0001734884105611801
221 0.007808218602224711 -0.015300904270761128 -0.007138306701587859
747 0.014915729665684432 0.0022804153906117353 0.0016350255920053191
230 0.004482366741418823 0.0012193469455750278 0.0035708348581628808
231 -0.011018467149106283 0.02783526408295664 0.009043727395393216
232 0.032344796483987935 0.004701164799649013 -0.0008306381527684751
731 -0.017434979992013464 0.012352661572507723 0.009230669802464625
615 -0.0014308121906477951 -0.0035587497450500593 0.0005749594504060136
239 1.852568354772176e-05 -0.004847718566613412 -0.0002362369825297561
240 -0.01100347066549109 -0.013349609012035371 -0.006887949332358055
241 0.022441890318021202 0.02829661772575255 -0.026277730748817833
242 0.004888025241834466 -0.0007938158929090963 -0.007375913142506054
243 -0.022380089154824305 -0.013143103128113225 -0.018113589631387237
77 -0.014318781121849618 -0.0020353003684899116 0.004344684457345753
245 0.003221135305430166 0.007309903109384943 0.0015586935380125539
350 0.005743232289850313 0.0014885306768022393 -0.001800486844943196
247 0.013310975376924418 0.010541695483822234 0.04323763480267851
248 0.00442371882133175 0.004439936455939819 -0.006536754360229974
249 0.00041290431718294876 -0.010398752966129425 0.02784602169875015
250 -0.010224643402531096 -0.00589769948317373 -0.009775803722472668
254 0.00647077874988828 -0.0003746911385200303 0.004445951719618915
255 -0.004380575970215955 0.004084722330696068 0.0017704061002114513
259 0.0003068427501468041 0.0027135107380210754 -0.004867403200791813
531 -0.00420988377705185 -0.004047064034310979 1.6564476887565447e-05
263 -0.0008612117799134641 0.0015815750460533335 0.0014220238910008368
266 -9.793634002160956e-05 -0.0024155504265922522 0.003735003713240882
267 -0.00044338386059935376 -0.0004269660798878099 -0.0005819862729236173
270 0.004433695653725767 0.0009421082325259356 -0.0028974937371333853
271 -0.006291571271268415 2.6898051225463855e-05 0.0011421827135891648
273 -0.0008345046527317712 -0.0036579794548161097 -0.0020154654262149537
276 0.0011985766723022595 0.0005839129588690203 -0.0027740149999986633
333 0.006423596837972102 0.0032030387871557773 -0.02739118225192174
280 0.0012056012938350437 0.00337076902373054 0.0016752993803316773
283 0.005732504814224486 -0.0014303690650916733 -0.004853464255761301
284 -0.0019498142623374079 -0.004609753331709038 0.006267204466230743
287 0.006346294106790619 -0.006761440811406487 -0.00412418518118252
288 -0.0018932079371512033 0.0005040605969138458 -0.000187067631053035
746 0.00877188702167855 0.008739211677074867 0.001537290454199678
293 -0.0010827582345909054 -0.0035849122016007617 -0.004909148781486006
296 0.005649091053099783 -0.0005175478192141747 -0.0012771667794022085
299 -0.0037084972810951453 0.00818726793837149 0.007314333254934505
300 0.0007213447116604751 0.0006333137544957581 -0.003108258228901184
303 0.0011626553736401057 -0.003854565058154605 0.000248577885089055
304 0.002167322439533061 0.014292714699104024 0.00229767820492905
310 -0.0017956934937125872 -0.0025670521863858974 0.006634658120253259
311 -0.01104764931893575 -0.010778226633170285 0.010663025743506851
745 0.002990339782871059 -0.0008911320743874565 0.0063681587035368655
320 0.00892107549771589 0.00503224621619658 -0.0026509034050605325
321 -0.024759055088472603 -0.004537044455785719 -0.0053091327962345985
322 0.02197229121412031 0.00646639784147273 -0.0012864275037783516
678 0.0026763342995183353 0.0023869243736220317 0.0013415798422768935
720 0.0016328292269796288 0.00012117586144480845 0.0006530917171703305
329 -0.0029824642813418532 -0.0018625732868464482 -0.006483697886130516
330 0.01543971616259103 -0.002061091447880454 -0.012193460124221876
331 -0.0030794971248287823 -0.004011982492718418 -0.01616750230231607
332 -0.0014387817369381569 0.005265544048771071 0.004451160677047482
166 0.033285125344095515 0.015469338890705382 -0.015057875492256931
499 -0.005133514131100781 -0.00157800623626799 -0.02133826057314272
335 0.005850915117259192 -0.0022942832797133005 -0.008219026480946837
336 0.003484275245465024 -0.008378091575145921 -0.0032959522666025608
337 0.005108757639240083 -0.002148210550474441 -0.00028904238225005256
679 0.0028160665829302803 0.004217616518367446 0.003978984880096502
339 0.00319039529572263 -0.0027408129920806876 0.011379216828576517
71 0.002949858890663267 0.02733883918492868 0.020206035360794537
344 0.0038429290260261766 0.0033716064451470105 -0.004284589511087762
345 0.003948527746234493 0.002091160897530289 -0.004870554961417242
347 -0.001105870638217624 0.002194214700149568 -0.001436641206086027
696 7.893465438653742e-05 0.0054866745428125314 -0.002485729259716315
351 -0.00013698747677411255 -0.0014922370225890786 0.0008498699378987873
354 -0.003350707546389358 0.0014621517153728702 0.002647498038417929
355 0.002868841700460732 0.00028949232673057746 0.0012581206018291472
358 -0.0012110751388871583 -0.0022571078772835357 0.0044058716860177205
359 0.0024986273804786185 0.0034572049634151044 -0.004814440223046343
361 -0.0018978324607148826 0.0044602955294048025 0.0008865629382709848
364 -0.0018930986043150238 -0.0036601465406897226 0.006170331435237944
718 0.005000289065252292 -0.0004376009012495742 0.002202998708188315
368 0.008411066066397905 0.005441835961250482 -0.004218656208358146
371 0.002152986260602836 -0.000643793458644604 -0.005849579310896352
372 0.0038869461110928676 -0.000829704958916733 0.004758570902986744
375 0.0009871685263497549 -0.00010624153528558664 -0.005207505007434204
376 -0.002422965261988072 -0.002951969694356499 -0.0064105615158818645
675 -0.0025932391299916023 0.0032393112965701555 -0.0010294429476343323
379 0.0006036938970932851 0.0020705575625892024 -0.0019367719240736328
382 0.0014868204127159359 -0.002287009517290018 -0.0005777799767298273
385 0.0004881102849076325 0.0013308169649867893 -0.002663417469931871
386 0.005172628366545239 0.006538012849738115 0.00446955944254042
389 0.00553370502439658 -0.008512867006483148 -0.0060343407777524284
390 0.00020556492702002854 0.0075606988865376795 -0.0016674833327249507
392 0.0034770802774468567 -0.0018018524204533996 0.006548866097778971
393 0.0006958929450608109 -0.00873718131906493 -0.013059381209692578
418 -0.008580071810255874 -0.0014604830470682755 -0.00013191630592923446
402 -0.005064385727174322 0.007177364146875242 0.002783914368459129
403 -0.008014970049235012 0.010498739341510546 0.005933999804726085
404 -0.011725405205371322 0.005157485308829503 -0.00939267458292121
732 0.010234527183899611 0.030375353671854313 0.030686877969093
704 0.0055788076530978 0.004596098784159087 0.0005930154363281745
411 0.001840516486682349 -0.008058024628817837 0.002192417099543843
412 -0.010206351060352774 -0.010324483385856271 -0.017457831472788912
413 0.01801428623268094 -0.013252789562237157 -0.0020695677666885495
414 -0.0025528180325277584 1.785897850886345e-06 -0.007286920607023727
415 -0.0005791235684558365 -0.001807478142018596 0.010072494091116258
416 0.014165997069961475 -0.006865326808601775 -0.005572560793270759
417 -0.009418802103457259 -0.000388881928087685 0.0033231713674834185
493 0.01530036201735935 -0.002648859677284295 -0.014607145968535093
419 -0.008569421720550842 0.0020830726099397927 -0.001591807424599469
420 -0.002175880991772981 0.005539734461959453 0.0002419233768858166
665 0.0011451715924181158 0.000451866988283549 -0.0018611397067320435
422 -0.019057895706325486 -0.021781293804213824 0.005141601750112166
326 0.0016458349418527489 0.0003458839271971265 -0.006609419525829246
425 0.0013647544692371606 -0.00011021275404212447 -0.003519093262197557
427 -0.005088857543319549 -0.0006699131755287077 0.001575680722286418
494 0.0014090820122300205 -0.024015160223907178 -0.021330182412022954
431 0.004395445968295341 0.00087266175579916 -0.005009947686814176
434 -0.001302118323996749 0.0006283243993096729 0.004440536022390933
435 -0.0021982889306074046 -0.004030297939714351 0.002499973916495543
438 0.00034090781757516566 0.0003987681649895855 -0.004685295023858839
439 0.0012687388672686882 -0.0009047724101429525 -0.005906961523910698
441 0.004926845806119551 0.0032448530503542293 -0.0034336591707180256
444 0.007583038173567436 0.008493672159318448 -0.007858301213228315
717 0.0022482633977541004 -0.007076869413827109 0.002794997153315886
448 0.0031290178465706135 -0.0054562916568541365 -0.006066389066378262
451 0.0006512240387721495 -0.0025489063185667508 0.001454304240022026
452 -0.005550469784430855 -0.009314200348823088 0.002688771213527885
455 -0.005943788747260248 -0.001698631477180361 -0.00648250774996778
456 -0.00035470826364663726 0.0009211028220271792 0.0041251618421750385
740 0.0016279859163896 0.011497740783594461 -0.021067991453823286
459 0.002413224812751237 0.0007129823923679362 0.003142744116529975
462 -0.012569126414272769 0.0031300785647700616 0.005862114052259142
465 -0.0042867917901379705 0.0003100546473389767 0.009729058672992147
466 -0.004661258323039619 0.006388538182247875 0.0054558267695726855
469 0.0018254428990744718 -0.0006768085428154076 -0.001128970058062358
470 0.003501201178262342 0.0002451611511853658 0.005602841346815118
476 -0.0015191576708725057 0.009524079025575383 0.000549155073383964
477 0.0010242568597475243 0.004104602888521686 -0.00528263282078869
743 -0.013477018245827501 0.008682127577259188 -0.004807672961435984
486 -0.00025311784700616163 0.003418552042955547 0.0017208688516529627
487 0.02545953102152555 -0.017005791529625704 0.001385680046264643
488 -0.025059234435471284 0.0103678549293352 0.018605482697321842
730 -0.003966618398882978 0.0004021951746958442 0.0034679671615732684
710 0.003900711942641629 0.00037605607969559636 -0.0018101024825782957
495 -0.001152414831079754 0.0013574182705273256 0.005528905121226319
496 -0.020193485361328624 0.013328407134629674 -0.007014065587170078
497 0.007594580751795975 -0.013001628613550616 -0.002056108642302984
498 0.0016535369650499507 -9.676022389832619e-05 0.0010754282711219574
668 -0.004710337076162953 -0.001146495688129929 -0.004504149152120294
500 0.0024774597715978156 -0.0034045834430560906 -0.0073218458873610835
501 -0.00476254236770108 -0.0019460440427413635 -0.0007026000477663561
502 0.0035391376594242417 -0.007204979144557334 0.0020690040019736913
503 -0.0038778435977735713 -0.008808667838689424 0.005626393385561523
683 -0.00388141173420001 -0.002850346853800105 0.0022689334498415827
686 -0.003849908692375097 -0.000986687875774077 -0.004846517813585454
10 -0.0002642154084764231 0.0012036801707229088 -0.008641625534020491
508 0.0022626665741103417 -0.001802657971067502 -0.005128727768908638
509 -0.002653822923948702 0.0021854672453883416 -0.003923059402045283
511 -0.006808743178535707 0.0007181231425738348 -0.006422079929810275
744 0.016021940370031237 -0.006489260711913917 0.007577899211449783
515 0.001988898449076507 0.002907137746070148 0.010549293804843173
518 -0.001314858736050271 5.5313378739479595e-05 -0.00134871643934664
519 -0.005237365356410548 -0.0045576324007695415 0.0023051721948999355
522 -0.002478986648630142 0.00024535451217142537 -0.002267973208012063
523 0.003927181825488133 0.002591321508433898 5.691095096884841e-05
525 -0.0032349405881442516 0.0037612998769802645 0.0036686563797412785
528 0.0014513843218729645 -0.002858616222540575 0.0027499551549111795
703 -0.004339317605538835 0.0016664311543306244 -0.0038483031218793803
532 -0.0013964167426623883 0.0016134667852709486 0.007312257628105391
535 -0.0054262186879503035 0.0014463136946885886 0.004746529868742503
536 -0.006308812424112987 0.007091367337699504 -0.007393808940441527
539 0.0025896833999346776 0.004225323844083146 0.0007634582082911902
540 -0.002779128283971489 0.004837868493315751 0.002048245348852654
246 -0.029746555564507726 0.015439016253619082 -0.007457992512318042
543 -0.0014075285537655448 -0.0007175037727026284 0.0066523129580438375
546 -0.0074288784547838025 3.341556958399115e-05 -0.005994562977299258
549 0.0024137149533846667 -0.004170904379370249 -0.00013662772511631558
550 0.0027113877050210606 -0.007756915061594303 -0.0005656422213763068
553 0.00027754386722265387 0.005069258102996193 0.009609559617884181
554 2.467620184488933e-05 0.007147444267835155 -0.007573100474244024
560 0.005096848607781804 0.0047026879275028095 0.002061362201162113
561 -0.014065143286422482 0.020792104993443104 -0.017958688499478626
742 0.0005093761780340216 0.0009207578402804253 -0.0015169028193044768
570 -0.0010784346335081774 -0.0020648793516221636 -0.001791556123258724
571 0.016830808066730082 0.003912914970221214 -0.026305996402762655
572 0.023719345873847247 -0.009888653417010587 -0.011956493307143254
714 0.0063465275646700185 0.002347882353210127 0.001441879217196239
739 -9.618232983953632e-06 0.006599954436537965 0.0004492936628105418
579 -0.00328032207707723 -0.001844453010827575 -0.005329226368151841
580 -0.004693055734974327 -0.013512932134532887 0.003872344241935421
581 0.018636241547752612 -0.009410418082922888 -0.005616651507949688
587 0.019761167492713637 0.026394571520056646 -0.010475525772341765
583 0.008993178367481916 -0.005916300713253338 0.028510375867600385
584 0.0008673546338947313 -0.024690614115295773 -0.003690697240299395
585 0.0033877189862073554 0.0023359786223600236 -0.0032077463882633902
279 -0.0019275353241953149 -0.0015564926178809587 -0.0016793453862585285
160 -0.03398289395780419 0.013499773504692126 0.014890190675010238
578 0.024408505560167937 0.009904510894028008 5.635843141602013e-06
589 -0.007368427786996541 0.013764969533519314 -0.020332095258538005
687 -0.0008461656642704557 0.003333577717955183 -0.002906892230584932
592 -0.005830746456510763 -0.0006394252172910735 0.005238131928030446
593 -0.0023231985371562113 0.001554681665773361 -0.002771287170104387
595 0.0022403041314540007 -0.003222221441620471 -0.0009334010351728944
492 0.002586718181786169 0.0016579583831522193 -0.010093762999140473
599 0.007204654456210124 -0.004143134041641873 -0.0036293171696187097
602 0.002445856709196055 -0.003394394330313142 0.0011240079892605032
603 -9.492813239604844e-05 0.0007565615034020464 0.00244977165307153
606 -0.006855560168154825 0.003530465109556053 0.00044403791964371843
607 0.0019289487463302725 0.005958446955837179 0.0005150730673366585
609 0.001880616969866503 -0.0010662361708387072 0.0015759516595668173
612 -0.005418033738600532 0.0032302058037458757 -0.0026926152521597876
700 0.00036214824965125975 0.002843609823904773 -0.0009552629379119005
616 0.0023568511463915812 0.004188157934330376 -0.0025863227444113367
619 0.004706835005331068 0.00447616748865536 0.005790513836371577
620 4.873686904408473e-05 -0.003488537780566317 -0.0050774311130879
623 0.0014450762113200582 -0.0002985738626104916 -0.008280602569110415
624 0.0042980742876087925 -0.0020002457121728765 0.0037615985793551404
692 0.0008790921003950102 -0.002107085140991515 -0.0030767116551792296
627 0.0042807959297840445 -0.0003459754180132587 -0.009336493011017324
630 -8.34537155086068e-05 0.004775750121204878 0.0003686206828052257
633 0.002851055860229299 0.005228765446103566 0.0028832215568351856
634 0.0017418864977068798 0.003016773913283264 -0.0011322385214829957
637 -0.0034677888086037177 -0.0026776105957897257 0.001475215144340192
638 0.0025681204793171672 0.00892529124522425 -0.002116110592702182
640 -0.011049381910050471 -0.0030617647583940292 -0.0005738845164287221
641 0.00768548607651837 -0.010856167345820516 0.00525660633260489
741 0.011081475470737628 0.026280690138324028 0.033591786846699945
650 0.004595430437592417 -0.0011803312955359613 -0.005100194555175604
651 -0.032793072227851126 -0.0011452230907951864 0.004071160528675033
652 0.014915969138317194 0.023347509104076763 0.0005187379880050036
689 -0.0010328535772013362 -0.003352549306692338 -0.000683981425778405
262 0.002625724699600463 -0.0016401543745099023 0.0016241203533493272
659 -0.006680283361342501 0.0012170892742273667 -0.006157533116873549
660 0.02011348486418866 -0.0031869492997394313 0.022162567415825257
661 0.007080617837272034 0.004924374998714558 -0.0019746039578724187
662 0.0011416333847921686 0.0034610277525517815 -0.004958471493331995
663 -0.009456291150318822 0.01171700851830715 0.024830527639292582
664 -0.022016959731621447 -0.017398845378564492 -0.0106119853359973
598 -0.001193872264484546 0.005558158330198143 -0.0017782103033137024
334 0.002395681012427548 -0.005696877339220258 0.0009230081352096937
244 0.0054277444413194115 -0.020735873036097193 -0.015987061220107013
111 -0.005135414185179542 0.002932541772632184 0.004233386591628204
338 -0.006143815519746223 0.00037657060576163596 0.007606744101359269
325 0.012635275754836361 -0.0038304025090810366 -0.004549217901004048
506 0.004859962149110357 -0.03274165367490028 -0.015880284002024143
223 -0.01076348154617258 -0.022351336974281485 -0.01826685151190228
656 0.0045461852264762 0.0022641428651918915 0.008135211971368971
410 -0.001892604091884333 -0.020759443257649102 0.010818308039225247
695 0.0027286216413092753 0.00326048496286146 -0.0016448753987996808
658 0.011520495696634598 0.022662944739965284 -0.0017657672462152202
340 0.02362404520159396 0.006340920721444866 0.037196379126496044
70 -0.0010767761008666566 0.0029856462954441785 0.005833868752371507
6 0.0037903192011548544 -0.0012199866925294285 -0.0009832757632555617
23 -0.0012392297285644387 -0.005528198657361276 -0.00024811805543545297
38 0.0032366194512367472 0.0018320274740275385 0.007020990772622993
43 0.005041095321864808 -0.002311352472642124 0.001546709472508271
61 0.0018449075697670532 -0.0027505417944501368 0.003031329295004592
62 0.01213654804352462 -0.02307390974526162 -0.007895557421014375
85 -0.009999848890626632 -0.013527560273968975 0.002408132764507329
107 -0.007397721828289626 -0.001848601415211994 0.0022238897620872355
125 0.003818627602398496 0.00485491688252812 0.0012057058664417177
143 0.0033673517305675424 0.005253366812852718 0.0024259897816450464
144 0.01636938123062192 0.00035924870251341176 -0.016327059521417994
172 -0.0008845700852708509 -0.00743456239059171 -0.002034349713936155
189 0.0009696255001202285 -0.0054598899752874965 -0.006562566311928702
204 0.004266808185370086 0.0018027862156006127 0.0008653219110594087
209 -0.006965947661379482 0.0010012531129362648 -0.007186940091337324
227 -0.004112289046417675 0.0021676643754857043 -0.0015050591021357038
228 0.00414443354875676 -0.01650224809059722 0.0015629162717516543
251 0.00012157284335215986 0.005733769083943491 0.012252751912775446
258 -0.0009425552720816162 0.0006886792483480327 -0.0011515838126186187
275 -0.004299955140447283 0.0015810796110256457 -0.0005124930345484786
290 -0.005357596709167591 -0.0031541399815817007 -0.0029092093674945923
295 0.006867136702125785 0.001880265707025305 -0.0016304507259760886
308 -0.0029887100266002722 0.0009736136037270995 -0.00326715401135735
309 0.037430631844884855 0.030131671822056096 -0.0010977637952825385
317 -0.0008692521328443561 -0.0010560504723219376 -0.0032584549888185093
318 -0.04059661137539505 -0.012527230672636084 -0.0016686294055861717
341 0.014941867254115901 0.007339418731210743 -0.016453369188043965
363 0.002501472279250239 -0.0022877330687232824 -0.0009592017240725899
381 0.002071823212942673 0.00318369636210315 -0.001366357927146584
399 -0.005851963876340132 -0.004895347032426043 -0.0011511669152890383
400 0.01377060268414537 0.011355121395479666 0.01110920412527018
443 0.002423556400331963 -0.0014439362926547182 0.0020610473547540763
461 -0.004533140626415292 -5.576336222185311e-05 0.00096164729995742
474 0.007965999806788911 0.0022147070737003273 -0.002573946192915859
475 0.015149817854254557 -0.013840206108395385 -0.01200640732265272
483 0.006198683535385768 0.001044589165343482 0.0024991651077492546
484 0.02824640048040196 0.009365716005394374 -0.018059511686169066
527 0.0018998318948528293 0.007528743926464086 0.0014128681855173659
545 0.0011764082117807812 0.000525334006464568 -0.0011407368893722178
558 -0.0023710326002841886 0.0033965856016100215 0.005844417450025185
559 -0.003538481652340406 -0.009402130220397119 -0.004337121355715258
567 -0.005096050955926209 -0.002328328187000053 -0.004371056805435365
568 0.024167069970826963 0.00025630935563545384 0.009951914840664435
611 -0.0025308122723457695 0.0020136658567021333 -0.0023898029731799024
629 0.002531197421079765 0.0047216530070505035 -0.005202058230665309
647 -0.0017484556232957393 0.000261401712843838 0.001026418060820453
648 -0.03088410977684943 0.006132635955717185 0.010033588844452683
691 0.002168688080658978 -0.006867860900715443 0.003982860475842139
709 -0.0013150696237065596 0.008781146486738202 -0.0029615551227749953
727 0.0002829786657034758 0.005647988160796859 0.001214077154432384
728 -0.003554814053714609 0.02123860186649426 0.0009706675102555287
751 -0.00018973601028472994 -0.0017154142926079348 0.028142706615640396
752 0.02889277672787441 0.0018351612080891994 -0.005456595428091021
753 -0.0204521925553645 0.009605552571922783 0.01159827395424716
754 -0.018957115820465036 0.02739126074510257 0.015974348536748187
755 0.024108355371206126 -0.003213543146861203 -0.008106821464029804
756 0.005916776302965509 0.0026085039911595883 -0.007715364530957819
757 0.015470414552930536 -0.004303994232542383 0.0009039574305135853
758 -0.0102439281696954 -0.009280254485532212 -0.01550894952310612
759 0.03322022789491709 0.009531394416508762 0.030175811574527436
760 0.01071201396683017 0.012201183437329724 0.0011642306083833479
761 -0.002910833536447533 0.0043020182118314945 0.01947230821605771
762 -0.01292902494269891 2.3704836241577797e-05 -0.0036546837758889123
1368 0.001405797301114955 0.0007927777291320716 0.008258537479393434
1372 0.012544917123871574 0.003963286363458115 0.013506263939378425
1925 -0.002036515499426746 0.017752589552857724 -0.01529105949551972
799 -0.00938004220857556 -0.011051518450145752 -0.009453916603349191
800 -0.011764425358484267 -0.017224931919963504 -0.003710843179284214
801 -0.0017584834077001331 -0.004751789550911298 0.00917349551131791
817 0.007980384857095332 -1.7307630394562413e-05 0.019660392402372297
1945 -0.01587984259944896 0.036887113540336164 0.008529527507701147
819 0.008904703587458433 -0.00362736884483465 -0.002233473390151321
820 0.004436065007070819 -0.0037317360854187106 0.009687427072558263
821 -0.01636547531803729 -0.02693930779762822 -0.0030150100116862685
822 -0.0053547915838854385 -0.0031039195617543714 0.006649792689304541
838 0.0028391796827722184 0.020125805260902258 -0.009071188116969981
1874 -0.004830411035963419 -0.02487459737669422 0.020971417464845207
840 -0.0010873122751640391 -0.0015941916782521177 0.001542761960732349
871 0.0055204252250461985 0.04235280144733956 0.030392034506772993
872 0.007165192107995334 -0.02127554388180922 0.004310961128233874
873 0.0017587431477523938 -0.0009636817015246649 -0.006282420193352547
877 -0.004612640225820047 -0.010167545960283108 -0.018923579019813938
878 0.027630586601622188 0.0038110092747575043 0.01810948332969853
879 -0.0014244275180100058 -0.002846710282868232 0.00450130607933227
880 0.017328210798443575 -0.014215359923056876 0.026280857543448197
1790 -0.010516714832159817 0.021670507320876928 -0.0025287153136835504
1724 -0.005591239255678955 -0.008233828705489186 0.018481931603855244
895 0.05390041489527017 -0.012685690147775494 -0.004048297284791944
896 0.00984443761240849 0.024977656636942496 0.01257023435812433
897 -0.004236349473041804 -0.002762295640590316 0.004473192482240256
1892 -0.011899273570838143 -0.000837604463216003 -0.00687349588947828
902 -0.01243747324577509 -0.007347073209761123 -0.008009887322644292
891 0.0020217260822258856 -0.002922254052528726 -0.004097450959530126
1868 -0.009669498532818843 0.009127044567943344 0.017525828560426015
1096 -0.0027534632176457133 0.0016050490409134687 -0.0073075649408550335
1183 0.024339664949587628 0.00677917105758434 0.038243478483575025
919 0.0026688976393908215 0.002754669953379972 0.003949891708684829
920 0.013298835137541395 -0.014369382629010623 0.010891967895447252
921 0.005922052491739303 0.005704993760915412 0.0014726088998077672
925 -0.006626658984032582 -0.032055355137291984 -0.016657860720292225
926 -0.04335997689538567 -0.0048002169376787215 -0.012785793227607162
927 0.0013922699199397839 0.00047787847922089446 0.006741307927138091
1264 -0.019583947628803503 0.03231928798031272 0.013453760645987094
1902 -0.005187837730606881 -0.0017422764191833558 0.0003800354491280944
1924 -0.02479753439147782 0.001953020748961052 0.001907656656005025
982 -0.029135552066202993 -0.013289919040171343 -0.021765746894062094
983 0.0029101960585161987 -0.017608723821036162 0.013958275465008534
984 -0.005765393326469325 0.002900235780742215 0.005011185495293422
988 -0.031792314037400037 0.017344480060281064 -0.019111429161333467
989 -0.04366807863300333 0.00449580454590567 6.951031460665746e-07
990 0.0037122445737269856 -0.0023350920171480234 -0.002230455068465849
1901 -0.023035400093322157 -0.0014496559137775601 0.028192723496510697
998 0.017398236818035078 -0.0028509148250530666 -0.006922065384252416
1974 0.0021985562426261687 -0.004546626427805811 0.0029409600415359134
1018 -0.0021059607430385166 0.01392513730782188 -0.005128300352702275
1019 -0.017207719204008144 -0.0049920278245324965 0.012035072469318779
1020 0.003652838513933197 0.0009487324087106244 -0.0014346084119963567
1024 -0.006709432277639093 -0.018890573326498336 0.00224961494390043
1025 -0.002389959257824701 0.009457912825428424 0.006000493194856827
1026 -0.005207589842578601 -0.005357335355276947 -0.0011033086903679947
1033 -0.002516014610392631 0.009468766621392387 -0.009653603318462755
1034 -0.026746138838349757 -0.029598569071068375 -0.0098746818755369
1035 0.006957522069920995 0.0007203828745110284 -5.6148803831844686e-05
1042 -0.02090181614179953 -0.022226628060897043 -0.0018457287119126855
1043 1.5900882192688865e-05 -0.0030322447994997385 0.009202847984802967
1044 0.0013648457725370397 -0.010390741143655359 -0.0027534387932114015
1052 0.00883874665320634 0.008002071755078666 0.001525120445832747
1761 -0.00498334005833692 0.006816274070788236 0.008128336637446217
1946 -0.02796767219590044 -0.03945640825987389 0.0038345726328722607
1060 -0.02802633104835548 8.298506136816644e-05 0.004017420851731243
1061 -0.009917003766352605 -0.0037742540063093965 0.01230284508919992
1062 -0.008622897177567226 -0.0022885489245166716 0.005121873228957409
1075 -0.004158018820393563 0.036450545867006245 -0.014567257879488742
1076 -0.0293864926916702 0.013461528705139801 -0.002964364348477534
1077 -0.006019167411306961 -0.0021765357023128375 0.003118082809218615
1225 -0.0001115965014547608 0.008720113917235338 0.004178986414575873
890 -0.010557065831843676 -0.007725039897892772 0.036719614742593214
1330 -0.008466494220455215 0.004275398498183851 -0.002344791355754913
1147 0.00887978607180068 0.0005363792052998971 0.0029926504573653287
1148 0.009467670847653376 0.0033046227483753054 -0.010309046470037594
1149 0.0019581852681585738 -0.001278359352943404 0.003489382870656804
1165 0.016195186750241602 -0.014995215577912153 -0.011522659119367862
1166 0.029337913893316345 -0.01131315047131429 -0.0077667676911702946
1167 -0.005134516654298736 0.002064797422531676 -0.0010967234402179773
1587 0.004834018486105365 -0.002320506711273848 -0.013638735397765504
63 -0.011003017311133378 0.015148119182866883 0.03477158734254895
1973 -0.017681532086921598 0.022289388316651136 -0.004881878076576949
145 0.0038621115784458503 -0.009986377077640305 0.0001452752247381789
447 -0.006256289561784549 0.008314247817102766 0.0026015697931515923
1098 -0.0010876298209217487 0.0015010037517872391 0.000616656313973736
1972 -0.007876910269754024 0.038654252765113035 -0.021479044338133448
1968 0.002796409777728579 -0.002069672685846842 0.0014287924006525727
1759 0.008110953559488286 0.004746070408062238 0.031000176537891996
839 -0.00253047676858686 0.0022063305719022745 0.003450112266868398
1875 0.0037575298434259284 0.000996993919294132 -0.0040345772045428325
1908 -0.003477575691140225 -0.005105771079443359 0.0008697386372102535
997 0.005649581438682618 -0.010438802229574008 -0.0017930678965250525
1877 -0.00966771656147023 0.007455175607516111 0.008804856583250375
790 -0.0017842637321886312 -7.764633376882002e-05 0.01908517916611931
992 -0.0031386199929448405 0.017568292147981293 0.020602295676229683
1214 -0.009374813525248018 0.010993789139672272 -0.004908231681525035
1215 0.01057899374913235 -0.00503462053643198 -0.005091510241288231
729 0.01743714524041792 -0.0007055746357637858 0.027223505651401973
1900 0.004601304513528965 -0.007312145676697646 -0.027162144565144826
1959 -0.007779089040638613 0.0008461792899400804 -0.003765094217450719
1891 -0.0005218347316133885 -0.017069918166780263 -0.025751487323708452
229 0.012554133341267058 0.02835920819535607 -0.009608572937301437
1958 -0.00819596998330274 0.013681019215390033 -0.00572366580084426
1765 0.03234094325623995 0.0081068827436079 0.004177521056442423
1966 -0.013499812133015258 0.025982066026124028 -0.017243342897927894
792 -0.008950476589924289 -6.735956772308862e-05 0.0048364055630921
1255 -0.0011073396439381501 -0.001698436295743688 -0.0150078821776453
1256 0.018147314549029667 -0.02922197413566537 0.0020725875593638884
1257 0.004123111552792587 0.0028142809630766247 0.001465095333708467
1789 0.014313629226317869 -0.014045620751750766 0.002524763261853878
1188 0.003284039107508323 -0.003442206341363616 0.004971632004500284
1237 -0.002022071330647673 -0.0011464928450394534 0.016366875850812715
963 0.0019372011506062433 -0.0030103381244301923 0.0029991135905004223
1411 0.008486119294711974 -0.005224978094523715 0.0025185530378172304
1887 -9.926428464792262e-06 0.0005124325466931574 0.006525568897900385
1213 -0.015530645898141793 -0.002644574982297637 0.005583342613184696
901 -0.007324560699196743 -0.016884829742204517 0.007670386710006588
1187 -0.025321391582798822 -0.01497373757956437 -0.008891397478147822
1276 0.006621517979629497 -0.01796066961490435 -0.01966397619546863
1277 -0.004424816734330106 -0.03468244168326167 -0.007521662524587445
1278 -0.0021631990494898955 -0.002698242249058943 -0.012454802901570576
1315 -0.018083195311417218 -0.0029328444087746946 -0.038009460422385455
1205 0.009453887337381877 -0.00027732042102087236 0.0003914674954628324
1642 -0.01051380924919077 0.008057603004777068 -0.007011249460711927
1285 -0.0037136357690535026 -0.003074338075020291 -0.008579633358091455
1286 -0.004974523958852041 0.004470008840380193 -0.0138070223971795
1287 -0.0008982965534153662 -0.0013562972645675682 -0.0037786601111599737
1288 -0.01726701552459637 -0.004411105571086714 -0.01910803395939564
1289 -0.007750134730620148 -0.02104716488927603 -0.003241608974813928
1290 0.0029781678184018453 -0.0020687284941253055 -0.0028724789537615462
1294 0.020330658965501694 -0.010315416383073593 -0.006431776590168643
1295 -0.0058821716397446325 0.004840134452845488 0.009396562813751872
1296 -0.00961078302628189 -3.3958319546976644e-05 0.000402814333429487
1886 -0.0033940608154314467 -0.0031175109978835527 0.03169359060960307
1767 0.0013863176315383652 -3.149993771517879e-06 0.007046132863907789
856 -0.012298806572750445 0.00879567576598791 0.0028845064220374356
936 -0.0005778033934697344 0.003438922686652455 -0.008895608245586165
1947 -0.00873863128930791 0.003957569156391948 -0.0005840674142631059
1501 0.02733726116686005 -0.007562261895951803 -0.03864091456132029
1321 0.00863439137836009 -0.007182944351458844 -0.006317174887624411
1322 0.005508722941300818 -0.022436431630483766 0.00018075587948920274
1323 0.002069924962046434 -0.002540437238405077 0.004292753648458303
857 -0.006127770278786983 -0.02406148099504708 -0.011633459112902266
1873 0.0060788658805106515 -0.004415602832194684 0.004513844164590083
1502 -0.004446652548771231 0.005421643226357199 -0.016062469875494072
1331 -0.00758238138272045 0.006740328571833979 0.007305816157257125
319 -0.006577589474371723 -0.01626862682969383 0.001747743895840377
1957 0.027148606422679834 0.026402866619810415 0.01604578991890729
1342 -0.002784215860083356 -0.016902579128095046 0.0251811692258895
1343 -0.0005507626188176618 -0.010292500903153637 -0.0024504911113163224
1344 -0.005189880613629946 -0.004824453268662397 0.0032281314061866793
991 -0.008137594407961364 -0.004710344440966796 0.005778574806848909
1586 -0.004508435680164463 0.008743660610220484 -0.01791449812849554
1236 -0.0025638492248802056 0.004155041035226569 0.0007926799226314795
1348 0.0036477203380798043 0.003361773214180179 0.00424853591338643
1349 -0.008867233386402999 -0.010741883626665328 -0.007977009080002219
1350 -0.0025996399376165304 -0.0010244052602838278 -0.0029306861844686756
1354 -0.005101277154293475 0.010863621856726952 0.030683659007247968
1355 0.001643944135635187 -0.028528581404188163 0.023313285542306165
1356 -0.0007758554537834993 0.0005372898578313889 -0.00034955683529164434
1184 -0.010071386379697149 -0.006274600580535343 0.0031117281159263434
1053 0.005641675804527824 -0.0032161364447906918 0.009011102906115575
193 0.002063314196148292 0.002697535106703186 -0.000187958308548996
1378 -0.015785962456016232 -0.01595295252142288 0.002154418709064873
1379 -0.003143735309910694 -0.025906780714874837 0.0034481465101879535
1380 -0.003974591201085755 -0.0027294960871392395 -0.0034470210320609834
1907 0.016021340308735744 0.020516005644186236 0.00947220010722584
1041 0.007784040941188177 6.0845120172020004e-05 0.0005508633445449799
1884 -0.0031874981202963484 -0.0021960274175658197 -0.0017108022875683441
1279 -0.007033977017501507 -0.0021650896681575616 -0.00518142502371775
1412 -0.010670131012296878 0.03641064521346174 0.028572902481469462
818 0.008386060512897954 -2.6548105778085e-05 -0.02026833842291212
1423 0.009028771027168475 -0.003974798374570209 -0.003244869634546819
1424 0.005227140368911027 0.013673832546410563 0.0051349536464871835
1425 0.0029292327556955425 0.0024629046011934923 0.0028367389819635895
1441 0.0025894752365988732 -0.006932268307047489 -0.0049065755459746655
1442 0.010914409959765453 -0.010359146626153917 -0.005569513426922907
1443 -0.0017521256083471758 -0.007091930978656341 -0.0050288741433825515
1453 -0.001811529618131841 -0.0026327949601152685 0.009810767987458857
1454 0.021116090913795894 0.00997489476192537 -0.0035638510587776085
1455 -0.0014811482956116845 0.00454572445345891 0.0019049356660773354
1954 -0.013703030166649532 0.0025344413608655463 0.004693072658079638
401 0.0019315136221516396 -0.0010019466936159315 0.019298505117000417
649 -0.00015194507110416646 -0.00047831754061270854 0.002997879345303172
1477 0.021702580068574336 -0.009364304115282576 0.0017410855964130902
1478 -0.0101474121633163 -0.009883908294912255 0.008060041923684442
1479 -0.004578587540748989 0.004076911695546534 0.002638191025552188
1486 0.01826536204608071 0.008259945089013461 0.020754093031761265
1487 0.005330522629030851 0.004751264602927534 -0.0029928007015874105
1488 0.008943573195432722 -0.002570546291528795 0.0025713289594527845
1332 0.004226407799273983 -0.0029691989503216514 -0.0007022586249476526
858 0.0021004136047266028 -0.007105383913949238 -0.002738948901920891
1882 -0.017591822909010846 -0.020319366900681316 0.014145343541286819
1507 0.00016141966202437956 0.01680686473588986 -0.01138444828042714
1508 -0.006927395109722033 0.00012421242436087067 -0.006563805503082335
1509 0.0076051090722796385 0.006953714133621141 -0.0002894837899346266
1549 0.002078715830843125 -0.0013661435216002899 0.018218236713458968
1585 -0.015475499282915372 0.007999987039061063 -0.000316785615446651
1898 -0.028841058264500896 0.0032297933749226466 -0.0008249307778961146
1516 -0.019459788347041915 0.009834162359341819 -0.003617650422960278
1517 -0.005335541379169918 -0.0021422817906422463 0.01180657679119089
1518 0.005040731372037021 0.006966601539917678 0.004646936611231473
1519 0.007784760710678854 -0.0003711792724500881 0.017464819933157225
1520 -0.02331621397969467 -0.015080830669705812 0.01769825405578033
1521 -0.0031346889028367173 -0.0007878364384075108 -0.00340064601106465
1471 0.0053989707128563914 -0.01587339877952632 0.016918640115303165
1496 -0.008715740893787747 -0.002101421220074313 -0.010548292629343968
1472 -0.002566944841664792 0.0005176297373138078 0.02274555946814047
1051 -0.010944498256644272 0.013815636559994127 0.008353727136685689
1550 -0.04045997693078144 0.019738436673324842 -0.02808242275046378
1551 -0.00039157139614011925 0.00498219795383104 0.0051389344219543035
1039 -0.002062948826310143 -0.006202095954396541 -0.00901271371959676
1928 0.0027635111069013204 -0.004610328191863661 -0.017132252929323227
1956 0.0005730056274817832 0.007436984266724182 0.008340045009772755
1576 -0.0028699355620612987 -0.0022417259903030665 0.006655128625903903
1577 0.010826432690639997 0.013733417784783729 -0.011965634361681552
1578 0.010900050804925924 0.007961516395567105 -0.004540195794974946
569 -0.015919851678615145 0.02824856657281342 -0.011109916545369728
1583 -0.01003599718218061 0.01196797007299905 -0.015687071557676468
1906 -0.01763554200173861 0.010683855200916671 0.007467148473232451
1238 -0.01218913348435987 0.03435122644064375 0.012497570607272034
1872 -0.004385898913486025 0.007606651741972682 0.005001862071538215
1663 -0.011283370390208493 -0.026699859604372916 -0.0026304523485366697
1588 -0.012172821803047473 0.00805785169780504 0.005427990321177619
1589 -0.004878676470119524 -0.02752865855965475 -0.013678217582608981
1590 -0.005966165930795227 -0.002437513090860751 0.0042444114316599075
1615 -0.012655110420108437 0.005996311431252847 0.014989848236203739
1616 -0.017944687409265945 0.0013236048666529672 0.021146631066186486
1617 -0.0024700523269280327 0.0010205231464318312 -0.0010316405613487506
1624 0.018288657782640945 -0.006798673635680216 -0.012617369771144742
1625 0.003576928398677965 -0.0007921288714307213 -0.006518749023262426
1626 -0.0008456925092899219 0.00016682540734107404 -0.0004856731779003319
1967 -0.0008110542540697306 0.009928462021832578 -0.009065692358029828
1186 0.012322695537173592 0.03870308799698206 0.020693898179076034
1883 -0.037654695204827775 -0.0012696741861915367 -0.023597028819650284
1651 0.009255253741987402 0.017286009300176645 -0.03423726583655822
1652 -0.0010840079488954395 0.0145556287614082 -0.001781277564978138
1653 0.003549440357007281 0.007902019183522811 0.0014849655091447624
1725 0.00032887431777068183 0.005454598389201403 -0.0010251743041050187
1664 -0.0116564682551401 0.0022062502455688793 0.013018817785127474
1234 -0.026522944047889456 0.015826380778885173 0.003850280042032849
1675 0.003419496473233541 -0.016133548029186207 -0.013648918414985466
1676 -0.016069206882885833 -0.003520484490421696 -0.025096630625831548
1677 -0.002120578038799392 -0.0025548655224172856 0.006220244192926126
1699 0.036089076097104655 -0.0006900905109324584 -0.014953063485164094
1700 0.024914407368391393 0.02075507681574519 -0.005810770064877449
1701 0.005590590066266274 0.0023528764417765813 -0.005350243648011614
1717 -0.007744196630306012 0.002656059778772251 -0.019946745752466372
1718 -0.014671767577247285 -0.0005891092314223564 -0.002707504520500454
1719 -0.005892037166690938 0.0006659403327163372 -0.005361825136947487
1878 0.002190452394344927 0.004398895293406314 0.0048585076215879215
1281 -0.004255769559086561 -0.00014689047145587426 0.0033179394488932943
1955 -0.005955040347987511 0.010279359815188712 0.027163626726583734
1729 -0.0013891247337043768 -0.006833868873245169 0.00490004888304889
1730 -0.0108562929115658 -0.027288244405491435 0.003224377410451803
1731 0.0068493251537081684 -0.0025533220746267707 0.0030014246480403596
1503 -0.003862004448538127 0.002826578160263641 0.006979275557303198
485 0.02021509798527129 -0.011196816811985505 0.044768524167765104
1885 0.02549416276176695 0.037470796143624786 -0.02608114600340293
1893 -0.00015072214020877563 -0.004868575644064502 0.00663162306480233
1766 0.005448362369630763 0.01496477414113005 0.02260236772549701
999 -0.004331293408247888 -0.0038207215935716064 -0.006517799536148088
1771 0.009762701761324677 -0.008158471607938294 -0.004092264881060269
1772 -0.033563275934756505 -0.0001991983757614748 0.004526419985980007
1773 -0.0011238558122490176 -0.0027840438434943602 0.0031709391760462594
1780 -0.03565545756142815 -0.004596114012536261 -0.017141547323658766
1781 -0.0027569152749249495 0.01953550572138767 0.008774988146530566
1782 0.0031688737217189064 -0.0034541794222987922 0.002790947250280152
1786 0.018936709240514733 -0.008001532786155511 -0.02718882853922781
1787 0.01137885784459321 0.021784702420666706 0.001707616020363461
1788 -0.004236835448429777 0.0009517528711858599 -0.0026139559939018942
1317 -0.002723904266614776 -0.0073216901767673885 0.0014595206711434257
791 0.004335156463316441 -0.0022547709772677634 -0.010529833876794164
1665 0.0010280166618984287 0.00037072652840667496 0.002254782195753289
1798 -0.002993770727353785 0.007009886771477761 0.004385085735575165
1799 0.011019595297209816 -0.018508019859937806 -0.008057776373636825
1800 -0.005136254705997129 -0.0035953479846602054 -0.0006016685389163074
1801 0.021163449519504263 -0.007048975848459091 0.025824174688675164
1802 0.008676178963566232 -0.0016617618351880022 0.01277867037578789
1803 -0.00483855486653024 0.005004616103938947 4.713947058373909e-05
1831 0.008721804271849876 -0.007687499146491633 0.018777515831068077
1832 -0.014488350675484969 0.007332854409756705 -0.006234455009349871
1833 0.005814329000278772 9.289236390813371e-05 -0.002668312490280193
1834 0.0009924791265295988 -0.010333784716284723 -0.010945639986501247
1835 -0.013779426633827124 0.019942827686833243 -0.009446682444066936
1836 -0.005205088487911537 0.002224753504333769 -0.005241168066482918
1846 -0.03427119837087099 -0.0056380497244240884 0.011194937315172874
1847 0.03908905581499288 -0.014755052864774083 -0.032265106549429726
1848 0.0006467582554544824 0.0013679032636636356 0.002647345745617231
1870 0.0025696021390047654 -0.00510458922342406 -0.0063632552824018805
1097 0.01697883781015533 -0.0031618753896835 0.013880197652809864
1927 -0.019056299289780344 -0.007079598664917027 0.04025687731203099
1899 0.005675988880951619 -0.00313219935996571 -0.00473843063405637
1643 0.0028913882073619336 -0.010955461384332642 -0.006653425993720823
1723 0.016263015943982467 -0.009816196377090948 -0.0024758357142216324
1869 -0.000508194456038099 0.000827021462854328 0.0022688169256284666
1206 -0.002907511941648692 -0.003927717145425165 -0.005005529592888211
1929 0.0015749346443118164 -0.005475892764852471 0.004257141695091112
1644 -0.0034398390030501757 0.0018743455757097894 0.0020446981617606324
1876 0.0024938518263163782 -0.0043348577607580105 0.03564205324019313
993 -0.0014040822006033567 -0.004396646151342369 0.0011230838807918901
1413 -0.002542063800541517 6.426760238178691e-05 -0.006198736586536947
1185 0.00043459838617062495 0.0008028696027420556 0.0014277457240531534
1897 -0.010031687172718287 -0.008494385936194839 -0.0061625532968727385
1871 -0.019435875618647843 0.010507597102764785 0.009483957255846236
1316 -0.005815980795951785 -0.00834564421916613 -0.005210446635605153
1791 -0.0008543416727561837 -0.00389683000083149 -0.00031580209318184815
1584 -0.0002640446964915319 0.001789723828912079 -0.0011466384496493388
903 0.004872438040852114 -0.0004109709136181685 0.003518851624987553
1280 -0.004819466401102222 -0.025232090776101997 -0.0027907880626773978
1239 0.005189963942705656 0.010802372669763579 -0.00474508614496405
882 -0.0018949843651623062 -0.0020319857815701103 0.002644078652933065
1582 0.016197685236666353 3.473188856489936e-06 -0.00902483472446865
1926 0.0037776384754538675 0.005365106153115595 0.0014165793492910935
881 -0.008162195498674078 -0.00264683093979825 0.021950563188864514
1204 -0.003735937818747182 0.00011767240043259029 0.0033519774459022725
1867 0.004370651514715713 0.00298276173263966 0.013248493872360533
1040 -0.02225972909578379 0.018393424537589808 -0.004962268523150347
786 0.002501995291908902 -0.006248494118222997 9.28194394918445e-05
934 0.0045141801958545075 0.0024324330082082612 0.004320724767043358
1266 0.0014800993478564376 0.009990025816272582 -0.00020916321910885135
1532 0.006399072020971267 0.01563428851521968 -0.018472162185093892
1760 0.004180057397658961 -0.0034091208729657664 -0.0017998660307954426
1265 -0.017561006474746406 0.0023852812062057707 -0.00012443248661423884
1374 0.0012853646272903865 -0.003905886570856296 0.004361999217253543
961 -0.008335356187541129 0.009620573917109309 -0.012636023867169673
1367 -0.017743872404933258 -9.398055161855077e-05 0.031369403333513825
1366 0.0012852923025167488 0.04583079497227897 -0.004082104456134972
1473 0.007379469815698814 -0.0018431643509605048 0.00046292275592116
889 0.006033986544812867 -0.006042262550838371 -0.008633947556359439
1306 0.010265423310054046 0.0066260345905138004 0.011845176170531385
1373 -0.009818616725753576 0.02349034886548511 0.01569142499408931
935 -0.009787377810856613 0.007406098249094425 -0.024923427035277376
962 0.0006367656774417017 -0.030211056047376283 -0.0008242499316034395
1727 -0.00191402228142772 -0.006189606790956612 -0.009385277463735624
27 -0.0006937163085318354 -0.0006460253087636906 0.003332901872314956
1491 0.0005018324413768455 0.003078363415842806 -0.0011510302487967655
1220 0.006641867207203582 0.0005027518807145081 0.005671520429449865
1495 -0.002846059654758987 0.0010697605718963095 -0.0097123155064522
1673 -0.008101982702344943 -0.011467729459131137 -0.005163280241900291
1497 -0.0049493379937536625 -0.00024112134698168103 -0.011532133726852052
1031 0.012613220097364472 0.03931284246594945 0.014347363270519057
367 -0.005161756780825012 -4.376746087390574e-05 0.00551484396170051
775 0.0014899464118620532 0.00827425543444567 -0.010232562014581765
776 -0.003941575058655012 0.012663984228328097 0.016416563762584654
777 -0.0058555162148939055 -0.012812788755800142 0.001232396135207479
778 -0.017703307355229007 -0.01014375505442443 -0.01483518028134805
779 0.03091908100706772 -0.003286810885202381 0.026596951898908084
780 -0.008328184707200986 -0.0027036956530939135 0.0034780639073033674
787 0.0001509264917949111 -0.01889733050765649 -0.0020493217141171593
788 -0.010770051688906398 -0.006257945836285226 -0.006961234407396163
789 -0.002251355139488277 -0.010456399460865708 0.0009292347898443245
1000 0.00983286348234299 0.017327220394319928 0.010851134664373135
1017 0.0006076327073007186 -0.005671770852283845 0.006512154515330077
847 0.01701882964327182 -0.009245561650079517 0.03895318981597423
793 -0.011791719433712764 0.012134320789440855 -0.0075083867368732635
794 0.015439121726756721 0.005463910554813599 0.018956879342637012
795 0.0029429689690295157 -0.0006319691739959052 -0.0030300776322881697
1016 0.02377831215487706 0.01158468132269742 0.007366687521658992
1784 0.05508228668562829 0.008623703847697431 -0.005624677104536082
1681 -0.0005531011967077126 -0.021121363888597245 0.004172639680500787
1270 0.013113029688232627 0.004064255856055666 0.022389629934588262
1511 0.012182473639661615 0.01582868121021053 0.0186959406119522
1777 0.005221083843906091 -0.03330232439239681 0.0028616260673576246
811 0.010065267040002502 -0.003685652544020146 -0.026831594987650115
812 0.022963538413100854 0.022112833523153116 0.009841596905039803
813 -0.0026453919751602017 0.0019577398963844896 0.0021017324155282774
814 0.014784437355832859 -0.009507992148931846 -0.005887243532104557
815 -0.012085188609305988 -0.007097939563327383 0.006552937913178933
816 0.0022102323601625846 -0.001873834657685773 -0.008175969964054546
829 -0.022931927053912463 0.008931275508032023 -0.00024581507853279445
830 0.019403636823187038 0.011185870399658283 -0.0034306372099302445
831 -0.001293011528645419 -0.0009204038790281144 0.0022141140276526164
835 -0.016464602495815134 -0.007833232736303935 -0.009150697163829236
836 0.007170212529429067 0.011189134462482892 0.007081903997840496
837 0.00046224735896974173 -0.005875027716804803 0.002644716142340639
859 -0.026966637744237177 -0.04295012282579078 -0.014651673625651897
845 -0.00487150476636367 0.004762355523044566 0.0015152697643748437
846 0.00020974427627602662 0.005921002165273941 -0.0004921346156465139
1944 0.006785819014051163 -0.0039952105068181845 -0.004120004955034456
848 -0.01439970018829434 0.004496579129631822 -0.005923693060822373
849 -0.0019214391883360935 -0.0036272939221792936 -0.005695649865657175
1961 0.011705899757324608 -0.012446883642958817 0.009071958972714685
1430 0.00478697573442021 -0.0158788775607913 0.020452020870012848
1337 0.003491735801746802 0.007011413041893942 0.007276091384047339
1002 0.002692133216785051 -0.004439559650355639 -0.0011740178722607095
1962 0.0012649482470937343 -0.008208848071618988 -0.001282556624786673
1728 0.00555816660974959 -0.0007958792611631045 -0.003467041323402823
1932 0.0011606398594645798 0.001770549708612335 0.0026616534458653116
1015 0.014109544653999703 -0.010103813916786055 0.01963441295937757
1038 0.003307925640982947 0.0014162183917912515 -0.002373199926369554
862 -0.0003300015549344745 0.01079579168725442 0.004859976981099402
863 0.004190863469383687 0.012293161114850768 0.01700952918503537
864 0.005049698579786999 -0.0028768894500604144 0.0006621802652066364
868 -0.0024450210136568477 0.02527320194553867 0.00439191411533009
869 -0.0001348317800827056 -0.014692215303239496 -0.023677606162661645
870 -0.004782309623136983 0.003727417836458823 -0.0003641126007194848
883 -0.006456279793988389 -0.016880121465584038 0.004344665458729695
884 0.004529297543335953 -0.004693121124222883 -0.00019960374039621032
885 -0.0012680914615062241 0.00024681746522371007 0.0012694208241896823
1965 -0.001320705278897548 0.0019794045046577628 0.005926195929630098
1275 -0.005610158475061108 0.0015443985787122578 0.003876568340940625
1905 -0.001528918308512019 -0.006321546704149353 0.00821145280373454
898 -0.02054073556062036 0.0020261220145221075 0.003147530852523501
899 0.023771106180454984 -0.008844336309270801 -0.007774340723589237
900 0.001881486290985466 -0.0008851474399359226 0.004072416346800927
1302 -0.0023786077538594215 0.0010734332345340295 0.0018835632436770135
973 0.005785603975421284 -0.02480700174598411 -0.013017052975671696
844 0.016525240345431486 -0.01625075624872585 -0.01338806542496385
1242 0.005211922254839482 -0.005515320703306512 0.006838239953044211
1115 -0.012815676059456955 -0.007764537066453549 -0.011163372104781563
1838 -0.04186121285095992 -7.523583989707124e-05 -0.011099965698502108
922 -0.034393693569666685 0.0028819517198547763 -0.03590991955567033
923 -0.013782866247253958 -0.0044750005149390044 -0.016164327179442307
924 1.1452102778591928e-05 0.0004855541317406644 -0.002637073668355671
931 0.028141442524391973 -0.007562555523435451 -0.008282041037819772
932 0.02954281101655916 -0.00678309032137668 0.0032793607756941823
933 0.008689621756658961 0.0006209234566342854 -0.0011769744442583785
1654 0.033549347229423966 -0.008292589611779028 -0.004516210955280031
1682 -0.0026768287378224494 -0.03947436386417129 0.011966999007438603
1132 0.0022991968219436393 -0.012822616572531961 0.003373459339684784
1338 -0.001530624060536063 -0.0029692066691966138 0.0050076729140063015
1301 -0.0029471511256487985 0.01656448438954661 0.011537849533599763
1839 -0.0021541980606450536 0.00043864818003517533 -0.016461674672789195
909 -7.073027923097878e-06 0.0008202267500025472 0.006443635462050341
1135 -0.02401346721496974 0.0030230649892961513 0.02576696075792033
1106 -0.0034173058582000313 0.0006797390455259722 -0.029065533552751474
955 0.004764136043097588 0.013046403143612315 0.02049786322939744
956 -0.002207240187207263 -0.010391211846460044 0.0014506718629728485
957 -0.004997786303234054 0.0045835104574443435 -0.0010784590448518776
1756 0.025538397070484033 -0.009822914254154064 -0.00828110344327204
940 -0.0022655223581845014 -0.017659252123546045 0.0013850706599379586
1336 0.022123407693812006 0.0009880555999306315 0.0021750869980917452
964 0.0321494091857451 -0.00040825401690027717 0.008090465667981177
965 0.0027960341850630306 -0.0018096367187309449 -0.0049349617482662
966 -0.002201524644348567 -0.004922929210442945 -0.011085425866188768
967 0.019654353085140328 -0.0028107637695089253 0.0011299997263322387
968 -0.01200362000751015 -0.003354382845512007 -0.003877762555452578
969 -0.004818621051152806 -0.0015650259205424856 0.006232737691558934
947 -0.005949522851264543 0.0019216248966124401 0.0006802177604494246
1785 0.005079579152540205 0.004592401387857207 -0.0014809861329269734
1770 -0.002199320179326617 0.0028154607191122555 -0.006063077803359824
976 0.02197639996760275 -0.02274760426966826 -0.013753504185108423
977 -0.022555492932228142 0.007943827828942986 0.005609826541209317
978 -0.003439244099285303 0.0010439957991083934 -0.00444407285874878
1137 -0.005557488501074028 -0.0004813798146991259 -0.0032267640079465185
1117 -0.009146104651741134 0.01984465904597921 0.024757392242581347
1114 -0.002728453939486201 -0.002545970983468153 -0.007170044509917541
1307 0.017662018877699154 -0.016498766708622607 -0.014117223161607925
1261 -0.0034548400584514852 0.0031733002571350207 0.004372214927768687
1235 0.024563001976670797 -0.012443810471597193 -0.006846312788866887
1012 0.016559552345255392 0.029849583001276735 0.008014244373975497
1013 -0.0006014171255531657 0.005654785367842625 0.0030175318317909785
1014 -0.0007325632581784111 -0.0010265193894592305 0.0041747673132592695
1546 0.008614250197937394 -0.01788693854625507 0.014567846492967067
1850 -0.014901368852439647 -0.0067112220595664475 -0.0026890620329383364
1628 -0.01011389325043196 0.007687405884942622 -0.005719832939078261
1021 -0.019307859983277664 0.02397605800518279 0.009829828246597167
1022 0.00892644437166929 -0.00010963529578022094 0.0002945117288443661
1023 -0.0002679749797781173 0.0030079611305289015 0.006017991410223835
1274 0.01554050715203117 -0.006660522098857088 0.009406700482988806
1308 -0.0002478801177336012 -0.004196571745359292 0.0007734831770049261
1671 0.007185105085082025 0.0024671380698763025 -0.0009296892606690703
913 0.004658074680021379 0.004236873502853446 -0.006188045869880147
1282 -0.007037499117801438 -0.0018678342802322713 -0.02577596787078682
1127 -0.0008557230558264121 0.004451027583360187 -0.0042751696809934575
1072 0.024878005658308375 -0.025356143863365176 -0.01905238478123005
1531 -0.00808051540869954 0.030370637492615364 -0.007443994888061574
1074 -0.005373539668222125 -0.003178728288606682 -0.0028729107603370357
1004 0.002136760003023545 0.01937170171703928 0.015865037544431713
1574 0.010913736319052693 -0.01828784835238173 0.018630908031746364
1783 -0.0017679915042418588 0.009185415627170635 -0.0025653951624602556
1087 -0.03224428355783265 -0.011516772674275469 -0.010031459665966894
1088 0.022620246666816564 0.020115899634521463 -0.012920981689272219
1089 0.004354379723346148 -0.003141538114419909 0.0012321257964336035
1090 0.024836365303852453 -0.014629341514021238 -0.013969192482811608
1091 -0.002087419842546154 -0.011217017623120785 -0.0028250965650965408
1092 0.0010791320007554094 -0.003769788687377173 -0.0037512492450147874
1594 -0.005501500101245513 0.01484932796417173 0.008809778642359645
1683 -0.000887690048589161 -0.006549679026873791 -0.001098992736516444
1036 0.006151109416694379 0.013080284593170035 0.002849769896181415
1102 0.01699853950089228 -0.007028365486982885 0.023856323576125594
1189 0.004179790948726895 0.0010808467331928661 -0.012779988883048985
1104 0.0033650266209838066 -0.0031115679045556227 -0.00047475554101295464
1105 -0.04705135126762673 0.015537913687967354 -0.0032669415127993544
1111 0.020577488117647157 0.00978327362914143 0.01063117409459554
1107 0.008351056811261066 -5.872882229968757e-07 -0.0028400918533218245
1001 -0.0012217124858402797 0.00014120174847026567 0.008506678891275871
1357 0.003282259022885746 -0.001688220093889916 -0.015399650529876924
1397 -0.007895027262772072 0.007905258638998281 0.005820791302770678
1113 0.0023524446503318443 -0.007136808319882279 0.0008211061721462877
1118 0.0035535292366483174 -0.01383610430440884 -0.0016199853390269064
1119 -0.0022734798631886743 -0.001083474311121095 -0.0007220075496508921
1769 -0.0003848090310328997 -0.00348986268921717 0.006337677427324996
1837 0.004808350143082434 -0.00812712292777398 0.0005596067218686648
1640 -0.010991074760395665 0.017434633306222396 0.004645387362149663
1533 -0.002303527760595883 0.0021271710424469563 -0.0023097399487372245
911 -0.01307903193846316 -0.027441766304085864 0.019673529971626993
1757 -0.00014539990196284666 -0.013912083608966076 0.023298501169640513
1144 0.004463283864289188 0.00679255767781437 0.008973269502358081
1145 -0.01308553596919746 -0.014982662766658838 0.0030849053246317665
1146 -0.0043565574970906235 -0.0016399238467250628 -0.0030834300923230184
1150 -0.008013762497601244 0.008242588355337168 -0.006450800430313271
1151 0.02817594867054016 0.001200514094514996 -0.016466473188450154
1152 -0.0020694319459245085 -0.0041699385321610355 0.0069817978535315186
1153 -0.01878180177722179 -0.023825803359584407 -0.03330729861892936
1154 0.04121948568657156 0.0106454329876988 -0.012315756147867686
1155 0.0010069577363303714 0.0010620514182574127 -0.0011070383513038698
1156 0.029123673541996967 0.004587848864763268 -0.004198441618376657
1157 -0.013711812740406858 -0.0037271801150520617 -0.019758858396042755
1158 0.003008631964793017 0.009016677685507322 -0.0006892800540420896
1345 0.011542377841066933 0.028660874549474018 0.012313381568540201
1840 0.006704325482808562 0.005640641061745901 0.014477617581686955
1161 0.004611358958455718 0.0011439505646652797 -0.002822889016521803
1819 -0.020193892831067747 -0.008335432458976817 0.02208321848235953
1241 0.00700481378359556 0.014997497122791997 -0.02505936624097281
1415 0.002815666167413198 0.023743325214350353 0.027337544532386054
1751 0.011396868596882602 0.004987317649567429 0.014119195515463897
907 -0.0080370233765063 0.024009032985129266 0.034003567041425646
1568 0.004559321655307023 0.016185537329694404 -0.007657723660816465
1171 -0.004545315875398333 -0.005563444408768024 0.010796147823473386
1172 -1.624130761055856e-05 -0.0019769927814722566 -0.004438361022562702
1173 -0.003008049491230582 -0.0030917622570945788 -0.00790024182305896
1201 0.011480767124285217 0.007768946150694401 -0.010463914902277374
1037 0.002788107211213599 0.0009888268105864124 -0.034567065286230686
1510 -0.010375465648580698 0.007717360084244299 0.025874679336445036
1365 0.00038572058824365305 0.0006326335712097561 0.00772629865359583
1849 0.013565438299534386 -0.006129335948809461 -0.009991987707608951
975 -0.0027415444033532773 0.0016293832203506397 0.0032388674139760894
1291 -0.0033142007557705137 -0.003403910184193443 -0.006443261907199078
1229 0.0072255741376721526 -0.01273856773737915 0.0075766215896285755
1230 -0.007910069560792033 0.007698731947094247 -0.0008311244739664383
1192 0.010522091004902579 -0.016409164069771314 0.031508836412497986
1190 -0.005420036915320474 -0.013544742954949007 -0.008444954620194687
1112 0.007042682623445243 -0.036533703913231484 -0.010320266212888136
1580 0.009855260978759467 -0.009277721357296388 0.0024019769808896196
1938 -0.0036185728772921578 0.000669380983014512 -0.003484181196484
1592 -0.011420008427617883 -0.026432525427446264 -0.01231245537113557
1249 0.00844985350009551 0.0094138859143154 -0.008019060835311287
1250 -0.02224923386255888 -0.004178845989139509 0.015855667740041705
1251 -0.0011824025126008894 0.006966208756281901 0.006199139742257415
1252 -0.01595729156905608 -0.03372535563009079 -0.005658089613850273
1253 -0.008812206415461495 -0.005632065204238177 0.014217284651589362
1254 -0.00044284661413744185 0.000549394440961266 -0.005632237482017108
1160 0.022614102585988574 0.013133771154892185 0.02236226679661204
1262 -0.02717447171379483 -0.0005918312796567777 0.004986594118415817
1263 -0.0025619986541416616 0.0028365066000271997 0.0016841046575838338
1136 0.001967082759390744 0.009133800268528858 0.015163758135721397
1942 -0.009282461627513295 0.005291667854154904 -0.008145394800755773
1726 0.01819434784654521 -0.014017917517814811 -0.02785920883533417
1126 0.007321719220081014 0.0051712993539692895 -0.0020804560124320303
1641 0.0004139774470614528 0.0024595088436593806 -0.00312310112853937
1943 0.01598766382261532 -0.017223303205541676 -0.009209221440754756
1930 -0.0007853326647557792 0.007995195019634672 -0.004379790486125469
1409 -0.001736303749792008 0.020167931970230438 -0.0203013109915956
1240 0.01655136687002539 0.02333857154035128 -0.003932747264274965
1309 0.02181680530727931 0.0007107819654437375 -0.00632419102563881
1310 0.004404944145273037 0.03303199745053422 -0.013265544945160747
1311 -0.00010836049335948052 -0.0002965075072114628 -0.0017817227674387253
1573 0.00289317301170418 -0.017326128512597697 -0.01765257703807069
1191 -0.00234807372442417 0.0013310169502053935 -0.00900673136502336
1226 -0.0029400618103562473 -0.004631874806553004 0.01378344705739941
1324 0.007950200003536832 -0.006842977509588549 -0.026415408490578884
1325 0.0029202908323532908 0.006766848489528068 -0.017693039567743887
1326 -0.0002570384023996771 0.001582408107219102 0.0005204590484364678
1333 -0.00037005442775084866 -0.0023989226092280907 0.023139220055917762
1334 0.0031609943282283545 -0.0022655264206315837 0.0012191343706458215
1335 0.003867970675413962 0.006616530189562996 0.0095177567368838
1489 0.0023698300082818408 -0.012094923442422915 0.0009748036466552925
1363 0.004178167819679873 0.030511180613300215 -0.016823906616542327
1293 -0.001785262335448676 0.004835736271601249 0.0016446065069241232
1467 0.0023781463767466047 -0.0077341907463986045 -0.002178239100625713
1564 -0.019082089720905873 0.010135083140450824 0.0008529606333015367
1737 0.004172567873765212 -0.0010009529669679613 -0.0033105161526653256
1347 6.26352468152133e-05 -0.0015040505830178441 -0.006001221568326898
1358 0.02076951348105486 -0.0019501532522195994 -0.003951732757765744
912 -0.0027469318001394094 0.0032901466134790083 -0.006042942352623823
1364 0.006014901934206397 -0.011964202707938541 -0.01008991401524645
1565 0.029008987851429184 0.007827264250185857 -0.010042242368769678
1820 -0.0012525698664826272 0.015833306492502332 0.007073895177745119
1272 0.004945097693155856 0.0036483912213752826 -0.0007793989458306565
785 0.002748543087839439 -0.019858305949542656 0.01901002607176278
1371 0.005344762551370185 0.0037264716796041974 0.0022207512792837758
1005 0.0018468096813809172 0.002059338205691011 -0.0029992362012139237
1512 -0.007474684676280993 0.0012839354005775982 0.00016793851276537488
1030 0.02213755220239255 -0.031112982053623287 0.018068041992636615
1396 -0.016055469995062504 -0.003339118725545434 0.018284430248803142
1841 0.011294730834785488 -0.006503960598522321 0.0017206294112765428
1398 -0.0007818471391930743 0.00433257130753552 -3.757474999058247e-05
1402 0.02598336791186898 -0.0008765291052291998 -0.00554432027604429
1116 0.002495814992545833 -0.004825998332027627 0.0010234802634869191
1404 0.008989934829893253 -0.001956407993643442 -0.004151523811607513
1416 0.007174202575543722 0.00041534711840737645 -0.0041637044641993776
1359 -0.0004337398099555696 0.001818870646101472 0.00179074263871957
1558 0.004515353455646768 -0.005145194841254299 -0.028813483628420743
1420 -0.00040647184222844025 0.002107859523634305 -0.025166233437720877
1421 -0.0020858454484855705 0.0057323348127330505 0.010109603412371071
1422 -0.005856459750079913 -0.003304520037822976 -0.0002478720676431883
915 -0.008741090443331472 -0.00253725820367016 -0.0036583183969488915
1895 -0.013079720256852116 -0.013864844667368502 0.01940193511116042
1896 0.005298413109760823 -0.0033794567033435504 -0.004181600095638415
1450 -0.0007571918170440634 -0.015830501910094632 -0.02454226065651243
1451 -0.0225954855626598 -0.005200282806845295 -0.0016671023831113618
1452 0.0003082615475030308 -0.002311036044559568 0.006853242727573315
1459 0.010948255614341885 -0.005335445391814016 -0.014017343001921168
1460 -0.015983545765478908 0.010326931360174025 0.014822141244592761
1461 0.005091008718503776 -0.0010280888447692091 0.0017403423028064587
941 0.00895732294673118 0.013591569215836732 0.0060316290459791555
1003 0.020386722763486055 0.0060253794405858065 -0.029033281514574516
1937 -0.03224868434456172 -0.03998888914148486 0.0028379305367227385
1964 0.017302985623232646 0.005732400970960469 -0.010103122314768755
1328 0.0016609297025073021 0.0008035907869220378 -0.007354421931944186
1903 0.015424043596226443 0.007407357902513914 -0.01477497376186744
1566 0.0011470099307648396 0.0037899596007146593 0.008034129988934963
1439 -0.014826087195236553 -0.019528461577501103 -0.0052309176551714074
948 -0.005239695202817372 0.007472555391188252 -0.006794920286884465
1911 0.009460762988471878 -0.005318183339175168 0.0026767464261027215
908 -0.0023478186667402414 0.02399004412651431 -0.01030000268519841
1383 -0.0018013690503716137 -0.0009419955302611183 0.0011098317551057313
1513 -0.0007788830599345722 0.0031819798380275533 0.010406626433941272
1514 -0.018245367030917954 -0.02369615344583054 -0.036922613495783504
1515 0.005262028165742095 -0.0059383188740499 0.00033643624015328486
1525 -0.025957096238249374 -0.012420812780304854 -0.0034236423571632423
1526 0.007428537296674403 -0.02690687620596555 0.0018063482438579548
1527 -0.00502913102858584 -0.0007212311184178419 -0.006960139141899533
1528 0.04877413389741758 -0.028185571797846958 -0.017109479747381515
1529 -0.002911372867123312 0.007506362827991377 0.00867952945664979
1530 -0.004253292088764196 -0.004977279499052455 -0.006072475746243894
1543 -0.007030436390843183 -0.0051646764090727635 0.005645738212881644
1544 0.021584274219208263 0.01426257848603774 -0.013110056291544062
1545 0.002779929080324581 -0.004966056997505232 -0.00331197349880697
860 -0.003794079403924567 0.011316337582558442 -0.010538845075920393
1547 0.011099055852747411 2.3523030107607144e-05 -0.005057334604167767
1548 -0.00165153087846496 0.002312534385178416 0.0058858122110471795
1552 -0.0038250367796364582 -0.0049330142489785005 0.009142533723107691
1553 -0.009271357862291899 0.0033863620347584006 0.0020788121411638525
1554 0.009983401768681179 -0.005747761885781191 0.0016618454362728736
1466 -0.017195338172147058 -0.02382387591484634 -0.0048565960975911855
1465 0.015102366355325272 -0.018639475497140224 -0.011585269537958609
1560 -0.0017467281750081084 0.006537456508595074 0.0063881124160932445
1203 0.003405983761039216 -0.0070254692551181995 0.001345810962669956
1828 0.006486258602974587 0.017235033285072143 0.02331673399132739
1572 0.0005476341184727052 0.004509544453206411 0.008614842194552762
1750 -0.011276479120856024 -0.008110147205283887 -0.01389298799097897
1134 -0.004496985159853745 -0.0046837308265563335 0.0010195405760860846
1329 0.0008238799455871264 0.001699069896875092 0.004012171555252579
1300 -0.0001837677793890194 -0.004828214838919703 0.01190974343472698
1752 0.001050373527053921 -0.0003726929605504569 0.0006097091061141371
1559 0.004108907364764397 -0.02445222174045114 -0.010082028937577469
1591 0.009702020387967199 0.007843760062161063 0.002274998902087513
861 0.00786712609166316 0.01064076589556763 0.0012894318864741443
1593 -0.0034372666985567333 -0.0020688344988797403 0.0011665050395206157
1674 0.0020214693453229587 -0.004678898800031238 0.001010568729815065
1595 0.033263475737347614 -0.003418458913676802 -0.0013893370417051095
1596 -0.004160038988134501 0.006289529066148808 -0.001992069278169097
1600 -0.011813984374714303 0.005611002866840185 -0.0069086990044534965
1601 -0.026417335020102625 -0.016482870115917564 -0.011509506588075537
1602 -0.004615030807870608 -0.007810698136762513 0.0036597722235579147
1603 -0.00801174476946189 -0.006569923077725627 -0.022305323360329723
1604 -0.002070831197944299 -0.004112029652527171 -0.010765440651361455
1605 -0.00894791603451174 0.0036925251585650815 -0.006783095738992587
1403 -0.004019345543261255 -0.0027705646741341874 0.01141531961002825
1133 -0.005004531622931269 -0.0008860106451828789 0.003479181742962443
1431 0.008279641298656427 -0.00036727350606871714 -0.0005858916188328577
1630 0.0078977508614947 0.01433163099087004 -0.018332110510423317
1631 -0.007953678745506702 0.011769349458311661 0.017998302758231926
1632 -0.0011427034944010638 -0.0025963052159849683 0.0031574304096709397
1629 -0.008941787776250286 0.005498203588795813 -0.00035428574193817764
1758 0.0002915041318811965 0.002038947876738699 0.006532863694764396
1960 0.010255037767179457 -0.010731979051965957 -0.003246425678377602
1936 -0.0013164186020923126 -0.015004160579986131 -0.023700683639851037
1910 0.013678850932077977 0.026397085297224926 0.005756073612252304
1271 -0.012726623746707504 0.007492175824266086 -0.002567595842578345
1414 -0.029913521516265845 -0.021945905602332907 0.00038027864630513144
1963 -0.00371987150082143 -0.005521278470027172 -0.003723511838113326
1865 0.01161955948239515 -0.0010796715055026826 0.013891232901747359
1657 -0.0028028986037702793 -0.001599979473610542 0.0035021321336813505
1658 -0.00425488793123313 0.024669308919466247 0.015828656470094696
1659 0.002203792314037756 0.0037474529954254253 0.005079589424017112
1660 0.002275920933009498 0.004641009154632141 -0.00798640492310146
1661 0.024542796364134322 -0.012793097563042807 -0.0010390053370843437
1662 -0.0010898615179924403 -0.006181015772761335 -0.0074463144959652505
1570 -0.008585090738562132 -0.005809207086454997 0.008271184246041747
1370 0.003934045561503231 -0.00653698697309195 -0.012956729340136156
1438 0.0009453432628430158 -0.015860400765802092 0.0023822857973481316
1821 0.00012047860720567888 0.0026397842891360177 0.005474116409911178
942 0.00200519366473631 0.005894481225756759 0.0009776624225388577
1904 -0.008201479456864292 0.000528967096264229 -0.019125794770616995
1684 0.01000331064695237 0.016788072438232864 0.014200553197083849
1685 0.026063899890458056 0.026362146039678697 -0.0327181642926666
1686 -0.004261607465409611 -0.0072410944459367675 -0.0069778201591344825
1687 0.020936787773287825 0.013129488047547669 0.022009650590161134
1688 -0.010478502129136502 0.005944617064913 -0.006610753222494051
1689 -0.0022596605942046487 0.005419932091587825 -0.006281385384212403
1690 0.005691346323710463 -0.005849849059698668 0.0028231312559830746
1691 0.019160431812972206 -0.02315512040297898 -0.012505209240429449
1692 -0.004264760734249015 0.0008629535479317742 0.005267364893508249
1194 0.005783909656051927 0.0038781652648369786 -0.0016869530157367762
1408 0.022857338311233943 -0.013240655284306449 -0.0023300909206488457
1381 0.002858973011346265 0.02113250837999195 -0.007990979370635162
1702 -0.0018085246995157194 -0.014027680433589223 0.002503427006432024
1703 0.0033193893648828837 -0.006356469680152501 -0.0071759812137340145
1704 -0.0012353832537018996 0.001686935747099552 0.0048625774567022184
1382 -0.02607207633831642 0.0028253591350712857 0.002894064799266435
1931 -0.010147952572857338 -0.0021022923325751206 0.002568776114821164
1283 -0.0013866221201441033 0.0074161140002793466 -0.005695378514721429
1708 0.007586204709193751 0.013152369985778655 -0.012064684525314453
1909 -0.022376536835877255 0.0014162930333923957 0.01499593402521862
1710 -0.00679881348676431 0.00039988278157659127 0.008939426964497434
1866 -0.0038998759000733046 0.00642256693466575 0.003733735027796249
1735 0.0004668107355429682 0.008642256575726965 0.007359522589074457
796 -0.016573869605435273 -0.012366458404950235 0.005461050296476169
1103 -0.036447620848685414 -0.015595329642592956 0.0050347858558259856
1410 -0.00034061372416854184 0.002717826242240223 -0.0019044056601241624
1273 -0.0073017368417684 0.01020604299659266 0.018476869207592565
1202 0.0009236234029808674 0.021123062723076493 0.010341143790550431
1221 -0.0037727467571569027 0.0006019027451728284 0.0019153585087359438
784 0.008467640370297947 -0.009676181053095702 0.009738208954822433
1709 0.004463828149567226 -0.022467941051440607 -0.00030812414264528844
1369 -0.0016294613428682995 0.00823661922337486 0.004336761810704423
1894 -0.006115152495615866 0.025614685547349143 -0.013347687879145108
1571 0.008090788572104041 -0.003073521340491311 0.011943280676142209
1778 0.002162383933386091 -0.01023493389105857 -0.04125637588307863
1779 -0.0035498375310362763 -0.00808062793959916 0.0014519328275126228
1599 -0.004367785924188542 -0.007947565582963856 -0.0007068276834033844
1829 0.014222699753501388 0.015395263409682492 -0.004125278789159642
1627 -0.027656291912584008 0.0018610917654749116 0.020400050696167085
1810 -0.011603961937901832 0.015072379849408572 0.0033094554101089956
1811 0.0059870012634735854 -0.005776657775484506 -0.00021211127006730748
1812 -0.0031799099905457048 -0.0019337365792193512 -0.00121076825111694
1813 -0.010831696120761899 -0.002815519336045153 0.02211486559631413
1814 -0.012920878103934741 -0.0034779942722010975 0.003103869962765471
1815 0.005537927882092465 0.0001221774835136016 0.006304935585235621
1816 -0.007882795426845302 -0.010506554519372971 0.03755174141727024
1817 -0.0009540304140756414 -0.0053707406270436 0.0020471364695321464
1818 0.0010787561907956641 -0.0006295399775222547 0.0002366127316412469
1830 0.005402455685162067 2.5328149032227977e-05 0.003624113634765422
1851 -0.006315790406837386 -0.003972111361655149 -0.002864313621705015
1073 0.013585514444006892 -0.02886331896834306 -0.011745403077388097
1825 0.005843839771259986 0.0011084180464279248 -0.0017454202628535205
1826 -0.006709810915510729 -0.008416808778490603 0.003378774573987236
1827 0.004536083949150834 0.005215928891653068 -0.004218949948389034
1346 0.0010079448934319525 0.0074913420790677625 -0.01825763676620969
1228 -0.010673773848645375 -0.005268705319025417 0.0150836120446028
1575 0.0029088390458999504 -0.000771935881257246 -0.004988256385979431
798 -0.0019302487849296556 0.0023367157680167752 0.0066579954406673645
1128 0.0013881433591744518 -9.700033871630946e-05 -0.001988673749120123
1949 -0.007389981146638858 0.03081674600562872 0.006796213088011058
1736 0.021529727382300305 -0.0038627580967970105 -0.006113583381121109
797 -0.0024817379505721647 -0.0013339897479895636 -0.0036571884296069785
1327 0.011238326371995204 -0.010264775563061804 0.028671835865640406
1440 -0.0012101414289365875 -0.0007687741313078376 -0.001483207471171943
1292 -0.009734550462168078 0.008963678297287938 0.004914565478065655
910 0.004858939027978444 -0.012923973424941036 -0.023593714500478525
1219 -0.030259589057147627 0.006343498747569121 0.008034132860326977
1284 0.0002058618642165271 0.002708369098973061 -0.004455049690367835
1950 0.002503409714321429 0.002367445650370998 0.004143676957360545
1193 0.008715279941776153 0.003754793001533653 -0.021016106653335177
1597 -0.010261822839279764 -0.011713008355145955 -0.014282246809550713
1069 0.004963626795275952 -0.038111445732714626 -0.008387967623327499
1032 0.007610083126348219 0.0039768086969866594 0.006565861778638107
1842 -0.0023651113323192737 -0.00640693133466742 0.0007446528820307568
843 0.0020298769992681603 -6.965267027215579e-05 -0.005858220863736657
1579 -0.028264096147402787 0.021540280542839563 0.016176032816278905
1768 -0.025152391499557544 -0.01126426084677639 -0.0077028758057792485
1244 -0.004621735835578361 0.015291154686369381 0.007214960047255322
1669 0.0105200114502993 0.013085203155740582 0.009836471856245614
841 -0.005125886275137929 0.007396581545725161 -0.0016158848974924644
1569 0.0027473715929542623 0.00015630786637244677 -0.0071770821523047
1581 0.00086161404665121 -0.002618133623618967 -0.003201786829653013
1670 0.004324438728805071 0.00936500790193944 0.01611174068599673
946 0.006515632566538868 -0.0022035253992514145 -0.03814607529743074
1852 0.00010329930859060081 0.00888491307753758 0.009033905534985488
1490 0.010631237782358182 -0.017412919226866573 0.024195935109483122
1672 0.01787533551711056 0.022469607687466572 0.015165495093625796
1948 -0.0028767713481311357 -0.001384072442007989 -0.003709538237940636
1227 -0.004275830370673567 -0.0006543254088305979 0.0002811307860858972
781 -0.0017223297403774955 0.003553547273246263 0.0005387888586226929
782 -0.031485233061748864 -0.001726087786048364 0.016247610850959243
783 -0.0007589147586327327 0.008341278657930256 0.0007214224464404811
802 -0.010220796507960523 0.0045598588952371075 -0.0002671556418317105
803 0.015097018394952751 0.0364442759159662 -0.011050411581828939
804 0.002897711332882258 0.006461018586256714 -0.007167589359354711
808 0.025130914891270072 -0.016844222257888196 -0.03187622039595299
809 -0.0054019831911421 -0.02177712720919317 -0.00042547186992202365
810 0.004006827821977135 0.003442534417912101 0.0003688552555637593
823 -0.010147983931748102 -0.003425098509277852 0.0032996789808059077
824 0.013002796783479481 -0.02169968825094138 -0.020255180584091852
825 0.0034150380013214074 -0.0057949976283231805 -0.0008856197025987817
826 -0.02696260620105874 -0.009642550802157833 -0.007045596435377781
827 0.00448759914834673 -0.006707707376749458 0.013605965101884313
828 0.0031309332979183196 9.005607993421384e-05 -0.00637169653037158
832 0.016632891042132086 -0.0006855904167282471 0.003526432646302588
833 0.024510339971327916 -0.010992334106763441 -0.01028174433487175
834 -0.003380781358345274 -0.007015205737914674 0.0020099156525585464
1656 -0.001526274590735943 -0.0047152161147696 0.006690577200597993
1163 0.02642543120841192 0.007811285808367836 0.0008027479634401105
1476 0.0005017914232592458 0.0020362343142535824 -0.010386272937476843
1655 -0.0001911340467384202 0.002357102314169323 0.006365792165055632
1059 -0.005319912071078828 -0.002323693762618677 -0.003016531979102139
1131 -0.007149750652743089 -0.007348818253819134 -0.0017681184097448803
1857 0.00387510077383803 0.003476807919530403 0.00473885497880997
1705 0.0061485311783704135 0.028608346976184966 0.008712761789265099
1108 0.004380310156319241 0.005839096919467672 0.015260908819901407
473 -0.014272853204278933 -0.004699975806826093 -0.01853943227087015
1218 0.00034999760427740665 -0.0029561408372478543 -0.001320103272768087
1606 0.009017616177985825 -0.03597819862974152 -0.004326379805993786
886 0.016652018454344587 -0.013242457825044494 0.011548621542833551
887 0.020264933464534583 -0.0017858234430736717 -0.0008689782001149793
888 0.004230838887419014 -0.004168770870730381 0.001839432332947154
892 0.012861530002784198 -0.011516865284100244 -0.0022953117776667842
893 -0.01717550800062119 -0.004407184544025149 -0.0014286175307866892
894 0.0069769603227211 -0.0011710711484463478 0.00676856947370328
1920 -0.0009225128854803142 -0.004692473981895462 0.009945363643195293
1212 0.004495450833948764 0.0007082125443263908 -0.00013944047963042395
1169 -0.00860324486209841 0.00954912796128678 0.01181502537638578
916 -0.020293492842298262 -0.00924897820174887 0.021838708631156722
917 0.00010858084614074088 0.0037818705553163833 -0.004763032817800382
918 0.00249837250385979 -0.0037607473814977753 -0.0022245755338592284
1481 -0.015628608899012564 -0.01754384028888773 -0.018763466846798933
1598 -0.014729267886869438 -0.011279918554175641 -0.024303642266281504
59 0.0026873727349128896 -0.0007796325611629357 0.013887908693139678
1697 0.016062997462201134 -0.03426643986102458 -0.013564812477521195
1352 0.010582770377692733 -0.008623092916969402 -0.026113113072780306
958 0.014632101878588367 0.002541113705091417 -0.006249476906459256
943 -0.0004880950987129498 -0.028924358541007732 -0.008754628881377806
944 -0.004111398315597931 -0.014282513210001579 -0.011957296411876733
945 -0.010120700991621516 -0.005604395613846528 -0.0007504165674251073
1029 -0.0005613735478935713 0.0011160839001291985 -0.0076513560070999445
1058 -0.0011875167618979811 -0.0008580930604129281 -0.029519526372285988
1071 -0.013508702501006598 0.009137842149361499 -0.0028444787402993913
1081 -0.011507272162320762 -0.0041402728445482625 -0.008366097166652701
1734 -0.00032645093383365075 0.007589316316845538 -0.0014733130281845
1027 0.023744514117929383 -0.008002770670955964 -0.020873782441986233
1268 -0.000778069216940784 -0.011634716822478212 0.01107905010049986
1353 0.010048733088263082 0.003283042007931085 0.0008134624825218408
806 -0.0032033731560061358 -0.011657373602215818 -0.0040530669936426796
979 -0.005671370128762974 0.01115320849893335 0.0194913048976414
980 0.01546835106324063 -0.015235856404153163 0.010061236757578846
981 -0.0009161724525194947 0.0014009600043760834 -0.0035637876578536627
1635 0.0038061416112316034 0.0013765260496100757 -0.0014298770606884792
807 -0.0003607300937486852 0.003653973690869714 0.00045230366408988956
1919 -0.023007158770795746 0.018580303051733443 -0.021165127734295037
1952 -0.00942670588440497 -0.0009483650824669988 0.010645190998806023
995 0.005829011471648519 -0.010542375773439194 -0.019833958467924257
996 -0.0007026743489991247 0.0034347504874716133 -0.006225974146675583
1935 -0.003996867368630907 -0.004402323108107032 -0.001275270890338046
1159 0.011210954919077773 0.01968909058106289 0.00021367729759415552
906 -0.000907845993571731 0.0013724619556065262 0.0038197433685313027
1006 -0.005200933437120964 -0.0028356231672937945 -0.011502723628115757
1007 -0.03780771503770593 0.04791329636250854 0.03858745594712062
1008 -0.0026188467159904637 0.0016938440990741234 -8.543173407739334e-05
1009 0.0015956334151302812 -0.010741689320880996 0.017849697007796168
1010 -0.013253671019388525 0.002828589374450122 -0.011800582091753243
1011 0.0023175685756249413 -0.00289569173091451 -0.0009219901091173314
953 -0.004623921407097168 0.003212584118872194 -0.003875956891608462
1028 0.012016708992249051 -0.006599833006932514 -0.0010179717180745591
1267 -0.0026670837634172346 0.012027036666082515 -0.003199395600380642
342 -0.014274299316975075 -0.026347166988488623 -0.008742274497427044
1969 -0.018053947910459518 -0.046355613137996785 -0.00461831187124376
1747 -0.009395264497832916 -0.02047369718768641 -0.013284892345130826
1180 0.006556821484120267 -0.03331658484398967 -0.0023902951123161184
1376 -0.01673072149034056 -0.013563284669939299 0.02586724271303284
1068 0.007527797987921059 0.002922650324633083 -0.004920655900719731
1048 0.008308014204030474 0.01914411108802541 0.012983853541197637
1049 0.006373089368958656 -0.0031355656822551832 -0.013073541721578106
1050 0.007984371874316604 -0.0008589080903722809 -0.0011552511967354148
1567 0.01888331650499955 0.03747198152101155 -0.006724863647914751
1698 0.005458311168158084 0.005322984396101146 0.0030748690247284797
1056 0.0007028841474434334 0.005597205760496399 0.00372151755844329
1303 0.013934831596434378 -0.016075058188105524 -0.013237894633469452
306 0.00254799247589172 -0.00287691076602393 0.00010368735065394873
1399 0.02573103774780898 -0.004957048442956445 -0.011901985489023957
1063 -0.017472453788130712 -0.012636907905386683 0.008204186548319324
1064 -0.0017902445312609652 -0.0021865154725259532 0.015083847107705654
1065 0.004756271126055641 0.0031785071050187998 -0.005887198360033368
1889 0.0013407118735755375 -0.0024567629604045917 0.0164804886930924
1045 0.018587676368579897 -0.020684235966417865 0.001714987035937452
1749 -0.003077274575114107 -0.0005292307624787656 0.00011242720922608565
726 0.0020013923257148967 -0.023684999208060727 -0.016013448236514523
1168 0.027159344059364043 0.0017653660873964711 0.0006274502465255387
805 -0.02667302444861099 0.007998962017346343 0.01656937048897875
1775 0.011447578170956806 -0.0012001308636510877 0.003854605788539494
1079 0.023702895873110454 0.011947833973026437 -0.0010805262129476726
1940 -0.006170446931563759 0.010894326992333388 -0.006826004616060921
1084 -0.01889079249321862 0.01689963205962608 0.010944517445231885
1085 0.0021685165318752857 0.004526313538161629 0.009994278777729048
1086 -0.0027591313337762984 -0.006300887527987776 0.002226133004096937
1093 -0.03252858240749428 0.011244286298353707 -0.014319580150522492
1094 -0.0011483655281636193 -0.0009398350634357496 0.0112401631165155
1095 -0.006687987531995106 -0.004807835656271854 -0.004345232975458601
1099 0.0022506871924021297 -0.005582782079659609 0.013206793844315654
1100 -0.010028141185008681 0.010664408321036437 -0.014709088992849019
1101 0.0033360585878910425 -0.00353577903668491 -0.009812213350087773
1915 -0.03464337727849844 -0.001938262326131683 0.02691962377812298
1741 -0.014320219409061606 -0.006622830342342579 -0.013636622611537865
939 -0.0012404023397679274 0.002081436540609799 -0.0013865921048789936
1120 0.01494553767534449 -0.0075304230917529955 -0.014726058096087836
1121 -0.0063662249348789765 0.01083751467645627 -0.020102845433168558
1122 -0.003616854809555891 0.002117304259669445 0.0007842108464320328
1385 -0.0018634787356533926 0.013740877258827212 0.0016526372987849074
1680 0.006238965782442049 -0.0016055773200410778 -0.00597315601755826
1125 0.004898232005370177 0.0001644424862137242 0.003496952759230105
1216 -0.013930765370174457 -0.020430326943249814 -0.001206473306694102
1716 0.002457133784493788 -0.002503352207275212 0.004826335792874706
1245 0.00043467456556039747 -0.004281722044532822 -0.008644985917629357
1109 -0.023481915039593324 0.026715640699705574 -0.007987892170266688
1387 0.011851712048654671 -0.01579004951405942 -0.0008840536790091381
1620 0.011004997482118344 -0.005067874004562357 0.00698413201982462
1138 -0.012584438804957012 -0.012801263343991424 -0.019471609377306708
1139 0.0008154743557126029 -0.006930768584048937 0.00831755570013991
1140 0.0042654504311918275 6.84401093750358e-05 0.0014304384489119872
1110 -0.002841111066656384 -0.00414303132499409 -0.0019075286692820752
1483 -6.92779740695725e-05 -0.008914512569451248 -0.024183135269924095
1923 0.0015251341523600567 0.0029586421336260807 -0.007383614873579211
905 0.00867531168088227 -0.0020897751539599944 0.004247621513971005
1181 0.024376890883623697 -0.007878059539774548 0.0025422709328470853
1176 0.00019538903116885417 -0.0007011398947182067 -0.002288236787758605
1177 -0.0229081500145126 6.865066185264968e-06 0.029303283169912517
1178 -0.02570379110924297 -0.007041688334673802 0.01629679493197749
1179 0.0010284709179810543 -0.008035675742142626 0.0008405777180478062
1941 -0.0030321983543424753 0.0012109627396621457 -0.0006191977781251083
1485 0.003983728685813463 0.0030536970286840636 -0.0031712342618771135
1174 -0.006847388232754207 0.02340374229597734 -0.021974850970781952
1195 -0.007217906465763411 0.021292958995352516 -0.02236107404711855
1196 -0.019776945009961078 0.007884286460227688 0.004085618702648385
1197 -0.0046733890560816255 0.004842854450758197 0.002119088684777145
1198 -0.020477388807074243 0.016482413877711644 0.009964406275961232
1199 0.013863999802587757 -0.017185420751063156 -0.013920920578438847
1200 0.005535041274485132 0.001015632438886338 -0.004794823757780907
1207 -0.004149180764365172 0.010861435097881001 -0.028992643736987816
1208 0.002606794563202904 -0.01647823914357965 -0.00538529252747502
1209 0.003975911735051957 -0.003065259838439209 -0.004926677167258469
1534 0.002527026886631309 -0.000655100623751981 0.01946637196854089
724 0.0033107727329694846 -0.002636857081509158 -0.0001586371842702303
1175 0.012076588497126867 -0.021124240219139674 0.011127248231063898
1482 -0.005499998583849675 -0.0019262038220833298 -0.00679968349714298
1707 -0.0017306398704427402 -0.007990210385268705 0.003724959383802351
1492 0.012489966472186776 -0.008970368942305821 -0.006847448653283624
1142 -0.0002506268618911579 0.0025152788631981 0.011796062205004293
1269 0.00012283036897496035 -0.0017124622613116402 0.0076997577474668495
1224 -0.001570211686905558 -0.00063954836332764 -0.0034435775520912145
1888 0.00043899617355366366 0.004673564885995321 -0.011623445406554335
1057 -0.009484949760391475 -0.0120554564109628 -0.008250320795338034
1881 -0.0015803133264163396 0.00494865442833335 -0.003097880791097645
1246 -0.002352441834889308 -0.011261410644598586 -0.009652328506260438
1247 -0.01279970689682931 -0.004113076768994262 -0.010155433607102655
1248 0.0034021470155695065 0.0016561313274155987 0.0031134006076251257
1258 -0.017222166723630247 -0.013437938394904883 -0.032559066047189264
1259 -0.006070052471565581 0.004404580589839446 0.015976848908485712
1260 0.004449012807789141 -0.004709118229964227 0.006133856337366225
1297 -0.0030512127805175184 -0.0023610656147914633 0.01504576781284598
1298 -0.03241040629074523 -0.02808263296036182 -0.014735736022810149
1299 0.0007140038169923202 0.002287862206981098 -0.006933507919971331
1694 0.006968696670805837 0.0014699298048209762 0.0025756391845881983
1304 0.006544824752712445 0.009123860036558535 -0.026179819659791444
1305 0.0019463169291611241 -0.0022352369034780275 0.004462471928366578
307 -0.02616328126613947 0.003612181580412453 0.014732110471236896
1082 -0.022846206691900454 0.020839742442908506 -0.008314522140440752
1619 -0.0027295940267941876 0.012537967677992241 0.02885509948770289
1318 -0.008768318435486176 -0.025873585273850554 0.016353267174084134
1319 -0.013801208880220404 -0.01727176158535372 -0.015304634507386942
1320 0.002830647229056061 -0.002460489224910184 9.720271036822191e-05
1339 0.012629691946470064 0.009188838621434069 -0.009065085476374052
1340 -0.008114028301198999 0.0018719534897924655 0.002007726833072626
1341 0.011026154323681639 0.0010411974053414 -0.0024628974933596083
1360 -0.004368257386211417 -0.011767372441076139 -0.0029654973007346174
1361 0.009950243023855337 0.02292615336497789 0.007815536537568248
1362 0.0003402778129551301 -0.010638361912531761 -0.0034020287011332956
928 0.025172471303368946 0.0023537433184605445 -0.006279563616665624
1522 0.0052673839524153936 -0.012986466313687212 0.008779862369750445
865 0.016653142539766592 0.012379976516633705 0.029207331401929375
842 0.019387535321041184 -0.02254046453834345 -0.020819206352949784
1971 -0.0048694346286002966 -0.0037204253212553785 0.0037208277724804536
1970 0.006758558125224917 0.003959927677119309 0.010121593079497258
1375 -0.016284331078152886 -0.009255151862588408 0.007401459049181524
1647 0.0031855829354896607 -0.0072556174688497505 0.003510579488681913
1377 0.001452486651197082 -0.0005280858373326291 0.0036839496825831885
1124 0.01145772663116143 -0.014569705150888988 -0.00551700445000852
1388 0.00218110681933009 8.817999481569988e-05 -0.017359211199128855
1389 -0.005688949225745781 0.001921593576480564 -0.00181768837350498
994 0.0032116188157872323 0.011801000180790706 -0.005364078072689152
1748 -0.012135342953592958 0.029350585580099797 0.003583016302748269
1712 -0.0007144980774411884 -0.015075097905917424 -0.006714335566119591
1393 -0.00776602952606474 0.01719546254491362 -0.01704184506536827
1394 -0.0032161963518396895 0.013108375684227687 -0.003867183056812123
1395 0.0003709484935912167 0.002043504648849491 -0.0076703812324980525
1864 -0.005508701230132928 0.02380872274112484 0.007963112199131888
1164 0.0003458824956024539 -0.00014825331924167584 -0.006880802261932099
1401 -0.0028883181614723077 0.0027374257550623056 0.0011560834029717816
1405 -0.018405110750184726 0.005573480682219017 0.014013378357729383
1406 0.03800900646432565 0.01138587625641924 -0.014156362810814995
1407 -0.002342503070443101 0.003451822405297473 -0.0007164455747976036
1914 -0.00982698281781749 0.005563911049025439 0.0005009380770760956
1646 0.02752869126685423 -0.006929411543375949 -0.008280756304131809
1922 -0.019975432543587225 0.03755366573563956 0.007831070819818915
1426 -0.007379354794737397 -0.020810162369075798 -0.0062865282837935585
1427 0.004095241446108722 -0.005778576227043458 -0.01935828980458412
1428 -0.00431897181195609 -0.002763973093699072 0.004918924130089917
1055 0.016231817538414867 0.0035154724361869463 0.0021243275242494707
1123 0.013027373502958612 0.0007615488741895313 -0.006803364501180672
853 0.020363938361680704 -0.0017283420165012816 -0.022501210638242695
1432 -0.00769605912965438 -0.01605651108176015 0.0139001273035483
556 0.0035622893531378525 -0.007295820651839311 0.002609679549984484
1434 -0.00036737809967682584 0.0011238860825023332 -0.0020582689768596754
1435 -0.00255484214952922 0.01573922941193504 0.008687655535229323
1436 -0.001014093670953233 0.022975207372284458 -0.005629154240363823
1437 0.00029134325750393496 0.0012686272382987124 -3.9913385987902375e-05
1444 0.0018743754372141364 -0.017008721786826355 0.007763059606231949
1445 0.019506628067903438 -0.03150280764973357 0.00874105058471623
1446 0.0009863799908138957 0.009062245214532583 0.0045381703064085715
1447 -0.00486319458692305 -0.020601232096755736 -0.03209499199578128
1448 -0.009419535890422657 -0.009629605840329474 -0.02296636008159802
1449 0.0006888229576615991 -0.004759394668976588 0.008815749376597229
1456 -0.0031858615012040703 0.007058929399916477 -0.028408312117628187
1457 0.0005023217593411639 0.0009332552734333642 -0.01928824863790684
1458 0.0027189780947112817 -0.0025677412184420723 -0.00028381267244498786
1462 0.02494003272120273 0.006006058371082719 -0.013484636164951502
1463 0.0005384290030167341 0.011947465200288476 0.009049743203856181
1464 0.0006751997456401484 -0.009118914143738372 0.008441553615786081
1468 0.003970553728466833 -0.0002865864119518061 -0.02009447726392906
1469 -0.0005227577976241064 0.020075037898042575 0.007521359532617516
1470 -0.000983689299744632 -0.0024132554022606692 -8.53485497708484e-05
1474 0.008772075602573736 -0.013570653388570815 -0.008966082761882445
985 -0.001500102899405841 -0.006585011189418597 0.010376801004308414
1066 0.0030646945725392857 -0.005660720059862484 -0.014943480652279921
1384 0.014727510046705616 0.0007524059231050361 -0.01039186200142657
986 0.0360963198652171 -0.03292225955723477 0.002164506820892984
1386 -0.00451221367967729 -0.0001816427714511875 0.002794628945323296
1494 0.00017029540563759664 0.0030991024767885694 0.002066735853284205
1080 -0.0006367698648424905 0.0029096682080039854 0.0012328928030390634
1912 0.014261592972590376 -0.011935820187501991 0.0063042518174189445
1498 -0.01602611285443625 -0.012421216475730586 -0.014915272158374855
1499 -0.013885236277256277 -0.016605050043645122 -0.05642497122641241
1500 0.0032394260192732133 0.005008133157905063 -0.004893177406280429
1504 0.022717782553839386 0.011863240712301753 -0.0015697881138798952
1505 -0.007739650822770909 0.00811482207101066 -0.009739361181046652
1506 -0.0020755800237755515 -0.0010057549799532479 0.0039660464423367184
1182 -0.007003549840743697 0.006816750880859047 0.0012714504462071562
1243 -0.006791422764376881 -0.020425244348325582 -0.00778395699970373
1917 0.00402252476056922 0.0006862211626476196 -0.002421062345998549
1078 0.00559363837265862 0.005235788136720549 -0.007487954258023843
855 0.00046853577682478913 -0.003159526792544605 0.0019666726948726976
1913 0.0030755865147414105 0.010995620620297734 0.01246156720368894
1418 -0.0201398949923098 -0.016206880755003934 0.006995658291469244
1419 0.0011005835924114576 0.002367972053607352 -0.0008491106858755806
557 0.006947017251812096 0.0010567749676926655 0.0057531406898295384
1540 0.0035181083118004295 -0.008209193834640346 0.002968450635321754
1541 -0.02097767211893517 0.012314415176887255 -0.01277069280263682
1542 -0.009040242167272445 -0.0033583461953029413 -0.0021187036665752082
1555 0.019827303107634392 0.009757663552301048 0.0038078871559754156
1556 -0.02750372752425005 0.009636849187072756 0.003305986802094747
1557 -0.0031891965499568488 -0.0006172788821689515 0.003366784466001733
1561 -0.009240174555315894 -0.009130363720512484 0.009511650113460807
1562 -0.006046789976991279 -0.017731290958886065 0.006311209850690715
1563 -0.001098236911345317 0.0001436392495771657 -0.0017700646678803192
1645 -0.012334033369132016 0.03354317537850921 -0.0005902016571507006
1639 0.0016486863139397272 -0.009092881664516198 -0.0032381841469330493
949 -0.009566074713521971 0.009851103622995372 -0.0030566243532939015
1493 0.0048770822761134095 -0.0011483867338688265 -0.0175929666142062
854 0.005623768685239524 0.0007155842376092252 0.001455827166424935
1711 -0.00030832894382437317 -0.001398266656043757 -0.029692144943543636
1679 0.0045185818550527255 0.010093289906504406 0.0032743780370751143
929 0.0026057917050400655 -0.0042005408217082795 -0.028807940728769414
1480 -0.022880644012837424 0.009007265926303118 0.01105397181432616
1609 0.017705175621190287 0.0026715436774874053 0.013406816222919516
1610 -0.010653852594310257 -0.005226313478971416 0.005831347649660334
1611 -0.00033743827666079553 -0.004702586708340315 0.0011138700934337342
291 -0.003092715620124175 -0.0041033958547385795 -0.002807076506784408
60 -0.008751038646446427 -0.0036717066540640723 -0.012127307871898647
1939 0.007231244059969444 -0.030736540614806292 0.00876619094977779
904 -0.0242504880573026 0.0008309328551752794 -0.005898483254497816
1921 -0.008497606698099252 0.005451428836056657 0.0028325028945475478
1890 -0.0027120668644017255 -0.008795929624835245 0.0020500861465124714
1621 0.01267634839128334 -0.003197961919522467 -0.0008832018141980022
1622 -0.007766247428088761 -0.016139061200299825 -0.007320971185783175
1623 0.0009272175888334531 -0.0014657808142589028 0.003196569261675997
1636 -0.002045779776638277 0.0012128470209445761 0.009292139537906719
1637 -0.007377128919492617 -0.0010803319614018723 -0.008013881586246066
1638 -0.0009119832085141921 0.0020180150750876732 -0.00412955752407049
914 -0.0059192661548394645 -0.01181532460827226 0.0008647202672373267
1742 -0.008843392910454115 -0.0018968353170158282 -0.03056132789561755
1162 0.013295652390499624 0.020667653096296056 -0.0027769852141744855
1648 -5.2890623034419314e-05 -0.0182079205834099 0.012237562281068542
1649 -0.014941734525792947 -0.006521962459116112 0.017025040584354223
1650 0.00021292244940792412 -0.0007790574639112573 0.0001338312392149938
1666 -0.026188107347758127 -0.01161924469171947 0.023684066201030265
1667 -0.0009594728824546843 0.026562954364608232 0.0002943847679515352
1668 -0.001304147786987363 0.0031677480875207465 0.0021562510682904402
867 -0.0025472954361611157 0.002810382391551074 0.00010093750299541305
952 0.012994171859261381 0.015233865265579634 -0.01936603452312027
1523 -0.0055137640392649385 0.026940283990054596 0.0417479639378599
1858 -0.009657186288152472 0.0041499355440724394 -0.023981685726863163
1217 -0.00684317069251844 0.016420033503331734 0.00430446641849269
252 6.698804151459568e-05 0.006274371240952505 -0.00884770660470369
950 -0.0028202419427316577 0.008386738255677801 0.009899207723234564
205 -0.001741173199245009 0.008111003031392472 0.007415871303091764
1678 -0.01525468144164527 0.006684696005927877 -0.005501329598357755
1853 -0.015020696080522448 0.0236062967582067 -0.009743629967644923
1918 0.0142151913172607 0.01290238173568042 -0.00017246709711038016
1713 -0.0026601510905735156 -0.0021511450136268368 -0.0007820596112741715
1351 -0.0013994486303267643 0.014924627951124404 -0.004326177783530682
1951 -0.00815553727350712 0.0023742065647874523 0.0193786211887791
1863 0.005737590819951394 -0.00200215089644392 0.006381056542799728
1720 -0.004925343287008137 0.005713778955521358 0.008381726792473183
1721 0.008026984565947857 0.01001826196357196 0.01813676208522008
1722 0.0072952873102420665 -0.0012866709025806614 0.00730106012820183
1715 0.003411384551285255 0.00990301030704842 0.005723504335071693
1733 -0.020216752326790096 0.015511403108709939 -0.012740931289986475
1714 -0.0084382946045526 -0.002369724262768737 -0.004436083468862989
1738 -0.023647848335176004 0.0014010833878511887 -0.01786062510487433
1739 0.002632126097396424 0.0016377567395307881 0.00929831795658596
1740 0.0015407122141401842 0.0036323551658992504 0.0007513015521815622
1222 0.012734416184575352 0.0006766283694736072 0.008287126221289515
1210 -0.004805989519364029 -0.010936954440530246 -0.010174624829243605
1732 0.00665437837021146 -0.0008438782423999831 -0.011477200980585932
1744 0.010983351042760946 -0.02275352433388397 0.0036343682512916544
1745 0.004728175095847588 -0.013942104554587652 0.010257714074015899
1746 -0.0017605799612181736 -0.0006988783402669658 -0.002213249045905607
1855 0.015215653260842638 -0.001118744916320993 -0.024773054552389557
1537 0.021137491627181752 -0.015684553221377847 -0.008481124037893785
951 -0.009332972135993505 0.0032638763743788783 0.004959361589822149
1753 0.004401138603242024 0.006711416884619694 -0.024927784597944282
1754 -0.004733320219154622 0.013699698774655624 -0.0012100547815710706
1755 0.0010779848507349915 0.006471252887180137 0.007024084821854375
1953 -0.00451503831245562 -0.0027284127746855253 0.0028185034780295625
1633 0.01277393287304367 0.0029954018790948594 -0.0047463514138629224
1933 -0.02098688975908171 0.011791216261198683 0.006086415477403011
1762 -0.01854882368959399 -0.01913505043923627 0.034790718982217035
1763 0.004098415001085169 -0.02653071270106821 -0.009496244225341373
1764 -0.002736746847331762 0.0029519416722581216 -0.008254333849961628
1774 0.0017655674052591214 -0.026850536743169413 -0.010915845211465281
1634 0.006043542090949545 0.00843382852952547 0.001729090640567243
1776 -0.0006639057437816071 0.0017672815096829734 -0.00399944476290263
1792 0.02267061602904165 -0.01338389141749061 -0.00024466207337269993
1793 0.0006022526745077596 -0.003965834697653841 0.009601211341562164
1794 0.0005333912889099242 -0.0016309360931432194 0.0012449862322584033
1795 -0.010636682358268479 -0.004076845566264724 -0.0040017334969962145
1796 0.009971213465802525 0.029885680292660567 -0.01703429379527528
1797 0.010192597853253337 0.0012124188388445323 -0.00029653405370960343
1804 0.005776450983152613 -0.025768105610788912 0.020418754626487363
1805 0.006751894740455746 -0.011954094667171214 0.0036229413246327306
1806 -0.00037565242898369587 -0.010250054877477537 -0.0018570871769026435
1807 0.011116861460363399 0.010307278412847459 -0.02237080075093324
1524 0.005810364687490861 -0.0008641320106381919 -0.007177511522487728
1809 -0.0022651241124035768 -0.005314334875745569 -0.005151488682929408
1822 0.0032148961669423823 -0.023324919625124195 0.009033734294499352
1823 -0.014800243829093607 0.0012150277813417901 0.003349564645110525
1824 0.0012282454013105436 0.0030982943997009856 0.005272570074519865
226 0.0029436768912514243 -0.0016745545243855614 0.008193602742036383
1696 -0.015499404125239289 0.021711295064632763 -0.01616464383213891
1539 -0.004068114890184122 0.0007867890512911128 -0.003798728731090154
1843 0.005033743638427814 0.00201424886226438 -0.00440718238123989
1844 0.011897280623932261 -0.014781139555477581 0.03813163967906324
1845 0.0015526161800688233 -0.004700294347793545 0.005181254990809896
1695 0.00016122419892649104 -0.002024138780261112 -0.008565349836056333
866 0.032957257925918707 -0.005040773282571652 0.009319548632033317
1854 0.0009394968666290241 -0.0005396802676310752 -0.011227063665163468
987 0.0033822229979040387 -0.0013096958979236012 0.002757097528142526
930 0.008726695447991577 0.001196837679201612 -0.002862410914353102
1880 -0.019600354248242594 -0.005726466878504582 -0.002267063440823703
1143 0.0012477406396937977 0.002459046352717363 0.0029432957283113416
224 -0.0048872368828763516 -0.014088074876130285 0.0026988189753261696
1934 -0.008560283804900225 -0.00825654801059355 -0.0006958753716570365
1808 -0.02172477643755233 0.006181472692115818 0.011445778994558288
1070 -0.0051453296362801455 0.0252375457578441 -0.040356891880681776
225 0.009422969204575108 -0.00042152998988437897 -0.01927233987782991
1879 -0.00527417320169707 -0.00317286473880002 -0.00592166749511
1223 0.02489744077521285 0.004222440086127385 -0.00916903046381796
937 0.0015652345652463016 -0.012705683382965174 -0.016726838622840075
971 0.018402973982844035 -0.013121578745973032 0.01441059556265603
1859 -0.0009501377781858212 -0.008903485247632521 0.0026302755713216233
1618 0.015675589155030752 0.007597555913717803 -0.024478327425728807
1231 0.0031950821245494824 0.0018531983485601492 -0.008430967603704582
954 -0.005680512766970586 0.0028812785981172477 -0.001946706540280698
1390 0.006629920718916336 0.0020309157282366952 -0.003327941796152527
1856 0.013003226304896252 0.0038970083808808416 0.005443368880336213
1475 0.007866353603878109 0.027472613147883053 -0.004149665945448941
1743 -0.005783843695445231 -0.0013525991552990897 -0.003974037408786025
1535 -0.0006174681894789096 0.028849776262978175 0.007825622094940659
938 -0.006672282854572928 0.013833252390505162 -0.008232222415259581
1536 0.0021018723195833033 -0.0004080820866034499 0.003053809263852347
1706 -0.006005337058264632 -0.023183531157697713 -0.009673100766693738
1693 0.012968595524730986 0.00104827174428463 -0.019234990280520527
1054 0.012191128096204507 -0.007544533703305555 0.026012607984341473
1429 0.016509037448677044 0.0016058108198221698 0.0013068371873028195
1484 -0.027310320522397544 -0.04442221902618059 0.008215308570829414
970 0.023687780199478616 -0.0008068872339980286 -0.003861803502204307
972 0.006677779084043832 0.007380241466795403 -0.00232758175793841
1391 0.024804432387481257 -0.0011505964002094015 -0.014281824114092095
1141 0.0026548726319751883 0.010903362974809486 0.0001792199003809205
1400 0.016047361031104254 -0.008145509483342054 -0.03324928424143506
1607 -0.0091440742116165 0.016876031898188454 0.0006037823888393161
1433 -0.011216108614334832 0.0011605863523931404 -0.013747568192394146
1860 -0.003968441951409664 0.0003845452809579851 0.00240447745323641
1392 0.005668246054388674 0.009919285877605408 -0.008242503051495558
1170 0.0024197459752998314 0.0016294951985825713 0.0003577574244172869
1083 -0.009820170922397325 -0.004445637481565631 -0.0016396765126323216
1862 0.009302311425824154 0.0010297907133737906 0.012154913501462857
1538 0.019986742677848186 0.0031732026146320254 0.0008524118868123431
1608 0.0006969738447727774 0.0007501960639717905 0.003107142954360323
58 0.0018765899285806094 -0.003937904862587198 0.003514688763080988
1861 -0.017310628349904173 -0.008945283158696313 -0.010242183583558283
1613 -0.010763279042095718 0.01003779572030919 0.02812942565266714
1916 -0.013333322743358779 -0.03260479064826925 -0.02353846493791035
86 0.0038109016139593888 -0.008221282336573273 0.0027239141065328533
565 0.0021750646882334845 -0.0008470549722141506 -0.018954891472535883
39 -0.0044495649040216766 -0.005511646098478172 -0.001504899875564022
974 -0.02460227590952995 -0.006204770032899642 0.007122399853705175

Bonds

1 2 644 645
2 2 644 646
3 1 56 57
4 2 960 958
5 2 960 959
6 2 1314 1312
7 2 1314 1313
8 2 564 565
9 2 564 566
10 2 67 68
11 2 67 69
12 1 106 763
13 1 124 764
14 1 138 139
15 2 1614 1612
16 2 1614 1613
17 2 149 150
18 2 149 151
19 2 236 237
20 2 236 238
21 2 1233 1231
22 2 1233 1232
23 2 161 162
24 2 161 163
25 2 233 234
26 2 233 235
27 2 140 141
28 2 140 142
29 1 312 313
30 2 314 315
31 2 314 316
32 2 152 153
33 2 152 154
34 1 362 765
35 1 380 766
36 1 394 395
37 2 396 397
38 2 396 398
39 2 405 406
40 2 405 407
41 1 442 767
42 1 460 768
43 1 478 479
44 2 480 481
45 2 480 482
46 2 576 577
47 2 576 578
48 2 582 77
49 2 582 78
50 1 526 769
51 1 544 770
52 1 562 563
53 2 573 574
54 2 573 575
55 1 610 771
56 1 628 772
57 1 642 643
58 2 852 850
59 2 852 851
60 2 653 654
61 2 653 655
62 2 736 737
63 2 736 738
64 1 690 773
65 1 708 774
66 1 722 723
67 2 733 734
68 2 733 735
69 2 408 409
70 2 408 410
71 2 1047 1045
72 2 1047 1046
73 1 222 223
74 2 876 874
75 2 876 875
76 2 489 490
77 2 489 491
78 2 323 324
79 2 323 325
80 2 504 505
81 2 504 506
82 1 472 473
83 1 54 55
84 2 588 589
85 2 588 590
86 2 64 65
87 2 64 66
88 2 73 74
89 2 73 75
90 2 76 333
91 2 76 334
92 2 79 80
93 2 79 81
94 2 82 83
95 2 82 84
96 1 136 137
97 2 748 749
98 2 748 750
99 2 146 147
100 2 146 148
101 2 155 156
102 2 155 157
103 2 158 415
104 2 158 416
105 2 164 165
106 2 164 166
107 1 220 221
108 2 230 231
109 2 230 232
110 2 239 240
111 2 239 241
112 2 242 499
113 2 242 500
114 2 245 246
115 2 245 247
116 2 248 249
117 2 248 250
118 1 310 311
119 2 745 746
120 2 745 747
121 2 320 321
122 2 320 322
123 1 720 721
124 2 329 330
125 2 329 331
126 2 332 583
127 2 332 584
128 2 335 336
129 2 335 337
130 1 392 393
131 2 402 403
132 2 402 404
133 2 411 412
134 2 411 413
135 2 414 663
136 2 414 664
137 2 417 418
138 2 417 419
139 2 420 421
140 2 420 422
141 2 665 666
142 2 665 667
143 2 326 327
144 2 326 328
145 1 476 477
146 2 486 487
147 2 486 488
148 2 730 731
149 2 730 732
150 2 495 496
151 2 495 497
152 2 498 743
153 2 498 744
154 2 668 669
155 2 668 670
156 2 501 502
157 2 501 503
158 1 560 561
159 2 742 243
160 2 742 244
161 2 570 571
162 2 570 572
163 2 739 740
164 2 739 741
165 2 579 580
166 2 579 581
167 2 585 586
168 2 585 587
169 2 492 493
170 2 492 494
171 1 640 641
172 2 650 651
173 2 650 652
174 2 659 660
175 2 659 661
176 2 662 159
177 2 662 160
178 2 338 339
179 2 338 340
180 2 656 657
181 2 656 658
182 2 70 71
183 2 70 72
184 1 38 85
185 2 61 62
186 2 61 63
187 1 107 751
188 1 125 752
189 2 143 144
190 2 143 145
191 1 204 251
192 2 227 228
193 2 227 229
194 1 290 341
195 1 308 309
196 2 317 318
197 2 317 319
198 1 363 753
199 1 381 754
200 2 399 400
201 2 399 401
202 1 443 755
203 1 461 756
204 1 474 475
205 2 483 484
206 2 483 485
207 1 527 757
208 1 545 758
209 1 558 559
210 2 567 568
211 2 567 569
212 1 611 759
213 1 629 760
214 2 647 648
215 2 647 649
216 1 691 761
217 1 709 762
218 2 727 728
219 2 727 729
220 2 1368 1366
221 2 1368 1367
222 2 801 799
223 2 801 800
224 2 819 817
225 2 819 818
226 2 822 820
227 2 822 821
228 2 840 838
229 2 840 839
230 2 873 871
231 2 873 872
232 2 879 877
233 2 879 878
234 2 897 895
235 2 897 896
236 2 891 889
237 2 891 890
238 2 921 919
239 2 921 920
240 2 927 925
241 2 927 926
242 2 1902 1900
243 2 1902 1901
244 2 984 982
245 2 984 983
246 2 990 988
247 2 990 989
248 2 1974 1972
249 2 1974 1973
250 2 1020 1018
251 2 1020 1019
252 2 1026 1024
253 2 1026 1025
254 2 1035 1033
255 2 1035 1034
256 2 1044 1042
257 2 1044 1043
258 2 1761 1759
259 2 1761 1760
260 2 1062 1060
261 2 1062 1061
262 2 1077 1075
263 2 1077 1076
264 2 1149 1147
265 2 1149 1148
266 2 1167 1165
267 2 1167 1166
268 2 1587 1585
269 2 1587 1586
270 2 1098 1096
271 2 1098 1097
272 2 1968 1966
273 2 1968 1967
274 2 1875 1873
275 2 1875 1874
276 2 1908 1906
277 2 1908 1907
278 2 1215 1213
279 2 1215 1214
280 2 1959 1957
281 2 1959 1958
282 2 792 790
283 2 792 791
284 2 1257 1255
285 2 1257 1256
286 2 1188 1186
287 2 1188 1187
288 2 963 961
289 2 963 962
290 2 1887 1885
291 2 1887 1886
292 2 1278 1276
293 2 1278 1277
294 2 1287 1285
295 2 1287 1286
296 2 1290 1288
297 2 1290 1289
298 2 1296 1294
299 2 1296 1295
300 2 1767 1765
301 2 1767 1766
302 2 936 934
303 2 936 935
304 2 1947 1945
305 2 1947 1946
306 2 1323 1321
307 2 1323 1322
308 2 1344 1342
309 2 1344 1343
310 2 1236 1234
311 2 1236 1235
312 2 1350 1348
313 2 1350 1349
314 2 1356 1354
315 2 1356 1355
316 2 1053 1051
317 2 1053 1052
318 2 1380 1378
319 2 1380 1379
320 2 1041 1039
321 2 1041 1040
322 2 1884 1882
323 2 1884 1883
324 2 1425 1423
325 2 1425 1424
326 2 1443 1441
327 2 1443 1442
328 2 1455 1453
329 2 1455 1454
330 2 1479 1477
331 2 1479 1478
332 2 1488 1486
333 2 1488 1487
334 2 1332 1330
335 2 1332 1331
336 2 858 856
337 2 858 857
338 2 1509 1507
339 2 1509 1508
340 2 1518 1516
341 2 1518 1517
342 2 1521 1519
343 2 1521 1520
344 2 1551 1549
345 2 1551 1550
346 2 1956 1954
347 2 1956 1955
348 2 1578 1576
349 2 1578 1577
350 2 1872 1870
351 2 1872 1871
352 2 1590 1588
353 2 1590 1589
354 2 1617 1615
355 2 1617 1616
356 2 1626 1624
357 2 1626 1625
358 2 1653 1651
359 2 1653 1652
360 2 1725 1723
361 2 1725 1724
362 2 1677 1675
363 2 1677 1676
364 2 1701 1699
365 2 1701 1700
366 2 1719 1717
367 2 1719 1718
368 2 1878 1876
369 2 1878 1877
370 2 1281 1279
371 2 1281 1280
372 2 1731 1729
373 2 1731 1730
374 2 1503 1501
375 2 1503 1502
376 2 1893 1891
377 2 1893 1892
378 2 999 997
379 2 999 998
380 2 1773 1771
381 2 1773 1772
382 2 1782 1780
383 2 1782 1781
384 2 1788 1786
385 2 1788 1787
386 2 1317 1315
387 2 1317 1316
388 2 1665 1663
389 2 1665 1664
390 2 1800 1798
391 2 1800 1799
392 2 1803 1801
393 2 1803 1802
394 2 1833 1831
395 2 1833 1832
396 2 1836 1834
397 2 1836 1835
398 2 1848 1846
399 2 1848 1847
400 2 1899 1897
401 2 1899 1898
402 2 1869 1867
403 2 1869 1868
404 2 1206 1204
405 2 1206 1205
406 2 1929 1927
407 2 1929 1928
408 2 1644 1642
409 2 1644 1643
410 2 993 991
411 2 993 992
412 2 1413 1411
413 2 1413 1412
414 2 1185 1183
415 2 1185 1184
416 2 1791 1789
417 2 1791 1790
418 2 1584 1582
419 2 1584 1583
420 2 903 901
421 2 903 902
422 2 1239 1237
423 2 1239 1238
424 2 882 880
425 2 882 881
426 2 1926 1924
427 2 1926 1925
428 2 786 784
429 2 786 785
430 2 1266 1264
431 2 1266 1265
432 2 1374 1372
433 2 1374 1373
434 2 1473 1471
435 2 1473 1472
436 2 1491 1489
437 2 1491 1490
438 2 1497 1495
439 2 1497 1496
440 2 777 775
441 2 777 776
442 2 780 778
443 2 780 779
444 2 789 787
445 2 789 788
446 2 1017 1015
447 2 1017 1016
448 2 795 793
449 2 795 794
450 2 813 811
451 2 813 812
452 2 816 814
453 2 816 815
454 2 831 829
455 2 831 830
456 2 837 835
457 2 837 836
458 2 846 844
459 2 846 845
460 2 1944 1942
461 2 1944 1943
462 2 849 847
463 2 849 848
464 2 1002 1000
465 2 1002 1001
466 2 1962 1960
467 2 1962 1961
468 2 1728 1726
469 2 1728 1727
470 2 1932 1930
471 2 1932 1931
472 2 1038 1036
473 2 1038 1037
474 2 864 862
475 2 864 863
476 2 870 868
477 2 870 869
478 2 885 883
479 2 885 884
480 2 1965 1963
481 2 1965 1964
482 2 1275 1273
483 2 1275 1274
484 2 1905 1903
485 2 1905 1904
486 2 900 898
487 2 900 899
488 2 1302 1300
489 2 1302 1301
490 2 1242 1240
491 2 1242 1241
492 2 924 922
493 2 924 923
494 2 933 931
495 2 933 932
496 2 1338 1336
497 2 1338 1337
498 2 1839 1837
499 2 1839 1838
500 2 909 907
501 2 909 908
502 2 957 955
503 2 957 956
504 2 966 964
505 2 966 965
506 2 969 967
507 2 969 968
508 2 1785 1783
509 2 1785 1784
510 2 1770 1768
511 2 1770 1769
512 2 978 976
513 2 978 977
514 2 1137 1135
515 2 1137 1136
516 2 1014 1012
517 2 1014 1013
518 2 1023 1021
519 2 1023 1022
520 2 1308 1306
521 2 1308 1307
522 2 1671 1669
523 2 1671 1670
524 2 1074 1072
525 2 1074 1073
526 2 1089 1087
527 2 1089 1088
528 2 1092 1090
529 2 1092 1091
530 2 1683 1681
531 2 1683 1682
532 2 1104 1102
533 2 1104 1103
534 2 1107 1105
535 2 1107 1106
536 2 1113 1111
537 2 1113 1112
538 2 1119 1117
539 2 1119 1118
540 2 1533 1531
541 2 1533 1532
542 2 1146 1144
543 2 1146 1145
544 2 1152 1150
545 2 1152 1151
546 2 1155 1153
547 2 1155 1154
548 2 1158 1156
549 2 1158 1157
550 2 1161 1159
551 2 1161 1160
552 2 1173 1171
553 2 1173 1172
554 2 1365 1363
555 2 1365 1364
556 2 975 973
557 2 975 974
558 2 1230 1228
559 2 1230 1229
560 2 1938 1936
561 2 1938 1937
562 2 1251 1249
563 2 1251 1250
564 2 1254 1252
565 2 1254 1253
566 2 1263 1261
567 2 1263 1262
568 2 1641 1639
569 2 1641 1640
570 2 1311 1309
571 2 1311 1310
572 2 1191 1189
573 2 1191 1190
574 2 1326 1324
575 2 1326 1325
576 2 1335 1333
577 2 1335 1334
578 2 1293 1291
579 2 1293 1292
580 2 1467 1465
581 2 1467 1466
582 2 1737 1735
583 2 1737 1736
584 2 1347 1345
585 2 1347 1346
586 2 912 910
587 2 912 911
588 2 1272 1270
589 2 1272 1271
590 2 1371 1369
591 2 1371 1370
592 2 1005 1003
593 2 1005 1004
594 2 1512 1510
595 2 1512 1511
596 2 1398 1396
597 2 1398 1397
598 2 1116 1114
599 2 1116 1115
600 2 1404 1402
601 2 1404 1403
602 2 1416 1414
603 2 1416 1415
604 2 1359 1357
605 2 1359 1358
606 2 1422 1420
607 2 1422 1421
608 2 915 913
609 2 915 914
610 2 1896 1894
611 2 1896 1895
612 2 1452 1450
613 2 1452 1451
614 2 1461 1459
615 2 1461 1460
616 2 1566 1564
617 2 1566 1565
618 2 948 946
619 2 948 947
620 2 1911 1909
621 2 1911 1910
622 2 1383 1381
623 2 1383 1382
624 2 1515 1513
625 2 1515 1514
626 2 1527 1525
627 2 1527 1526
628 2 1530 1528
629 2 1530 1529
630 2 1545 1543
631 2 1545 1544
632 2 1548 1546
633 2 1548 1547
634 2 1554 1552
635 2 1554 1553
636 2 1560 1558
637 2 1560 1559
638 2 1203 1201
639 2 1203 1202
640 2 1572 1570
641 2 1572 1571
642 2 1134 1132
643 2 1134 1133
644 2 1329 1327
645 2 1329 1328
646 2 1752 1750
647 2 1752 1751
648 2 861 859
649 2 861 860
650 2 1593 1591
651 2 1593 1592
652 2 1674 1672
653 2 1674 1673
654 2 1596 1594
655 2 1596 1595
656 2 1602 1600
657 2 1602 1601
658 2 1605 1603
659 2 1605 1604
660 2 1431 1429
661 2 1431 1430
662 2 1632 1630
663 2 1632 1631
664 2 1629 1627
665 2 1629 1628
666 2 1758 1756
667 2 1758 1757
668 2 1659 1657
669 2 1659 1658
670 2 1662 1660
671 2 1662 1661
672 2 1821 1819
673 2 1821 1820
674 2 942 940
675 2 942 941
676 2 1686 1684
677 2 1686 1685
678 2 1689 1687
679 2 1689 1688
680 2 1692 1690
681 2 1692 1691
682 2 1194 1192
683 2 1194 1193
684 2 1704 1702
685 2 1704 1703
686 2 1710 1708
687 2 1710 1709
688 2 1866 1864
689 2 1866 1865
690 2 1410 1408
691 2 1410 1409
692 2 1221 1219
693 2 1221 1220
694 2 1779 1777
695 2 1779 1778
696 2 1599 1597
697 2 1599 1598
698 2 1812 1810
699 2 1812 1811
700 2 1815 1813
701 2 1815 1814
702 2 1818 1816
703 2 1818 1817
704 2 1830 1828
705 2 1830 1829
706 2 1851 1849
707 2 1851 1850
708 2 1827 1825
709 2 1827 1826
710 2 1575 1573
711 2 1575 1574
712 2 798 796
713 2 798 797
714 2 1128 1126
715 2 1128 1127
716 2 1440 1438
717 2 1440 1439
718 2 1284 1282
719 2 1284 1283
720 2 1950 1948
721 2 1950 1949
722 2 1032 1030
723 2 1032 1031
724 2 1842 1840
725 2 1842 1841
726 2 843 841
727 2 843 842
728 2 1569 1567
729 2 1569 1568
730 2 1581 1579
731 2 1581 1580
732 2 1227 1225
733 2 1227 1226
734 2 783 781
735 2 783 782
736 2 804 802
737 2 804 803
738 2 810 808
739 2 810 809
740 2 825 823
741 2 825 824
742 2 828 826
743 2 828 827
744 2 834 832
745 2 834 833
746 2 1656 1654
747 2 1656 1655
748 2 1476 1474
749 2 1476 1475
750 2 1059 1057
751 2 1059 1058
752 2 1131 1129
753 2 1131 1130
754 2 1857 1855
755 2 1857 1856
756 2 1218 1216
757 2 1218 1217
758 2 888 886
759 2 888 887
760 2 894 892
761 2 894 893
762 2 1920 1918
763 2 1920 1919
764 2 1212 1210
765 2 1212 1211
766 2 918 916
767 2 918 917
768 2 945 943
769 2 945 944
770 2 1029 1027
771 2 1029 1028
772 2 1071 1069
773 2 1071 1070
774 2 1734 1732
775 2 1734 1733
776 2 1353 1351
777 2 1353 1352
778 2 981 979
779 2 981 980
780 2 1635 1633
781 2 1635 1634
782 2 807 805
783 2 807 806
784 2 996 994
785 2 996 995
786 2 1935 1933
787 2 1935 1934
788 2 906 904
789 2 906 905
790 2 1008 1006
791 2 1008 1007
792 2 1011 1009
793 2 1011 1010
794 2 1068 1066
795 2 1068 1067
796 2 1050 1048
797 2 1050 1049
798 2 1698 1696
799 2 1698 1697
800 2 1056 1054
801 2 1056 1055
802 1 306 307
803 2 1065 1063
804 2 1065 1064
805 2 1749 1747
806 2 1749 1748
807 2 1086 1084
808 2 1086 1085
809 2 1095 1093
810 2 1095 1094
811 2 1101 1099
812 2 1101 1100
813 2 939 937
814 2 939 938
815 2 1122 1120
816 2 1122 1121
817 2 1680 1678
818 2 1680 1679
819 2 1125 1123
820 2 1125 1124
821 2 1716 1714
822 2 1716 1715
823 2 1245 1243
824 2 1245 1244
825 2 1620 1618
826 2 1620 1619
827 2 1140 1138
828 2 1140 1139
829 2 1110 1108
830 2 1110 1109
831 2 1923 1921
832 2 1923 1922
833 2 1176 1174
834 2 1176 1175
835 2 1179 1177
836 2 1179 1178
837 2 1941 1939
838 2 1941 1940
839 2 1485 1483
840 2 1485 1484
841 2 1197 1195
842 2 1197 1196
843 2 1200 1198
844 2 1200 1199
845 2 1209 1207
846 2 1209 1208
847 2 724 725
848 2 724 726
849 2 1482 1480
850 2 1482 1481
851 2 1707 1705
852 2 1707 1706
853 2 1269 1267
854 2 1269 1268
855 2 1224 1222
856 2 1224 1223
857 2 1881 1879
858 2 1881 1880
859 2 1248 1246
860 2 1248 1247
861 2 1260 1258
862 2 1260 1259
863 2 1299 1297
864 2 1299 1298
865 2 1305 1303
866 2 1305 1304
867 2 1320 1318
868 2 1320 1319
869 2 1341 1339
870 2 1341 1340
871 2 1362 1360
872 2 1362 1361
873 2 1971 1969
874 2 1971 1970
875 2 1647 1645
876 2 1647 1646
877 2 1377 1375
878 2 1377 1376
879 2 1389 1387
880 2 1389 1388
881 2 1395 1393
882 2 1395 1394
883 2 1164 1162
884 2 1164 1163
885 2 1401 1399
886 2 1401 1400
887 2 1407 1405
888 2 1407 1406
889 2 1914 1912
890 2 1914 1913
891 2 1428 1426
892 2 1428 1427
893 1 556 557
894 2 1434 1432
895 2 1434 1433
896 2 1437 1435
897 2 1437 1436
898 2 1446 1444
899 2 1446 1445
900 2 1449 1447
901 2 1449 1448
902 2 1458 1456
903 2 1458 1457
904 2 1464 1462
905 2 1464 1463
906 2 1470 1468
907 2 1470 1469
908 2 1386 1384
909 2 1386 1385
910 2 1494 1492
911 2 1494 1493
912 2 1080 1078
913 2 1080 1079
914 2 1500 1498
915 2 1500 1499
916 2 1506 1504
917 2 1506 1505
918 2 1182 1180
919 2 1182 1181
920 2 1917 1915
921 2 1917 1916
922 2 855 853
923 2 855 854
924 2 1419 1417
925 2 1419 1418
926 2 1542 1540
927 2 1542 1541
928 2 1557 1555
929 2 1557 1556
930 2 1563 1561
931 2 1563 1562
932 2 1611 1609
933 2 1611 1610
934 1 291 342
935 2 1890 1888
936 2 1890 1889
937 2 1623 1621
938 2 1623 1622
939 2 1638 1636
940 2 1638 1637
941 2 1650 1648
942 2 1650 1649
943 2 1668 1666
944 2 1668 1667
945 2 867 865
946 2 867 866
947 1 205 252
948 2 1713 1711
949 2 1713 1712
950 2 1863 1861
951 2 1863 1862
952 2 1722 1720
953 2 1722 1721
954 2 1740 1738
955 2 1740 1739
956 2 1746 1744
957 2 1746 1745
958 2 951 949
959 2 951 950
960 2 1755 1753
961 2 1755 1754
962 2 1953 1951
963 2 1953 1952
964 2 1764 1762
965 2 1764 1763
966 2 1776 1774
967 2 1776 1775
968 2 1794 1792
969 2 1794 1793
970 2 1797 1795
971 2 1797 1796
972 2 1806 1804
973 2 1806 1805
974 2 1524 1522
975 2 1524 1523
976 2 1809 1807
977 2 1809 1808
978 2 1824 1822
979 2 1824 1823
980 2 1539 1537
981 2 1539 1538
982 2 1845 1843
983 2 1845 1844
984 2 1695 1693
985 2 1695 1694
986 2 1854 1852
987 2 1854 1853
988 2 987 985
989 2 987 986
990 2 930 928
991 2 930 929
992 2 1143 1141
993 2 1143 1142
994 2 224 225
995 2 224 226
996 2 954 952
997 2 954 953
998 2 1743 1741
999 2 1743 1742
1000 2 1536 1534
1001 2 1536 1535
1002 2 972 970
1003 2 972 971
1004 2 1860 1858
1005 2 1860 1859
1006 2 1392 1390
1007 2 1392 1391
1008 2 1170 1168
1009 2 1170 1169
1010 2 1083 1081
1011 2 1083 1082
1012 2 1608 1606
1013 2 1608 1607
1014 2 58 59
1015 2 58 60
1016 1 39 86

Angles

1 2 645 644 646
2 1 8 56 57
3 2 958 960 959
4 2 1313 1314 1312
5 2 565 564 566
6 2 68 67 69
7 1 87 106 763
8 1 93 124 764
9 1 92 138 139
10 2 1612 1614 1613
11 2 151 149 150
12 2 237 236 238
13 2 1232 1233 1231
14 2 163 161 162
15 2 235 233 234
16 2 141 140 142
17 1 260 312 313
18 2 315 314 316
19 2 153 152 154
20 1 343 362 765
21 1 349 380 766
22 1 348 394 395
23 2 397 396 398
24 2 407 405 406
25 1 423 442 767
26 1 429 460 768
27 1 428 478 479
28 2 481 480 482
29 2 577 576 578
30 2 78 582 77
31 1 507 526 769
32 1 513 544 770
33 1 512 562 563
34 2 574 573 575
35 1 591 610 771
36 1 597 628 772
37 1 596 642 643
38 2 850 852 851
39 2 655 653 654
40 2 737 736 738
41 1 671 690 773
42 1 677 708 774
43 1 676 722 723
44 2 735 733 734
45 2 409 408 410
46 2 1045 1047 1046
47 1 174 222 223
48 2 874 876 875
49 2 491 489 490
50 2 325 323 324
51 2 505 504 506
52 1 171 472 473
53 1 7 54 55
54 2 590 588 589
55 2 66 64 65
56 2 75 73 74
57 2 334 76 333
58 2 81 79 80
59 2 84 82 83
60 1 91 136 137
61 2 750 748 749
62 2 148 146 147
63 2 157 155 156
64 2 416 158 415
65 2 166 164 165
66 1 173 220 221
67 2 232 230 231
68 2 241 239 240
69 2 500 242 499
70 2 247 245 246
71 2 250 248 249
72 1 259 310 311
73 2 747 745 746
74 2 321 320 322
75 1 675 720 721
76 2 331 329 330
77 2 584 332 583
78 2 337 335 336
79 1 347 392 393
80 2 404 402 403
81 2 413 411 412
82 2 664 414 663
83 2 419 417 418
84 2 422 420 421
85 2 667 665 666
86 2 327 326 328
87 1 427 476 477
88 2 488 486 487
89 2 732 730 731
90 2 497 495 496
91 2 744 498 743
92 2 669 668 670
93 2 503 501 502
94 1 511 560 561
95 2 244 742 243
96 2 571 570 572
97 2 741 739 740
98 2 581 579 580
99 2 587 585 586
100 2 493 492 494
101 1 595 640 641
102 2 652 650 651
103 2 661 659 660
104 2 160 662 159
105 2 340 338 339
106 2 657 656 658
107 2 71 70 72
108 1 6 38 85
109 2 63 61 62
110 1 2 107 751
111 1 94 125 752
112 2 145 143 144
113 1 172 204 251
114 2 229 227 228
115 1 258 290 341
116 1 6 308 309
117 2 319 317 318
118 1 254 363 753
119 1 350 381 754
120 2 401 399 400
121 1 344 443 755
122 1 430 461 756
123 1 172 474 475
124 2 485 483 484
125 1 672 527 757
126 1 514 545 758
127 1 258 558 559
128 2 569 567 568
129 1 508 611 759
130 1 598 629 760
131 2 649 647 648
132 1 592 691 761
133 1 678 709 762
134 2 729 727 728
135 2 1367 1368 1366
136 2 799 801 800
137 2 817 819 818
138 2 820 822 821
139 2 838 840 839
140 2 871 873 872
141 2 878 879 877
142 2 895 897 896
143 2 890 891 889
144 2 919 921 920
145 2 926 927 925
146 2 1901 1902 1900
147 2 983 984 982
148 2 989 990 988
149 2 1973 1974 1972
150 2 1019 1020 1018
151 2 1025 1026 1024
152 2 1034 1035 1033
153 2 1042 1044 1043
154 2 1760 1761 1759
155 2 1060 1062 1061
156 2 1075 1077 1076
157 2 1148 1149 1147
158 2 1165 1167 1166
159 2 1585 1587 1586
160 2 1096 1098 1097
161 2 1966 1968 1967
162 2 1874 1875 1873
163 2 1907 1908 1906
164 2 1213 1215 1214
165 2 1957 1959 1958
166 2 791 792 790
167 2 1255 1257 1256
168 2 1187 1188 1186
169 2 961 963 962
170 2 1886 1887 1885
171 2 1277 1278 1276
172 2 1285 1287 1286
173 2 1288 1290 1289
174 2 1294 1296 1295
175 2 1765 1767 1766
176 2 935 936 934
177 2 1945 1947 1946
178 2 1321 1323 1322
179 2 1343 1344 1342
180 2 1234 1236 1235
181 2 1349 1350 1348
182 2 1354 1356 1355
183 2 1052 1053 1051
184 2 1378 1380 1379
185 2 1040 1041 1039
186 2 1883 1884 1882
187 2 1423 1425 1424
188 2 1442 1443 1441
189 2 1454 1455 1453
190 2 1478 1479 1477
191 2 1487 1488 1486
192 2 1330 1332 1331
193 2 856 858 857
194 2 1508 1509 1507
195 2 1517 1518 1516
196 2 1520 1521 1519
197 2 1550 1551 1549
198 2 1955 1956 1954
199 2 1577 1578 1576
200 2 1871 1872 1870
201 2 1588 1590 1589
202 2 1615 1617 1616
203 2 1624 1626 1625
204 2 1651 1653 1652
205 2 1724 1725 1723
206 2 1676 1677 1675
207 2 1700 1701 1699
208 2 1718 1719 1717
209 2 1877 1878 1876
210 2 1280 1281 1279
211 2 1729 1731 1730
212 2 1501 1503 1502
213 2 1891 1893 1892
214 2 998 999 997
215 2 1772 1773 1771
216 2 1780 1782 1781
217 2 1786 1788 1787
218 2 1315 1317 1316
219 2 1663 1665 1664
220 2 1798 1800 1799
221 2 1802 1803 1801
222 2 1831 1833 1832
223 2 1835 1836 1834
224 2 1847 1848 1846
225 2 1897 1899 1898
226 2 1867 1869 1868
227 2 1205 1206 1204
228 2 1927 1929 1928
229 2 1642 1644 1643
230 2 992 993 991
231 2 1412 1413 1411
232 2 1184 1185 1183
233 2 1790 1791 1789
234 2 1583 1584 1582
235 2 902 903 901
236 2 1238 1239 1237
237 2 881 882 880
238 2 1924 1926 1925
239 2 785 786 784
240 2 1264 1266 1265
241 2 1373 1374 1372
242 2 1471 1473 1472
243 2 1490 1491 1489
244 2 1495 1497 1496
245 2 775 777 776
246 2 779 780 778
247 2 788 789 787
248 2 1015 1017 1016
249 2 794 795 793
250 2 811 813 812
251 2 815 816 814
252 2 830 831 829
253 2 836 837 835
254 2 844 846 845
255 2 1943 1944 1942
256 2 847 849 848
257 2 1001 1002 1000
258 2 1960 1962 1961
259 2 1727 1728 1726
260 2 1930 1932 1931
261 2 1036 1038 1037
262 2 862 864 863
263 2 869 870 868
264 2 884 885 883
265 2 1963 1965 1964
266 2 1273 1275 1274
267 2 1903 1905 1904
268 2 898 900 899
269 2 1301 1302 1300
270 2 1241 1242 1240
271 2 922 924 923
272 2 931 933 932
273 2 1336 1338 1337
274 2 1837 1839 1838
275 2 907 909 908
276 2 955 957 956
277 2 964 966 965
278 2 968 969 967
279 2 1783 1785 1784
280 2 1768 1770 1769
281 2 976 978 977
282 2 1136 1137 1135
283 2 1012 1014 1013
284 2 1021 1023 1022
285 2 1307 1308 1306
286 2 1670 1671 1669
287 2 1072 1074 1073
288 2 1088 1089 1087
289 2 1091 1092 1090
290 2 1682 1683 1681
291 2 1103 1104 1102
292 2 1106 1107 1105
293 2 1111 1113 1112
294 2 1118 1119 1117
295 2 1532 1533 1531
296 2 1145 1146 1144
297 2 1150 1152 1151
298 2 1154 1155 1153
299 2 1156 1158 1157
300 2 1159 1161 1160
301 2 1171 1173 1172
302 2 1364 1365 1363
303 2 973 975 974
304 2 1229 1230 1228
305 2 1936 1938 1937
306 2 1249 1251 1250
307 2 1253 1254 1252
308 2 1262 1263 1261
309 2 1639 1641 1640
310 2 1309 1311 1310
311 2 1190 1191 1189
312 2 1325 1326 1324
313 2 1333 1335 1334
314 2 1292 1293 1291
315 2 1466 1467 1465
316 2 1735 1737 1736
317 2 1346 1347 1345
318 2 911 912 910
319 2 1270 1272 1271
320 2 1370 1371 1369
321 2 1004 1005 1003
322 2 1511 1512 1510
323 2 1397 1398 1396
324 2 1115 1116 1114
325 2 1403 1404 1402
326 2 1414 1416 1415
327 2 1357 1359 1358
328 2 1421 1422 1420
329 2 914 915 913
330 2 1895 1896 1894
331 2 1451 1452 1450
332 2 1459 1461 1460
333 2 1564 1566 1565
334 2 947 948 946
335 2 1910 1911 1909
336 2 1381 1383 1382
337 2 1513 1515 1514
338 2 1525 1527 1526
339 2 1529 1530 1528
340 2 1544 1545 1543
341 2 1546 1548 1547
342 2 1552 1554 1553
343 2 1559 1560 1558
344 2 1202 1203 1201
345 2 1571 1572 1570
346 2 1132 1134 1133
347 2 1328 1329 1327
348 2 1751 1752 1750
349 2 860 861 859
350 2 1591 1593 1592
351 2 1673 1674 1672
352 2 1595 1596 1594
353 2 1600 1602 1601
354 2 1604 1605 1603
355 2 1430 1431 1429
356 2 1631 1632 1630
357 2 1628 1629 1627
358 2 1757 1758 1756
359 2 1658 1659 1657
360 2 1661 1662 1660
361 2 1820 1821 1819
362 2 940 942 941
363 2 1684 1686 1685
364 2 1688 1689 1687
365 2 1691 1692 1690
366 2 1192 1194 1193
367 2 1703 1704 1702
368 2 1708 1710 1709
369 2 1864 1866 1865
370 2 1408 1410 1409
371 2 1220 1221 1219
372 2 1777 1779 1778
373 2 1598 1599 1597
374 2 1811 1812 1810
375 2 1813 1815 1814
376 2 1816 1818 1817
377 2 1828 1830 1829
378 2 1849 1851 1850
379 2 1826 1827 1825
380 2 1574 1575 1573
381 2 796 798 797
382 2 1127 1128 1126
383 2 1438 1440 1439
384 2 1282 1284 1283
385 2 1948 1950 1949
386 2 1030 1032 1031
387 2 1841 1842 1840
388 2 841 843 842
389 2 1568 1569 1567
390 2 1580 1581 1579
391 2 1225 1227 1226
392 2 781 783 782
393 2 802 804 803
394 2 809 810 808
395 2 824 825 823
396 2 827 828 826
397 2 832 834 833
398 2 1655 1656 1654
399 2 1475 1476 1474
400 2 1058 1059 1057
401 2 1130 1131 1129
402 2 1856 1857 1855
403 2 1217 1218 1216
404 2 886 888 887
405 2 893 894 892
406 2 1919 1920 1918
407 2 1210 1212 1211
408 2 916 918 917
409 2 943 945 944
410 2 1028 1029 1027
411 2 1069 1071 1070
412 2 1733 1734 1732
413 2 1352 1353 1351
414 2 980 981 979
415 2 1634 1635 1633
416 2 805 807 806
417 2 994 996 995
418 2 1934 1935 1933
419 2 904 906 905
420 2 1007 1008 1006
421 2 1010 1011 1009
422 2 1066 1068 1067
423 2 1049 1050 1048
424 2 1696 1698 1697
425 2 1054 1056 1055
426 1 5 306 307
427 2 1063 1065 1064
428 2 1747 1749 1748
429 2 1085 1086 1084
430 2 1094 1095 1093
431 2 1099 1101 1100
432 2 938 939 937
433 2 1121 1122 1120
434 2 1679 1680 1678
435 2 1124 1125 1123
436 2 1714 1716 1715
437 2 1244 1245 1243
438 2 1619 1620 1618
439 2 1138 1140 1139
440 2 1108 1110 1109
441 2 1921 1923 1922
442 2 1175 1176 1174
443 2 1178 1179 1177
444 2 1940 1941 1939
445 2 1484 1485 1483
446 2 1196 1197 1195
447 2 1199 1200 1198
448 2 1207 1209 1208
449 2 725 724 726
450 2 1480 1482 1481
451 2 1705 1707 1706
452 2 1268 1269 1267
453 2 1223 1224 1222
454 2 1879 1881 1880
455 2 1247 1248 1246
456 2 1259 1260 1258
457 2 1298 1299 1297
458 2 1303 1305 1304
459 2 1319 1320 1318
460 2 1340 1341 1339
461 2 1360 1362 1361
462 2 1969 1971 1970
463 2 1645 1647 1646
464 2 1375 1377 1376
465 2 1388 1389 1387
466 2 1394 1395 1393
467 2 1163 1164 1162
468 2 1399 1401 1400
469 2 1406 1407 1405
470 2 1913 1914 1912
471 2 1426 1428 1427
472 1 257 556 557
473 2 1432 1434 1433
474 2 1435 1437 1436
475 2 1444 1446 1445
476 2 1447 1449 1448
477 2 1456 1458 1457
478 2 1463 1464 1462
479 2 1469 1470 1468
480 2 1384 1386 1385
481 2 1493 1494 1492
482 2 1078 1080 1079
483 2 1498 1500 1499
484 2 1505 1506 1504
485 2 1180 1182 1181
486 2 1915 1917 1916
487 2 854 855 853
488 2 1418 1419 1417
489 2 1541 1542 1540
490 2 1555 1557 1556
491 2 1562 1563 1561
492 2 1610 1611 1609
493 1 257 291 342
494 2 1889 1890 1888
495 2 1621 1623 1622
496 2 1636 1638 1637
497 2 1648 1650 1649
498 2 1667 1668 1666
499 2 865 867 866
500 1 171 205 252
501 2 1711 1713 1712
502 2 1862 1863 1861
503 2 1721 1722 1720
504 2 1739 1740 1738
505 2 1745 1746 1744
506 2 950 951 949
507 2 1754 1755 1753
508 2 1951 1953 1952
509 2 1762 1764 1763
510 2 1774 1776 1775
511 2 1793 1794 1792
512 2 1795 1797 1796
513 2 1805 1806 1804
514 2 1522 1524 1523
515 2 1807 1809 1808
516 2 1822 1824 1823
517 2 1537 1539 1538
518 2 1844 1845 1843
519 2 1694 1695 1693
520 2 1852 1854 1853
521 2 986 987 985
522 2 929 930 928
523 2 1141 1143 1142
524 2 225 224 226
525 2 953 954 952
526 2 1741 1743 1742
527 2 1534 1536 1535
528 2 970 972 971
529 2 1858 1860 1859
530 2 1390 1392 1391
531 2 1168 1170 1169
532 2 1081 1083 1082
533 2 1606 1608 1607
534 2 59 58 60
535 1 5 39 86
