Build from BT.h.00.00.cif

2008 atoms
9 atom types
1015 bonds
3 bond types
536 angles
3 angle types
1 impropers
1 improper types

0.0 20.537214  xlo xhi
0.0 18.582695  ylo yhi
0.0 57.923605  zlo zhi
 8.121283  0.000000  0.000000 xy xz yz

Masses

  1    28.085500  # st
  2    40.078000  # cah
  3    15.999400  # ob
  4    15.999400  # oh
  5     1.007940  # ho
  6    15.999400  # o*
  7     1.007940  # h*
  8    15.999400  # oc
  9    12.010700  # co

Atoms

    1 536   1   2.1000  16.566787000473   2.193492999033   3.349807001544 # st
    2 537   1   2.1000  15.625987000400   3.915803000352  22.879927002219 # st
    3 538   1   2.1000  14.117687000033   0.696222000363  18.480827003843 # st
    4 539   1   2.1000  11.071887000230   5.325053000470   7.888046999383 # st
    5  21   1   2.1000  15.864186999870   4.474842998765   1.438417001563 # st
    6  22   1   2.1000  27.007486999412  18.252012999962  24.831027004338 # st
    7   5   1   2.1000  13.354287000658   2.745142999893  16.437626999080 # st
    8   6   1   2.1000  14.070686999040   0.985173999251   9.846327003009 # st
    9 540   1   2.1000  14.090286999828   5.816352998908   3.552037003097 # st
   10 541   1   2.1000  17.184087000623   1.277383000018  22.893127003957 # st
   11 542   1   2.1000  11.682386999921   4.372772999995  18.470927002540 # st
   12 543   1   2.1000  12.749986998959   2.831152999684   7.807167001692 # st
   13 544   2   1.0500  16.252087001114   2.391903000414   6.588427002658 # cah
   14 545   2   1.0500  15.300086999133   4.214693000119  19.732227001453 # cah
   15 546   2   1.0500  13.980386998607   0.870784998951  21.782927000884 # cah
   16 547   2   1.0500  10.850886999389   5.615352999169   4.624947000103 # cah
   17 548   2   1.0500  12.891486998918   2.506243000007   4.294727003364 # cah
   18 549   2   1.0500  12.102986998504   4.364522999055  21.813627003696 # cah
   19 550   2   1.0500  17.607786999232   1.008591000350  19.219827004045 # cah
   20 551   2   1.0500  14.280387000468   5.680853000263   6.811177003015 # cah
   21 552   2   1.0500  22.008087000054  17.768012999370  13.057427001413 # cah
   22 553   3  -1.0500  16.240886999572   3.113372999367   2.123127002764 # ob
   23 554   3  -1.0500  27.453410645463  17.224612999449  23.727127004201 # ob
   24 555   3  -1.0500  13.602487000795   1.385622999704  17.171627004768 # ob
   25 556   3  -1.0500  15.130487000438   0.210736599516   8.918456999572 # ob
   26 557   3  -1.0500  17.449487000945   0.987576000205   2.924517004087 # ob
   27 558   3  -1.0500  16.517486998902   2.665672999191  23.271827001495 # ob
   28 559   3  -1.0500  23.160586999521  18.027512999518  18.275327000490 # ob
   29 560   3  -1.0500  12.047286999407   4.141113000009   8.214817002514 # ob
   30 561   3  -1.0500  17.343886999328   3.072672999689   4.403107002745 # ob
   31 562   3  -1.0500   8.198326999358  17.050512999844  21.602427004860 # ob
   32 563   3  -1.0500  14.999586999376   1.747342999991  19.338327004372 # ob
   33 564   3  -1.0500  24.415987000229  18.517413000050   6.758407000492 # ob
   34 565   3  -1.0500  15.197087000237   1.765603000459   4.051107000822 # ob
   35 566   3  -1.0500  14.349986998987   3.405182999950  22.066927002106 # ob
   36 567   3  -1.0500  12.925986999456   0.252213799952  19.379527004353 # ob
   37 568   3  -1.0500   9.766087000436   4.710742999154   7.223046999091 # ob
   38   1   4  -0.9500  26.396487000328  17.427012998953  26.041227001967 # oh
   39   2   4  -0.9500  15.269586998677   4.414422999049  57.898427002625 # oh
   40 569   3  -1.0500  13.375904339834   0.125918465879  10.905727002730 # ob
   41 570   3  -1.0500  12.790187000524   2.337202999368  15.025727000881 # ob
   42 571   3  -1.0500  14.882287000750   5.156642999632   2.368877001058 # ob
   43 572   3  -1.0500  17.995087000679   0.718239999587  24.107327002990 # ob
   44 573   3  -1.0500  12.522587000732   3.695433000052  17.314526999178 # ob
   45 574   3  -1.0500  13.139287000839   1.967432999966   9.086257001999 # ob
   46 575   3  -1.0500  13.026087000667   4.888162999689   4.235897004362 # ob
   47 576   3  -1.0500  16.177987000426   0.197331599302  22.489227000469 # ob
   48 577   3  -1.0500  10.755187000007   3.292443000089  19.101327003719 # ob
   49 578   3  -1.0500  11.759886999929   2.003112999929   6.877147001482 # ob
   50 579   3  -1.0500  19.382204339943   0.186118465074   4.395867003968 # ob
   51 580   3  -1.0500  18.228387000488   1.564783000133  21.700227002988 # ob
   52 581   3  -1.0500  25.225287000538  16.994712999911  19.460227004443 # ob
   53 582   3  -1.0500  14.073687000044   3.141102999269   7.059877004154 # ob
   54   3   4  -0.9500   9.731686998776   4.864682999538   0.581062001194 # oh
   55   3   5   0.4250   9.425857000068   5.344012999891  57.621127001583 # ho
   56   4   4  -0.9500  12.954186999270   0.242459000284  26.017327004438 # oh
   57   4   5   0.4250  21.703487000327  18.276812999519  26.619527002959 # ho
   58   5   4  -0.9500  14.786986999583   3.551513000403  16.237327000449 # oh
   59   5   5   0.4250  15.471386999394   3.196603000182  15.506627000988 # ho
   60   6   4  -0.9500  15.069387000036   2.180503000561  10.682327001059 # oh
   61   6   5   0.4250  14.818787000383   2.111083000497  11.701327001080 # ho
   62  55   6  -0.8476  13.219186999383   2.756442998927   1.777657001034 # o*
   63  55   7   0.4238  13.174286998712   3.688572999530   1.381537000711 # h*
   64  55   7   0.4238  12.558387000446   2.183673000123   1.300517001667 # h*
   65  56   6  -0.8476  12.737187000421   2.764833000029  27.266827003554 # o*
   66  56   7   0.4238  13.659386999725   3.255542999774  27.355027004105 # h*
   67  56   7   0.4238  13.021486999662   1.898222999216  26.819627002967 # h*
   68  57   6  -0.8476  17.823386999631   0.215759499991  16.760827002478 # o*
   69  57   7   0.4238  26.201286999556  17.817912999363  16.607027002069 # h*
   70  57   7   0.4238  18.321087000646   0.653801999486  15.985927000534 # h*
   71  58   6  -0.8476  14.709687000708   4.603982999591   9.766427003199 # o*
   72  58   7   0.4238  14.882587000269   3.659072999832  10.164027003752 # h*
   73  58   7   0.4238  15.574587000470   4.892042999410   9.338557001506 # h*
   74  59   6  -0.8476  12.565586999768   4.517612999118  12.064527001141 # o*
   75  59   7   0.4238  13.215187000472   4.990693000054  12.678827003185 # h*
   76  59   7   0.4238  13.165187000323   4.212243000065  11.277826999400 # h*
   77  60   6  -0.8476  24.279386998757  16.773612998897  13.336026999291 # o*
   78  60   7   0.4238  24.379487000953  15.899813000498  13.857627002825 # h*
   79  60   7   0.4238  25.221587001036  17.019213000448  13.158927003012 # h*
   80  61   6  -0.8476  14.494686999786   1.723502999158  13.298727001403 # o*
   81 115   7   0.4238   6.280636998817   4.432122998868  12.293727003401 # h*
   82 115   7   0.4238   7.299086999595   3.173962999147  12.039727004021 # h*
   83  62   6  -0.8476  17.553486999020   1.210112999128  11.312727002238 # o*
   84  62   7   0.4238  16.729687000269   1.656343000387  10.967526999806 # h*
   85  62   7   0.4238  17.520304339778   0.200618465430  11.163627004203 # h*
   86  63   6  -0.8476  10.596186999183   2.467883000122  13.284726999385 # o*
   87  63   7   0.4238  11.415786999243   2.325053000012  13.893827002499 # h*
   88  63   7   0.4238  10.636587000552   1.654012999941  12.706326999082 # h*
   89   1   5   0.4250  26.639787000976  16.394913000158  26.027427004363 # ho
   90   2   5   0.4250  15.442886999113   5.246822998816  57.267327000476 # ho
   91 583   1   2.1000  12.483886999265   8.404173000294   3.396907001425 # st
   92 584   1   2.1000  11.565386999460  10.215613000509  23.012427004564 # st
   93 585   1   2.1000   9.829787000393   6.888172999961  18.553627000436 # st
   94 586   1   2.1000   7.052666999686  11.538912998782   8.202637000700 # st
   95  27   1   2.1000  11.697186999238  10.689812999028   1.584417003578 # st
   96  28   1   2.1000  15.111287000013   6.177033000112  24.842427001099 # st
   97  11   1   2.1000   8.824426998792   8.654912999310  16.172527000872 # st
   98  12   1   2.1000  10.533187000603   7.438872999587  10.006526999872 # st
   99 587   1   2.1000  10.071086999934  12.015012999769   3.835917003988 # st
  100 588   1   2.1000  13.273487000814   7.755533000184  22.921727003860 # st
  101 589   1   2.1000   7.503226999736  10.525912999571  18.265927001535 # st
  102 590   1   2.1000   8.660377000579   8.919022999893   8.101617000428 # st
  103 591   2   1.0500  12.209486999681   8.617393000400   6.504547002465 # cah
  104 592   2   1.0500  11.156586999496  10.208612999825  19.757227002988 # cah
  105 593   2   1.0500   9.863087000385   7.339123000057  21.651126999509 # cah
  106 594   2   1.0500   6.822566999224  11.661713000486   4.865597004571 # cah
  107 595   2   1.0500   8.908596999617   8.660352999513   4.513807004677 # cah
  108 596   2   1.0500   8.028316999091  10.479912999852  21.795327002341 # cah
  109 597   2   1.0500  13.294486999774   7.216293000309  19.518427003152 # cah
  110 598   2   1.0500  10.254187000689  11.654912999768   7.146947002064 # cah
  111 599   2   1.0500  10.434186999119   4.949283000216  12.997327004209 # cah
  112 600   3  -1.0500  12.136086999569   9.266603000508   2.111937002239 # ob
  113 601   3  -1.0500  15.240686998639   4.735792999134  24.152027002028 # ob
  114 602   3  -1.0500   9.457927000693   7.703532999614  17.313827004001 # ob
  115 603   3  -1.0500  10.655686999532   6.124823000228   9.132987003270 # ob
  116 604   3  -1.0500  13.264586999350   7.094153000166   3.032457004182 # ob
  117 605   3  -1.0500  12.618286999726   9.100342998845  23.419727002005 # ob
  118 606   3  -1.0500  10.782086999374   5.594873000374  18.091427004720 # ob
  119 607   3  -1.0500   7.848697000726  10.228613000187   8.695656999559 # ob
  120 608   3  -1.0500  13.372886999837   9.307222999827   4.319807003190 # ob
  121 609   3  -1.0500  16.478686999088   4.785202999489  21.963127004768 # ob
  122 610   3  -1.0500  10.753187000523   7.744443000464  19.503527001542 # ob
  123 611   3  -1.0500  11.848886999375   6.227912999384   6.870487003344 # ob
  124 612   3  -1.0500  11.191286999472   8.002063000556   4.184297000730 # ob
  125 613   3  -1.0500  10.257787000617   9.698063000434  22.249527001040 # ob
  126 614   3  -1.0500   8.605397000097   6.288422998806  19.296627002042 # ob
  127 615   3  -1.0500   5.719597000449  11.153113000304   7.568777002506 # ob
  128   7   4  -0.9500  14.963287000541   6.142532999394  26.417727003078 # oh
  129   8   4  -0.9500  11.045486999213  10.500212999235   0.142714001716 # oh
  130 616   3  -1.0500  10.386086999043   7.106812999715  11.526427001228 # ob
  131 617   3  -1.0500   7.888017000472   7.816842999472  15.266827002249 # ob
  132 618   3  -1.0500  10.567986999271  11.199812998975   2.576967000469 # ob
  133 619   3  -1.0500  13.929787000102   6.934942999644  24.137226999729 # ob
  134 620   3  -1.0500   8.062897000476   9.749252999932  16.975727004785 # ob
  135 621   3  -1.0500   9.383447000371   8.264542999647   9.331476999311 # ob
  136 622   3  -1.0500   9.113806998740  11.123012998848   4.631916999581 # ob
  137 623   3  -1.0500  12.136286999718   6.909522999633  22.297527000513 # ob
  138 624   3  -1.0500   6.648647000752   9.507133000028  19.081627000424 # ob
  139 625   3  -1.0500   7.651736999584   7.894692999888   7.550207001852 # ob
  140 626   3  -1.0500  15.111086999338   6.300053000479   4.620127003190 # ob
  141 627   3  -1.0500  14.379386999907   8.035432998769  21.929827002491 # ob
  142 628   3  -1.0500  12.695986999206   4.839302998778  19.576926999794 # ob
  143 629   3  -1.0500   9.679386998851   9.365772998835   6.984656999906 # ob
  144   9   4  -0.9500   5.954747000952  11.162913000518   0.946127002309 # oh
  145   9   5   0.4250   5.858136999869  12.160612999508   0.605185004601 # ho
  146  10   4  -0.9500   8.929986999187   6.580832999288  25.997227003899 # oh
  147  10   5   0.4250   9.753286999754   5.952052999378  26.064727002252 # ho
  148  11   4  -0.9500   9.965087000631   9.229172999445  15.254427000792 # oh
  149  11   5   0.4250  10.587187000301   8.590233000495  14.726927003152 # ho
  150  12   4  -0.9500  11.837586999231   8.330223000153   9.853526999744 # oh
  151  12   5   0.4250  12.717786999647   8.061162999007  10.337026999316 # ho
  152  64   6  -0.8476   8.296206999413   9.131302999971   1.923117004453 # o*
  153  64   7   0.4238   7.978917000672   8.773223000188   0.964447004685 # h*
  154  64   7   0.4238   8.642826999456  10.036993000176   1.703147001162 # h*
  155  65   6  -0.8476   6.174596999352   8.740963000210  32.041127000413 # o*
  156  65   7   0.4238   5.809866999969   9.444943000516  31.403527002498 # h*
  157  65   7   0.4238   5.427857000266   8.056572999126  32.218327001795 # h*
  158  66   6  -0.8476  12.034986999929   6.222632999898  15.826027001604 # o*
  159  66   7   0.4238  11.179386998512   6.081722999094  16.367127004018 # h*
  160  66   7   0.4238  11.786686999828   6.966412999104  15.172727001799 # h*
  161  67   6  -0.8476  11.108986999243  11.259712999150   9.765927000852 # o*
  162  67   7   0.4238  11.326087001170  10.354113000509  10.162527002501 # h*
  163  67   7   0.4238  11.799187001085  11.235213000472   9.007587004142 # h*
  164  68   6  -0.8476   9.761686999355  13.607813000230  10.762927001838 # o*
  165  68   7   0.4238  10.201287000439  12.719712999584  10.518626999347 # h*
  166  68   7   0.4238  10.510286999268  14.295613000091  10.693327000576 # h*
  167  69   6  -0.8476   9.004836998602   5.643882998937  14.672026999085 # o*
  168  69   7   0.4238   8.677857000037   4.824543000510  15.185527000500 # h*
  169  69   7   0.4238   8.276657000083   6.326983000515  14.873327002411 # h*
  170  70   6  -0.8476  11.608586999433   7.962593000579  13.694027000424 # o*
  171 124   7   0.4238   7.791256999286  10.669613000557  10.532427002743 # h*
  172 124   7   0.4238   7.866257000069   9.538412998870  11.708226999881 # h*
  173  71   6  -0.8476  14.391887000211   5.920582999917  14.974027003730 # o*
  174  71   7   0.4238  14.640986999538   5.162782998788  15.624727004070 # h*
  175  71   7   0.4238  13.395386998660   6.072002999237  15.186927002439 # h*
  176  72   6  -0.8476   7.839926999584   7.968912999147  12.458427004015 # o*
  177  72   7   0.4238   7.900446998836   7.970872999562  13.487727002583 # h*
  178  72   7   0.4238   8.787006999256   7.874322999495  12.159826999116 # h*
  179   7   5   0.4250  15.386186999485   6.881122998821  27.040227000759 # ho
  180   8   5   0.4250  10.572886998689  11.308212999378  57.603826999130 # ho
  181 630   1   2.1000   8.419876999657  14.615112999468   3.665687002083 # st
  182 631   1   2.1000   7.389366999405  16.246112999097  22.574627002933 # st
  183 632   1   2.1000   5.889746998640  13.093012999229  18.280027002864 # st
  184 633   1   2.1000  23.532087000040  17.675312999121   7.785257004355 # st
  185  33   1   2.1000   7.831886999676  16.595912999896   1.366137002546 # st
  186  34   1   2.1000  10.221687000214  12.086212998978  25.106327001782 # st
  187  17   1   2.1000  25.197987000594  15.086913000248  16.284526999641 # st
  188  18   1   2.1000   6.137157000713  13.703113000043  10.182527003730 # st
  189 634   1   2.1000  26.440287000380  18.254113000538   3.245636999804 # st
  190 635   1   2.1000   9.099237000568  13.833412999560  22.850227004103 # st
  191 636   1   2.1000  23.929087000434  16.688712999199  18.634327000526 # st
  192 637   1   2.1000  25.134287000288  15.154912999993   7.938446999698 # st
  193 638   2   1.0500   8.229627000924  14.772812999965   7.131187002903 # cah
  194 639   2   1.0500  27.553990645146  16.283012999413  19.456627000283 # cah
  195 640   2   1.0500  26.210830645131  13.224313000437  21.440327003709 # cah
  196 641   2   1.0500  23.024486999791  18.067012999398   4.636557004685 # cah
  197 642   2   1.0500  25.417286999043  14.831412999429   4.743097002841 # cah
  198 643   2   1.0500  24.100287000946  16.445613000017  21.676027001733 # cah
  199 644   2   1.0500   9.323786999318  13.499012999894  19.187927003708 # cah
  200 645   2   1.0500  26.651887000365  18.102512999948   6.583517004048 # cah
  201 646   2   1.0500   5.862506999220  11.338212999922  12.936327001622 # cah
  202 647   3  -1.0500   8.237756999276  15.568813000263   2.375137001952 # ob
  203 648   3  -1.0500  11.002387000498  10.983712998982  24.318527001827 # ob
  204 649   3  -1.0500  25.912487000434  13.979713000110  17.037826999795 # ob
  205 650   3  -1.0500   6.667477000222  12.434812999979   9.469867003940 # ob
  206 651   3  -1.0500   9.326566999319  13.323212999646   3.283097000066 # ob
  207 652   3  -1.0500   8.346006999626  15.164412999329  23.227526999701 # ob
  208 653   3  -1.0500   6.558106998817  11.773612999373  17.951826999159 # ob
  209 654   3  -1.0500  24.302887000618  16.448212999581   8.424297000457 # ob
  210 655   3  -1.0500   9.167826999675  15.388012998994   4.772457000983 # ob
  211 656   3  -1.0500  12.326887000966  11.090613000565  21.977427004719 # ob
  212 657   3  -1.0500   6.907686998908  13.953512998930  19.199426999780 # ob
  213 658   3  -1.0500   7.980766999460  12.331112999717   7.272907000810 # ob
  214 659   3  -1.0500   7.049977000387  14.048212998843   4.186316999556 # ob
  215 660   3  -1.0500  26.727440644882  15.636312999163  21.822727004718 # ob
  216 661   3  -1.0500  25.181286999709  12.769913000456  19.229627000245 # ob
  217 662   3  -1.0500  22.284986999478  17.313212999456   6.924917003698 # ob
  218  13   4  -0.9500   8.865917000074  11.470013000117  25.614426999853 # oh
  219  14   4  -0.9500   7.146197000257  15.978712999345   0.098983000868 # oh
  220 663   3  -1.0500  26.088320646537  13.487812999914  11.599527001547 # ob
  221 664   3  -1.0500  24.369886999170  14.680413000595  15.118627003805 # ob
  222 665   3  -1.0500  27.353987000516  17.619213000168   2.111037002647 # ob
  223 666   3  -1.0500   9.920487000447  13.282512999968  24.100627002810 # ob
  224 667   3  -1.0500  24.368586998777  15.974812999070  17.291726999863 # ob
  225 668   3  -1.0500  25.766887000573  14.408412999756   9.120977001444 # ob
  226 669   3  -1.0500  25.500787000632  17.193712999985   3.840347001271 # ob
  227 670   3  -1.0500   8.120706999184  12.788112999262  22.323726999573 # ob
  228 671   3  -1.0500  22.960486999160  15.715812999767  19.398327002264 # ob
  229 672   3  -1.0500  24.173986999150  14.326912999488   7.023347002119 # ob
  230 673   3  -1.0500  11.258687000520  12.493313000388   4.632107000589 # ob
  231 674   3  -1.0500  10.156987000706  14.262613000051  21.739727003097 # ob
  232 675   3  -1.0500   8.719526998827  11.022012999062  19.072927002438 # ob
  233 676   3  -1.0500  26.290986998854  15.710212998847   7.043687003322 # ob
  234  15   4  -0.9500  22.339687000772  17.218613000455   0.592486001497 # oh
  235  15   5   0.4250  22.290986999355  17.855812999511  57.686527002819 # ho
  236  16   4  -0.9500  25.099086999158  12.853312999477  25.826027001726 # oh
  237  16   5   0.4250  25.937750644733  12.429712999905  26.327727003343 # ho
  238  17   4  -0.9500  26.355687000383  16.054413000586  15.623527000753 # oh
  239  17   5   0.4250  26.716086999766  15.810912999612  14.642827003316 # ho
  240  18   4  -0.9500   7.439567000821  14.796212999757  10.296727004719 # oh
  241  18   5   0.4250   8.369476999836  14.305512999360  10.474127004723 # ho
  242  73   6  -0.8476  22.601386999689  16.880713000447  53.252227003671 # o*
  243  73   7   0.4238  22.605287000295  17.810713000571  53.725027001659 # h*
  244  73   7   0.4238  23.569686999770  16.551912999843  53.304926999724 # h*
  245  74   6  -0.8476  24.691786999815  15.417313000584  24.796127001500 # o*
  246  74   7   0.4238  25.200186999467  14.878612998946  25.491027004323 # h*
  247  74   7   0.4238  23.743687000547  15.633112999699  25.040127000265 # h*
  248  75   6  -0.8476   8.559086999819  13.692812998983  15.957627004357 # o*
  249  75   7   0.4238   9.420156998522  14.086912998856  15.606627001337 # h*
  250  75   7   0.4238   7.952096999632  14.488913000192  16.004827003548 # h*
  251  76   6  -0.8476  28.079590645198  17.608312999208  11.222326999467 # o*
  252  76   7   0.4238   7.510697000436  16.619813000534  10.895527003494 # h*
  253  76   7   0.4238   8.437626999403  17.889412999451  10.756727004006 # h*
  254  77   6  -0.8476  23.363086999747  13.307312999525  10.808927003505 # o*
  255  77   7   0.4238  23.607086999436  12.493113000422  10.240427004505 # h*
  256  77   7   0.4238  24.244286999789  13.480513000210  11.286727001800 # h*
  257  78   6  -0.8476   7.679467001089  11.413013000385  14.818127000412 # o*
  258  78   7   0.4238   7.938207000248  12.312112999187  15.230226999538 # h*
  259  78   7   0.4238   7.760696998819  10.708412999625  15.584727001614 # h*
  260  79   6  -0.8476  26.871660645016  15.459112999149  13.060827001158 # o*
  261 133   7   0.4238  20.590587000903  15.176513000087  12.004527003249 # h*
  262 133   7   0.4238  20.131286999316  15.526812999873  13.599327004108 # h*
  263  80   6  -0.8476   9.990786998503  11.116112999076  13.262227003795 # o*
  264  80   7   0.4238   8.998367000777  11.315812999962  13.224827000803 # h*
  265  80   7   0.4238   9.840786999528  10.297012999865  13.886127003417 # h*
  266  81   6  -0.8476  22.539486999574  13.306412998747  13.540227000015 # o*
  267  81   7   0.4238  23.234287000922  13.834313000338  14.123826999247 # h*
  268  81   7   0.4238  22.335686999474  13.846913000083  12.713627000920 # h*
  269  13   5   0.4250   9.033907000210  10.457612998947  25.963027002030 # ho
  270  14   5   0.4250  27.633420646162  16.435912998856  57.077727003429 # ho
  271 677   1   2.1000   2.977146998816   2.155102999246   3.429357003765 # st
  272 678   1   2.1000  22.207400644732   3.979602998943  22.605927001611 # st
  273 679   1   2.1000   0.620082999014   0.776156999546  18.180627004174 # st
  274 680   1   2.1000  17.925787000447   5.396553000557   7.848807000959 # st
  275  39   1   2.1000   2.129906999014   4.099092999065   1.220707003555 # st
  276  40   1   2.1000  13.344587000125  18.463412999815  24.673127003214 # st
  277  23   1   2.1000  19.907086999888   2.676573000151  15.903527000571 # st
  278  24   1   2.1000   1.003707000192   1.551432999120   9.882827000617 # st
  279 681   1   2.1000  21.033787000468   5.879092999721   3.280437003332 # st
  280 682   1   2.1000   3.385146999511   1.511022999114  22.741626999287 # st
  281 683   1   2.1000  18.596486999986   4.450402999890  18.126527000388 # st
  282 684   1   2.1000  19.629986998871   2.841472999440   7.782767001815 # st
  283 685   2   1.0500   2.599507000620   2.377552999569   6.863477001824 # cah
  284 686   2   1.0500  22.098940646016   3.978753000479  19.411727002623 # cah
  285 687   2   1.0500  20.587862644577   0.965895999752  21.186527002951 # cah
  286 688   2   1.0500  17.589786999898   5.550443000485   4.743716999728 # cah
  287 689   2   1.0500  19.893986999135   2.568363000366   4.576547003387 # cah
  288 690   2   1.0500  18.823686999955   4.188413000438  21.257027003805 # cah
  289 691   2   1.0500   3.782397000745   1.021961000059  19.411927001246 # cah
  290 692   2   1.0500  21.004086999816   5.693522999160   6.396997002000 # cah
  291 693   2   1.0500  19.553886999849   0.815502999061  12.945127004711 # cah
  292 694   3  -1.0500   2.743226998975   3.032922999387   2.135737000457 # ob
  293 695   3  -1.0500  13.331086999520  17.146012999623  23.867326999836 # ob
  294 696   3  -1.0500  20.612786999398   1.799012999781  16.985127003741 # ob
  295 697   3  -1.0500   9.250037000019  18.568712999808   9.346447001597 # ob
  296 698   3  -1.0500   4.120027000725   1.001560000015   3.181797002881 # ob
  297 699   3  -1.0500   2.497646998777   2.700492999484  23.233827002637 # ob
  298 700   3  -1.0500   9.627896999145  18.169612998915  17.585127000041 # ob
  299 701   3  -1.0500  18.877587000032   4.239272999156   8.202687000356 # ob
  300 702   3  -1.0500   3.691357000117   3.138302999739   4.466907003419 # ob
  301 703   3  -1.0500  15.113486998863  17.052912999442  22.131727001684 # ob
  302 704   3  -1.0500   1.373236999831   1.578442999514  19.222627002132 # ob
  303 705   3  -1.0500  10.575887000354  18.482512999399   7.016477001952 # ob
  304 706   3  -1.0500   1.726526999536   1.499773000537   3.953967001622 # ob
  305 707   3  -1.0500  21.041686998878   3.510042998903  21.732527000569 # ob
  306 708   3  -1.0500  19.904004340746   0.178618465403  18.980026999513 # ob
  307 709   3  -1.0500  16.675586999723   4.873082999988   7.130457003299 # ob
  308  19   4  -0.9500  12.879687000485  18.253012999794  26.197926999774 # oh
  309  20   4  -0.9500  21.942670644608   3.613822999523  57.884626999229 # oh
  310 710   3  -1.0500   0.764886999494   1.696983000261  11.328827001373 # ob
  311 711   3  -1.0500  18.981387000725   1.880313000083  14.974727004700 # ob
  312 712   3  -1.0500  21.607486999135   4.911183000102   2.117307001156 # ob
  313 713   3  -1.0500   4.181386998441   0.793858998863  23.938327003038 # ob
  314 714   3  -1.0500  19.095686998897   3.830302998896  16.732127003264 # ob
  315 715   3  -1.0500  20.410286999782   2.186022999264   9.000287002303 # ob
  316 716   3  -1.0500  20.077086999696   5.064712999347   4.145397002280 # ob
  317 717   3  -1.0500   2.396687000577   0.486059000311  22.067727002387 # ob
  318 718   3  -1.0500  17.851187000352   3.361872999502  19.006827000232 # ob
  319 719   3  -1.0500  18.582386999183   1.927172999471   7.166866999210 # ob
  320 720   3  -1.0500  13.861987000364  18.359912999519   4.646776999150 # ob
  321 721   3  -1.0500   4.447066999922   1.866033000248  21.643427000427 # ob
  322 722   3  -1.0500  11.487387000073  17.021112999200  18.961427000225 # ob
  323 723   3  -1.0500  20.644087000117   3.275143000203   6.590487003526 # ob
  324  21   4  -0.9500  17.170586999993   5.417643000458   1.260727001239 # oh
  325  21   5   0.4250  18.098286999475   5.022742998860   0.966467003511 # ho
  326  22   4  -0.9500  20.050487000281   0.520489000019  25.514927001852 # oh
  327  22   5   0.4250  20.268627985223   0.345818465235  26.516227002176 # ho
  328  23   4  -0.9500  21.121487000120   3.442162998766  15.097127001327 # oh
  329  23   5   0.4250   1.544196998637   3.232132998776  15.505627002085 # ho
  330  24   4  -0.9500   2.397317000091   2.266233000028   9.445497002698 # oh
  331  24   5   0.4250   2.961746999610   2.650583000143  10.258527001446 # ho
  332  82   6  -0.8476  18.776087000108   3.289172999616  57.645026999112 # o*
  333  82   7   0.4238  18.471187000210   3.397472999106  56.703827001784 # h*
  334  82   7   0.4238  19.322286999574   2.430702999482  57.608327002882 # h*
  335  83   6  -0.8476  17.019587000904   2.957223000004  26.361926999419 # o*
  336  83   7   0.4238  16.366386999063   2.624193000202  25.681027004406 # h*
  337  83   7   0.4238  17.425786998773   2.177242999436  26.930627002833 # h*
  338  84   6  -0.8476   3.001337000571   2.861592999411  15.849127004644 # o*
  339  84   7   0.4238   3.102277000560   2.889952999114  16.885527000636 # h*
  340  84   7   0.4238   3.898277000516   2.472362999742  15.530027001962 # h*
  341  85   6  -0.8476  20.479686999383   6.500483000221  11.307927000553 # o*
  342  85   7   0.4238  21.490387000109   6.484642999904  11.244727001538 # h*
  343  85   7   0.4238  20.434086999402   5.592253000256  11.752527001675 # h*
  344  86   6  -0.8476  17.322687000513   4.630882999726  12.034227001366 # o*
  345  86   7   0.4238  18.189086999259   4.174363000472  11.703927000544 # h*
  346  86   7   0.4238  17.356886999544   5.594873000374  11.666527003345 # h*
  347  87   6  -0.8476   8.711966999790  18.054513000565  14.372427001076 # o*
  348  87   7   0.4238   9.292756999947  17.928712999364  15.169827004401 # h*
  349  87   7   0.4238   8.795576999995  17.140213000596  13.966227001848 # h*
  350  88   6  -0.8476  20.279786999640   4.023482999388  12.360527000784 # o*
  351  61   7   0.4238  15.350487000076   2.054743000468  13.774527001892 # h*
  352  61   7   0.4238  13.727987000767   2.039153000574  13.935927002073 # h*
  353  89   6  -0.8476   2.758136999696   0.522834000416  12.820427000760 # o*
  354  89   7   0.4238  10.945487000268  18.135912999921  12.432527002888 # h*
  355  89   7   0.4238   1.899766999280   1.000957998759  12.547927001402 # h*
  356  90   6  -0.8476  16.655187000552   2.934062999428  14.239927004523 # o*
  357  90   7   0.4238  17.500086999116   2.492222999942  14.647127002653 # h*
  358  90   7   0.4238  16.866287000414   3.465623000220  13.392827001853 # h*
  359  19   5   0.4250  13.578986999817  18.098412999706  26.931227004492 # ho
  360  20   5   0.4250  22.240410646413   4.070162999364  56.987327000658 # ho
  361 724   1   2.1000  19.261086999691   8.485772999617   3.092397004805 # st
  362 725   1   2.1000  18.272387000054  10.023913000139  22.940527001770 # st
  363 726   1   2.1000  16.778986999742   7.021922999365  18.209026999663 # st
  364 727   1   2.1000  13.877687000565  11.679512999359   7.913366999873 # st
  365  45   1   2.1000  18.539487000404  10.510713000262   0.963557002707 # st
  366  46   1   2.1000  21.232786999928   5.733672999395  25.048027003763 # st
  367  29   1   2.1000  16.169986999820   9.220762999647  16.281927000176 # st
  368  30   1   2.1000  17.303286999465   7.525702999798   9.951026999939 # st
  369 728   1   2.1000  16.989186998926  12.008112999997   3.246477002126 # st
  370 729   1   2.1000  19.978887000544   7.467393000007  23.017727002804 # st
  371 730   1   2.1000  14.320286999923  10.539213000127  18.271127000464 # st
  372 731   1   2.1000  15.666786999633   9.231392999630   8.000257000181 # st
  373 732   2   1.0500  19.075486998857   8.868992999086   6.503137002911 # cah
  374 733   2   1.0500  17.878286999480  10.303813000583  19.363727003151 # cah
  375 734   2   1.0500  16.688086999375   7.228203000448  21.621927003740 # cah
  376 735   2   1.0500  13.753787000508  11.811512999521   4.371957003033 # cah
  377 736   2   1.0500  15.811887000225   8.679992999192   4.508647001997 # cah
  378 737   2   1.0500  14.862787000245  10.431513000536  21.593827000393 # cah
  379 738   2   1.0500  20.000787000713   7.221393000382  19.344827000137 # cah
  380 739   2   1.0500  17.086387000682  11.911912999407   6.426597000806 # cah
  381 740   2   1.0500  16.500786999593   6.668322999203  13.807727004858 # cah
  382 741   3  -1.0500  19.212487000956   9.302033000047   1.723426999302 # ob
  383 742   3  -1.0500  21.733886999523   4.876142999289  23.799727002172 # ob
  384 743   3  -1.0500  16.295586999743   7.818872999038  16.982927001520 # ob
  385 744   3  -1.0500  17.421786999844   6.246812999002   9.122117001699 # ob
  386 745   3  -1.0500  20.272486999035   7.251322999916   2.919967000680 # ob
  387 746   3  -1.0500  19.116286999324   8.764342999448  23.405027004810 # ob
  388 747   3  -1.0500  17.688686999558   5.762342999325  17.875326999095 # ob
  389 748   3  -1.0500  14.879887000406  10.537213000463   8.441447003943 # ob
  390 749   3  -1.0500  19.883887000695   9.430153000488   4.196536999813 # ob
  391 750   3  -1.0500   2.681597000527   4.790012999890  21.759927002947 # ob
  392 751   3  -1.0500  17.638786999784   7.948403000450  19.103027003591 # ob
  393 752   3  -1.0500  18.678086998721   6.426322998907   6.903737000173 # ob
  394 753   3  -1.0500  17.900386998845   7.948842999633   3.593877000986 # ob
  395 754   3  -1.0500  16.977686999681   9.626122999305  22.174327003605 # ob
  396 755   3  -1.0500  15.610686999498   6.528663000512  19.120827002599 # ob
  397 756   3  -1.0500  12.548586999623  11.021812999096   7.487007002836 # ob
  398  25   4  -0.9500  20.746887000838   4.791093000080  26.149327004435 # oh
  399  26   4  -0.9500  17.551786998934   9.849422999950  57.700527004837 # oh
  400 757   3  -1.0500  16.864487000722   7.169732999941  11.445126999479 # ob
  401 758   3  -1.0500  16.086086999099   8.990102999494  14.699227002841 # ob
  402 759   3  -1.0500  17.649386998680  11.275212999338   1.990137001479 # ob
  403 760   3  -1.0500  20.229487000792   6.731973000142  24.382127003879 # ob
  404 761   3  -1.0500  14.928787000718   9.915402999476  16.931026999955 # ob
  405 762   3  -1.0500  16.407086999839   8.617432999650   9.177607004018 # ob
  406 763   3  -1.0500  16.045687000079  11.026312999270   4.003857001975 # ob
  407 764   3  -1.0500  19.157687000406   6.608392999126  21.972127000687 # ob
  408 765   3  -1.0500  13.300787000011   9.600332999263  18.970826999180 # ob
  409 766   3  -1.0500  14.639387000110   8.213132999628   7.329947004034 # ob
  410 767   3  -1.0500  22.207286999985   6.299732999046   4.176907002987 # ob
  411 768   3  -1.0500  21.300787000881   7.983853000544  22.373627003332 # ob
  412 769   3  -1.0500  19.806487000726   4.823532999471  19.006327003677 # ob
  413 770   3  -1.0500  16.737286999796   9.638252999965   6.925357002983 # ob
  414  27   4  -0.9500  12.797086999391  11.745613000352   1.702567000524 # oh
  415  27   5   0.4250  12.893987000916  12.488413000281   0.960196999211 # ho
  416  28   4  -0.9500  16.511486999774   6.910532998813  24.525527000637 # oh
  417  28   5   0.4250  17.426686999257   6.563482998946  24.926627000246 # ho
  418  29   4  -0.9500  17.414587000925  10.165513000549  16.584527000687 # oh
  419  29   5   0.4250  17.471286999586  11.163713000384  16.339027000671 # ho
  420  30   4  -0.9500  18.769886999602   8.135242999962  10.016027003931 # oh
  421  30   5   0.4250  19.525386999570   7.494012999817  10.416127004637 # ho
  422  91   6  -0.8476  15.850587000394   8.020002999592   0.894707002070 # o*
  423  91   7   0.4238  16.602586999250   7.361952999851   1.066597001806 # h*
  424  91   7   0.4238  15.232686999197   7.476352999248   0.358835004648 # h*
  425  92   6  -0.8476  14.938686999004   9.376013000091  26.502927001127 # o*
  426  92   7   0.4238  14.862486999059   9.497422999519  27.488227001627 # h*
  427  92   7   0.4238  15.334087000774  10.207812999959  26.060527002226 # h*
  428  93   6  -0.8476  20.525086999329   7.224443000335  16.936327003988 # o*
  429  93   7   0.4238  21.552187000781   7.120432999847  16.816927004069 # h*
  430  93   7   0.4238  20.217387000752   8.014302999619  16.403527002315 # h*
  431  94   6  -0.8476  18.354986999545  10.651412999893  10.882527000379 # o*
  432  94   7   0.4238  19.098686998710  11.198212999244  10.501927004345 # h*
  433  94   7   0.4238  18.531187000501   9.679403000032  10.537327003739 # h*
  434  95   6  -0.8476  14.108586999966   7.108283000491  11.262127003301 # o*
  435  95   7   0.4238  15.113187000978   7.224783000464  11.455827001063 # h*
  436  95   7   0.4238  14.090986999039   6.261273000107  10.718027004178 # h*
  437  96   6  -0.8476  18.726887000774   6.180163000424  14.733027001673 # o*
  438  96   7   0.4238  19.680287000254   6.554322999739  14.593327002593 # h*
  439  96   7   0.4238  18.655386999885   5.538382998977  15.530227000584 # h*
  440  97   6  -0.8476  15.043887000694  11.667712999480  12.063627001550 # o*
  441  70   7   0.4238  12.427687000995   8.547543000500  13.472127000003 # h*
  442  70   7   0.4238  11.143486999279   7.750522999816  12.785827001647 # h*
  443  98   6  -0.8476  19.939486998547   9.433222999137  14.621327000837 # o*
  444  98   7   0.4238  20.222487000818  10.321913000335  15.004427002816 # h*
  445  98   7   0.4238  19.018186999611   9.743962999240  14.310827002622 # h*
  446  99   6  -0.8476  13.874587000426   9.358552999488  13.201927002177 # o*
  447  99   7   0.4238  14.686687000391   9.296602999193  13.839927003128 # h*
  448  99   7   0.4238  14.328686999884   9.874652999342  12.451127002177 # h*
  449  25   5   0.4250  21.310687000265   3.886072998927  26.208527002047 # ho
  450  26   5   0.4250  16.638287000532   9.498153000233   0.150230000676 # ho
  451 771   1   2.1000  15.381186999060  14.607112998952   3.323477004538 # st
  452 772   1   2.1000  13.976187000112  16.257312999077  22.754827001024 # st
  453 773   1   2.1000  12.773487001052  13.107213000564  18.257227003549 # st
  454 774   1   2.1000   9.633337000041  17.716813000524   8.000147003256 # st
  455  51   1   2.1000  14.276187000211  16.725513000460   1.402327004606 # st
  456  52   1   2.1000  17.169886999668  12.126913000514  24.900427001186 # st
  457  35   1   2.1000  11.823687000687  14.841513000522  15.855827004824 # st
  458  36   1   2.1000  13.392086998997  14.023012999352   9.933426999553 # st
  459 775   1   2.1000  12.666286999937  18.088412999525   3.685187000964 # st
  460 776   1   2.1000  15.487686999398  13.667212999559  22.766026999163 # st
  461 777   1   2.1000  10.352786999301  16.756312999011  17.889526999736 # st
  462 778   1   2.1000  11.343387000239  15.118113000590   8.037746999077 # st
  463 779   2   1.0500  14.951387000122  14.860112999261   6.677247000096 # cah
  464 780   2   1.0500  13.965487000053  16.397912999654  19.617927001153 # cah
  465 781   2   1.0500  12.432786998580  13.455312998861  21.507427004818 # cah
  466 782   2   1.0500   9.275197000299  17.816112999665   4.779317003536 # cah
  467 783   2   1.0500  11.912886998630  14.905712999046   4.910377001900 # cah
  468 784   2   1.0500  10.688386999415  16.703313000467  21.257427001050 # cah
  469 785   2   1.0500  15.881187000297  13.310312999022  19.493127003683 # cah
  470 786   2   1.0500  13.135686999116  18.043212999672   7.117957002531 # cah
  471 787   2   1.0500  11.600087000278  12.948012999390  13.178327002582 # cah
  472 788   3  -1.0500  15.159387000835  15.546813000236   2.128317004079 # ob
  473 789   3  -1.0500  17.832786999503  10.928412999894  24.169827001036 # ob
  474 790   3  -1.0500  12.186186999583  13.762912999305  16.965327001135 # ob
  475 791   3  -1.0500  13.723986998729  12.743112999376   9.042117002578 # ob
  476 792   3  -1.0500  16.039987000023  13.215912999987   2.825846999210 # ob
  477 793   3  -1.0500  14.591187000470  14.870613000287  23.209827000005 # ob
  478 794   3  -1.0500  13.694087000438  11.881612999843  17.929427002881 # ob
  479 795   3  -1.0500  10.346286998875  16.363512999849   8.343737001719 # ob
  480 796   3  -1.0500  16.228586999043  15.433512999725   4.385897001989 # ob
  481 797   3  -1.0500  19.257686999280  10.858912999471  22.051827001874 # ob
  482 798   3  -1.0500  13.642886999920  14.163812999896  19.084727002236 # ob
  483 799   3  -1.0500  14.497686999875  12.305713000260   6.683316999982 # ob
  484 800   3  -1.0500  14.041886998534  14.240312999145   4.034417003435 # ob
  485 801   3  -1.0500  12.914786998659  15.914112999029  21.654426999944 # ob
  486 802   3  -1.0500  11.634286998793  12.586712999590  19.148527002910 # ob
  487 803   3  -1.0500   8.299637000061  17.415812998973   7.283666999663 # ob
  488  31   4  -0.9500  16.521886999722  11.651612999393  26.279827003182 # oh
  489  32   4  -0.9500  13.499886999175  15.973913000150   0.176426003008 # oh
  490 804   3  -1.0500  13.272486999769  13.600212999646  11.373527000411 # ob
  491 805   3  -1.0500  10.829986999230  14.319212999850  14.856926999551 # ob
  492 806   3  -1.0500  13.214486999844  17.270113000180   2.383897003000 # ob
  493 807   3  -1.0500  16.057686999973  12.707012998926  23.936527003854 # ob
  494 808   3  -1.0500  11.024487000641  16.132613000479  16.556227004510 # ob
  495 809   3  -1.0500  12.082986999274  14.664713000441   9.381167001041 # ob
  496 810   3  -1.0500  11.524587000874  17.206813000576   4.281637004344 # ob
  497 811   3  -1.0500  14.750987000639  12.780812999557  21.700726999543 # ob
  498 812   3  -1.0500   9.309216998869  15.812112999411  18.528727004004 # ob
  499 813   3  -1.0500  10.632387000076  13.892312999902   7.325447000283 # ob
  500 814   3  -1.0500  18.193186999919  12.521613000287   4.162977001645 # ob
  501 815   3  -1.0500  16.745386999882  14.180012999038  22.008727003398 # ob
  502 816   3  -1.0500  15.537587000537  10.831913000283  19.256027003720 # ob
  503 817   3  -1.0500  12.367586999759  15.783612999545   7.089277004338 # ob
  504  33   4  -0.9500   9.184377000796  17.517112999637   0.912967001384 # oh
  505  33   5   0.4250   9.071377000893  18.507212999902   0.594924000224 # ho
  506  34   4  -0.9500  11.086486998894  12.580412999717  26.305626999205 # oh
  507  34   5   0.4250  11.806286998632  13.216412998975  25.895727002300 # ho
  508  35   4  -0.9500  13.155486998712  15.385612999397  15.116527000896 # oh
  509  35   5   0.4250  13.205787000839  16.123213000197  14.422027001110 # ho
  510  36   4  -0.9500  14.581587000723  15.099912999926   9.639346999427 # oh
  511  36   5   0.4250  15.431086998537  15.011212999006  10.263327003131 # ho
  512 100   6  -0.8476  10.174086999553  14.087512998756   0.730698001097 # o*
  513 100   7   0.4238  10.031486999367  13.995613000231   1.742767001602 # h*
  514 100   7   0.4238  10.677287000044  14.915413000207   0.439349000459 # h*
  515 101   6  -0.8476   6.965436999583  13.276413000061  29.239826999603 # o*
  516 101   7   0.4238   7.721846999034  13.212212999679  29.894527001348 # h*
  517 101   7   0.4238   6.196897000472  13.835212999258  29.647427000770 # h*
  518 102   6  -0.8476  15.193287000063  14.490912999857  16.740527003316 # o*
  519 102   7   0.4238  14.596787000157  15.081213000275  16.186527002890 # h*
  520 102   7   0.4238  15.432287000295  15.091512999476  17.524027003935 # h*
  521 103   6  -0.8476  12.912086999140  17.319312999362   9.696727002626 # o*
  522 103   7   0.4238  13.648386999438  16.605412999232   9.641407000295 # h*
  523 103   7   0.4238  13.306387000424  17.979212999256  10.404627002772 # h*
  524 104   6  -0.8476  11.075687000635  16.453813000500  11.635427003288 # o*
  525 104   7   0.4238  12.084887000832  16.452112999856  11.790427001222 # h*
  526 104   7   0.4238  11.071686999678  16.604212999434  10.638026999265 # h*
  527 105   6  -0.8476  12.735786999517  11.561913000499  14.822627004163 # o*
  528 105   7   0.4238  12.685886999359  11.512613000405  15.834327002345 # h*
  529 105   7   0.4238  13.192386999188  10.776012999437  14.350427002041 # h*
  530 106   6  -0.8476  13.723587000171  16.596212998917  12.608527000954 # o*
  531  79   7   0.4238   7.343717000657  15.337413000047  13.091127000934 # h*
  532  79   7   0.4238  26.429910645947  14.750312999093  12.430827003016 # h*
  533 107   6  -0.8476  16.574286999223  12.701012999932  15.241827000713 # o*
  534 107   7   0.4238  16.179186999963  13.222712998847  16.036526999471 # h*
  535 107   7   0.4238  15.771887000246  12.293113000515  14.810027004085 # h*
  536 108   6  -0.8476   9.181916998781  15.673612999411  13.354327000647 # o*
  537 108   7   0.4238   9.757886999804  15.046712999557  13.927026999673 # h*
  538 108   7   0.4238   9.803987001110  15.800013000511  12.526127000991 # h*
  539  31   5   0.4250  15.921486999955  12.336512998811  26.766727002499 # ho
  540  32   5   0.4250  12.494786999696  16.229612999077  57.850527002464 # ho
  541 818   1   2.1000   9.612877000180   2.186702999521   3.555127001503 # st
  542 819   1   2.1000   8.796187000522   3.878362999941  22.968626999326 # st
  543 820   1   2.1000   7.383097000966   0.870557000439  18.444327000443 # st
  544 821   1   2.1000   4.227347000012   5.247973000017   7.957887001309 # st
  545  38   1   2.1000   8.581086999434   4.109122999149   1.446266999612 # st
  546  37   1   2.1000  19.955887000068  18.139213000297  25.192827002460 # st
  547  41   1   2.1000   6.572916998872   2.804592999679  16.182826999419 # st
  548  42   1   2.1000   7.221896999763   0.977572998918  10.254827003767 # st
  549 822   1   2.1000   7.440316999283   5.850783000474   3.686696999828 # st
  550 823   1   2.1000  10.496086999559   1.342093000594  23.079227001947 # st
  551 824   1   2.1000   4.897946998588   4.386242998758  18.105327001635 # st
  552 825   1   2.1000   5.997417000118   2.748362999911   7.946807003502 # st
  553 826   2   1.0500   9.479036999265   2.431203000327   6.670277000618 # cah
  554 827   2   1.0500   8.338326999272   3.836772998832  19.898527002630 # cah
  555 828   2   1.0500   7.342246998800   0.952852999719  22.006427001866 # cah
  556 829   2   1.0500   3.871846999512   5.465562999482   4.874737001843 # cah
  557 830   2   1.0500   6.063177000569   2.270023000042   4.759957000215 # cah
  558 831   2   1.0500   5.327376999472   4.171862999962  21.757727000727 # cah
  559 832   2   1.0500  10.702486999981   0.975600999658  20.032127003188 # cah
  560 833   2   1.0500   7.431346999366   5.561443000498   6.699547002855 # cah
  561 834   2   1.0500   4.993217000085   1.477493000185  12.959827001906 # cah
  562 835   3  -1.0500   9.106956999758   2.948132999949   2.313867000066 # ob
  563 836   3  -1.0500  20.436387000156  16.999312999140  24.188727004050 # ob
  564 837   3  -1.0500   7.113996999529   1.797312999137  17.279126999785 # ob
  565 838   3  -1.0500  16.157686999398  18.476313000438   9.377877004014 # ob
  566 839   3  -1.0500  10.667586998992   0.993766999566   3.109157002869 # ob
  567 840   3  -1.0500   9.653587000357   2.633572999929  23.425727001215 # ob
  568 841   3  -1.0500  16.584387000345  18.277313000364  18.017527004121 # ob
  569 842   3  -1.0500   5.176106999195   4.069263000445   8.330697002355 # ob
  570 843   3  -1.0500  10.352486998987   3.179862999087   4.418277003653 # ob
  571 844   3  -1.0500  21.638486999084  17.122012999932  21.867327004445 # ob
  572 845   3  -1.0500   8.065816998521   1.545792998951  19.641927003785 # ob
  573 846   3  -1.0500  17.595687000405  18.569412998762   7.149257001210 # ob
  574 847   3  -1.0500   8.421366999408   1.574662998848   4.334687003779 # ob
  575 848   3  -1.0500   7.477526998909   3.413932999876  22.205827000905 # ob
  576 849   3  -1.0500   6.040707000596   0.244162600396  18.880427002201 # ob
  577 850   3  -1.0500   2.996356999846   4.734882999008   7.195246999470 # ob
  578  37   4  -0.9500  18.787886999464  17.634513000389  26.210526999853 # oh
  579  38   4  -0.9500   7.514326999046   3.600763000041   0.434038002526 # oh
  580 851   3  -1.0500   6.224706999894   0.356597000412  11.324227004103 # ob
  581 852   3  -1.0500   5.543736999349   2.119123000263  15.252026999950 # ob
  582 853   3  -1.0500   7.961226999943   5.230862998891   2.372766999745 # ob
  583 854   3  -1.0500  11.104487000476   0.726151999896  24.364827001426 # ob
  584 855   3  -1.0500   5.887826999508   3.966503000211  17.007427000708 # ob
  585 856   3  -1.0500   6.428447000179   1.886362999533   9.254756999604 # ob
  586 857   3  -1.0500   6.621236999508   4.753432999149   4.479847003472 # ob
  587 858   3  -1.0500   9.629896999756   0.420349999652  22.215027001238 # ob
  588 859   3  -1.0500   3.830707000568   3.325553000390  18.362327003516 # ob
  589 860   3  -1.0500   5.053766999300   1.879602999923   7.097997003344 # ob
  590 861   3  -1.0500  20.684986999828  18.472112999285   4.365167001156 # ob
  591 862   3  -1.0500  11.759586999968   1.749393000112  22.219127001954 # ob
  592 863   3  -1.0500  18.458386999322  17.135812999475  19.343727001923 # ob
  593 864   3  -1.0500   7.225466999807   3.213383000527   7.175837002286 # ob
  594  39   4  -0.9500   3.267057000316   5.196392999934   0.864217001287 # oh
  595  39   5   0.4250   2.909917000076   6.175022999242   0.901717003590 # ho
  596  40   4  -0.9500   6.632366999264   0.507341000329  24.548727002989 # oh
  597  40   5   0.4250   7.190726998944   0.832421000071  25.385927004356 # ho
  598  41   4  -0.9500   7.735066999732   3.367312999705  15.287127001410 # oh
  599  41   5   0.4250   7.525397000222   3.345622999904  14.247527004295 # ho
  600  42   4  -0.9500   8.266806999066   1.859852999983  11.023827000020 # oh
  601  42   5   0.4250   9.046987000365   1.268562999081  11.366527002298 # ho
  602 109   6  -0.8476   6.251197000376   1.627152999057   1.795107002453 # o*
  603 109   7   0.4238   6.771916999039   0.858858999112   1.403717003139 # h*
  604 109   7   0.4238   5.316327000413   1.247313000322   1.987027002052 # h*
  605 110   6  -0.8476   4.528636999338   4.134652999420  24.330527000247 # o*
  606 110   7   0.4238   3.895567000721   4.897103000234  24.143727001286 # h*
  607 110   7   0.4238   4.346326999430   3.813753000277  25.262126999997 # h*
  608 111   6  -0.8476  20.369186999008  18.390412999050  14.689626999471 # o*
  609 111   7   0.4238  19.369687000201  18.465113000459  14.912327000172 # h*
  610 111   7   0.4238  12.617287000482   0.713913000583  15.007327000214 # h*
  611 112   6  -0.8476   8.066797000637   4.745753000065   9.479187004605 # o*
  612 112   7   0.4238   7.983147000415   4.053832999409   8.697517001805 # h*
  613 112   7   0.4238   9.027057000369   5.055433000532   9.633056999898 # h*
  614 113   6  -0.8476   3.782106999862   3.833613000477  11.353227001250 # o*
  615 113   7   0.4238   3.251216999976   4.517612999118  11.868926999092 # h*
  616 113   7   0.4238   4.323787001054   4.465473000243  10.739927003901 # h*
  617 114   6  -0.8476   9.894886999863   0.494854999840  15.468727001441 # o*
  618 114   7   0.4238   9.606087000929   1.452353000499  15.517527001194 # h*
  619 114   7   0.4238   9.424804340928   0.104718465718  16.227727002872 # h*
  620 115   6  -0.8476   6.624876999092   3.565632999521  12.687127003927 # o*
  621  88   7   0.4238  20.531286998764   4.051692999582  13.354727003683 # h*
  622  88   7   0.4238  20.825986998971   3.225662998839  12.003326999932 # h*
  623 116   6  -0.8476  10.459687000512   0.236262699280  11.537427000745 # o*
  624 116   7   0.4238  11.411304340190   0.053218465993  11.250627001437 # h*
  625 116   7   0.4238  18.329287000680  18.027312999552  12.141427004242 # h*
  626 117   6  -0.8476   3.648626999709   6.184452999425  13.666827002461 # o*
  627 117   7   0.4238   4.591746999971   5.914682999977  13.536727000959 # h*
  628 117   7   0.4238   3.163566998686   6.400352999453  12.741327001231 # h*
  629  37   5   0.4250  18.667586999258  18.446312999895  26.883427003642 # ho
  630  38   5   0.4250   6.827637000031   2.892522998776   0.730170004271 # ho
  631 865   1   2.1000   5.666646998906   8.401992999359   3.813007001955 # st
  632 866   1   2.1000   4.628727000939  10.158282999996  22.914027004777 # st
  633 867   1   2.1000   3.319476999734   6.927633000591  18.315727000191 # st
  634 868   1   2.1000  20.571186999495  11.449912998842   8.278307001849 # st
  635  44   1   2.1000   4.685526999947  10.356713000073   1.542517002627 # st
  636  43   1   2.1000   7.766347000418   5.901072999194  25.229627003794 # st
  637  47   1   2.1000  23.270386999224   9.383393000154  16.529927000346 # st
  638  48   1   2.1000   3.208146999285   7.193852999240  10.120627001550 # st
  639 869   1   2.1000  23.684687000363  11.967112999441   3.581646999517 # st
  640 870   1   2.1000   6.347867000223   7.625502999785  23.117927001775 # st
  641 871   1   2.1000  21.271986999607  10.634012999095  18.461427004273 # st
  642 872   1   2.1000  22.225086999923   8.873363000304   8.116147003428 # st
  643 873   2   1.0500   5.412976999061   8.614803000184   6.998087004692 # cah
  644 874   2   1.0500  25.021580646512  10.320212999691  19.771126999903 # cah
  645 875   2   1.0500  23.306650645253   7.193132999733  21.583926999090 # cah
  646 876   2   1.0500  20.441987000335  11.891112999179   4.967087002764 # cah
  647 877   2   1.0500  22.631787000922   8.730333000227   4.671437000711 # cah
  648 878   2   1.0500  21.596987000641  10.297812999731  21.702227000794 # cah
  649 879   2   1.0500   6.415846999373   7.253032999907  19.904627001151 # cah
  650 880   2   1.0500  23.904786998908  11.903412999903   6.806767000960 # cah
  651 881   2   1.0500  21.552086999501   8.291732999454  13.242527000500 # cah
  652 882   3  -1.0500   5.236077000358   9.246752999656   2.556937000605 # ob
  653 883   3  -1.0500   8.332757000457   4.877602998858  24.215227001044 # ob
  654 884   3  -1.0500  23.370520644706   7.884292999774  17.095327003326 # ob
  655 885   3  -1.0500   3.761826999884   6.049163000095   9.317277004463 # ob
  656 886   3  -1.0500   6.478297000105   7.101052999938   3.498207004402 # ob
  657 887   3  -1.0500   5.387156999088   8.826313000297  23.367427003196 # ob
  658 888   3  -1.0500   4.215187000438   5.717972999240  17.875627002821 # ob
  659 889   3  -1.0500  21.389887000997  10.127643000303   8.627096999241 # ob
  660 890   3  -1.0500   6.602966999394   9.340103000260   4.743687001093 # ob
  661 891   3  -1.0500   9.607397000470   4.783212999172  22.003827002402 # ob
  662 892   3  -1.0500   4.159216998385   7.817052998786  19.367827003866 # ob
  663 893   3  -1.0500   4.974277000020   6.275592999192   7.099597003906 # ob
  664 894   3  -1.0500   4.372116999924   7.994662999939   4.659517000581 # ob
  665 895   3  -1.0500  23.946887000229   9.770072998856  22.074327003256 # ob
  666 896   3  -1.0500  22.601487000708   6.461762999653  19.137727002015 # ob
  667 897   3  -1.0500  19.375886999841  11.121212999150   7.314797004147 # ob
  668  43   4  -0.9500   6.716426999526   5.235022998937  26.273327001624 # oh
  669  44   4  -0.9500  24.522410645747   9.667633000055   0.258333999873 # oh
  670 898   3  -1.0500  23.101940646828   6.700563000486  11.424727001007 # ob
  671 899   3  -1.0500  23.102187000134   9.358872999063  15.029427004352 # ob
  672 900   3  -1.0500  24.192087000506  11.174713000398   2.315817004009 # ob
  673 901   3  -1.0500   6.927416999379   7.001652999884  24.402327003729 # ob
  674 902   3  -1.0500  22.075586998945  10.057202999852  17.277327000601 # ob
  675 903   3  -1.0500  22.702387000528   8.019922999233   9.292537004611 # ob
  676 904   3  -1.0500  22.606086999279  11.229012999653   4.407806999326 # ob
  677 905   3  -1.0500   5.579887000856   6.643143000267  22.122826999283 # ob
  678 906   3  -1.0500  20.290186999768   9.623812999414  19.169027000694 # ob
  679 907   3  -1.0500  21.255686999086   8.069052999263   7.160746999668 # ob
  680 908   3  -1.0500   8.642197000447   6.282953000559   4.570367000783 # ob
  681 909   3  -1.0500   7.583256999774   8.127132999185  22.229927002849 # ob
  682 910   3  -1.0500   5.864297000310   4.523803000588  19.411027001654 # ob
  683 911   3  -1.0500  23.426286999490   9.372733000269   7.227727000445 # ob
  684  45   4  -0.9500  19.552687000279  11.473713000425   0.356240003990 # oh
  685  45   5   0.4250  19.435787000585  12.496312999885   0.544283002960 # ho
  686  46   4  -0.9500  22.452287000088   6.583613000123  25.590926999568 # oh
  687  46   5   0.4250  22.401087000596   7.531542999934  26.052027002862 # ho
  688  47   4  -0.9500  24.649710645221  10.148473000434  16.907727004085 # oh
  689  47   5   0.4250   4.993866999859   9.907443000068  16.417927001577 # ho
  690  48   4  -0.9500   4.412737000688   8.170803000317  10.435227000481 # oh
  691  48   5   0.4250   5.318466999844   7.775182999211  10.708427000808 # ho
  692 118   6  -0.8476  22.973187000576   7.700512999563   1.008606999334 # o*
  693 118   7   0.4238  22.140086999487   8.244772999154   0.858056999704 # h*
  694 118   7   0.4238  23.727940644773   8.282792998910   0.645264999555 # h*
  695 119   6  -0.8476  20.238286999548   9.664332999680  25.806027000498 # o*
  696 119   7   0.4238  20.768086999801   9.130632999061  26.472826999974 # h*
  697 119   7   0.4238  19.792086999545   9.017122999236  25.164427001180 # h*
  698 120   6  -0.8476   5.543906999302   9.069063000003  14.819327003729 # o*
  699 120   7   0.4238   4.873257000676   8.302612999859  14.810827004365 # h*
  700 120   7   0.4238   6.451336999167   8.586462999176  14.925327003288 # h*
  701 121   6  -0.8476  24.501987000326  11.047512999431   9.652097004264 # o*
  702 121   7   0.4238  24.472580646324  10.108383000003  10.012627004186 # h*
  703 121   7   0.4238  25.089490645015  11.077412999062   8.832577001573 # h*
  704 122   6  -0.8476  21.678287000822  10.074213000066  11.511427000307 # o*
  705 122   7   0.4238  22.376886999199  10.778012999102  11.659827003165 # h*
  706 122   7   0.4238  21.641287000597   9.858002999812  10.514327000010 # h*
  707 123   6  -0.8476  21.570386999885   6.223423000416  14.573626999298 # o*
  708 123   7   0.4238  21.221486998740   5.326412999127  14.917227001168 # h*
  709 123   7   0.4238  22.568687001126   6.081303000465  14.471026999485 # h*
  710 124   6  -0.8476   7.696316998504  10.535212998940  11.524027000386 # o*
  711  97   7   0.4238  14.444886999530  12.444213000260  11.804527002552 # h*
  712  97   7   0.4238  15.962787000633  11.950113000433  11.855426999422 # h*
  713 125   6  -0.8476   6.163307000512   5.929912999189  11.317627003234 # o*
  714 125   7   0.4238   6.705567000107   5.460933000352  10.598627004260 # h*
  715 125   7   0.4238   6.825376998895   6.493322998820  11.830126999953 # h*
  716 126   6  -0.8476  17.730786999023  10.501012999101  13.520126999476 # o*
  717 126   7   0.4238  17.648386999234  10.376713000436  12.477127002615 # h*
  718 126   7   0.4238  16.941786999496   9.907362999710  13.845526999302 # h*
  719  43   5   0.4250   5.778027000893   5.687012999973  26.282926999201 # ho
  720  44   5   0.4250  24.378686999264  10.294813000234  57.369827000979 # ho
  721 912   1   2.1000  22.145686999604  14.681613000394   3.462577001959 # st
  722 913   1   2.1000  20.857087000053  16.198613000559  22.945926999322 # st
  723 914   1   2.1000  19.546486999945  13.232912998995  18.470927002540 # st
  724 915   1   2.1000  16.572387000023  17.691012999276   8.028537001130 # st
  725  50   1   2.1000  21.042586999344  16.650812999051   1.214257001652 # st
  726  49   1   2.1000  24.032687000622  11.967613000286  25.125327004108 # st
  727  53   1   2.1000  19.229186999007  15.497212999263  16.306127001431 # st
  728  54   1   2.1000  19.598087000373  13.555312998814  10.210227004041 # st
  729 916   1   2.1000  19.538886998814  18.227512999425   3.470087000034 # st
  730 917   1   2.1000  22.543287000270  13.615412998956  23.029126999565 # st
  731 918   1   2.1000  17.349187000313  16.909213000313  18.271927000745 # st
  732 919   1   2.1000  18.147486999696  15.019812999422   7.977776999820 # st
  733 920   2   1.0500  21.705787000949  14.691613000575   6.647517003344 # cah
  734 921   2   1.0500  20.606486999727  16.381713000513  19.847027004101 # cah
  735 922   2   1.0500  19.313086999972  13.300512998807  21.626027004455 # cah
  736 923   2   1.0500  16.230286998774  17.845412999397   4.815657004563 # cah
  737 924   2   1.0500  18.608787000530  15.069413000395   4.683257001529 # cah
  738 925   2   1.0500  17.463487000738  16.666813000085  21.743727004501 # cah
  739 926   2   1.0500  22.838987000162  13.382912999854  19.699427001524 # cah
  740 927   2   1.0500  20.031786999701  17.994312999511   6.809976999697 # cah
  741 928   2   1.0500  18.653986999166  12.800612999953  13.907827004518 # cah
  742 929   3  -1.0500  21.461786999824  15.446912999336   2.216217000905 # ob
  743 930   3  -1.0500  24.723700644804  11.029312998767  24.122926999777 # ob
  744 931   3  -1.0500  19.324887000713  14.107413000064  17.159327002622 # ob
  745 932   3  -1.0500  20.020386999346  12.216412999441   9.554927000637 # ob
  746 933   3  -1.0500  23.012987000548  13.402012999438   3.127907001124 # ob
  747 934   3  -1.0500  21.764787000389  14.953913000254  23.401526999961 # ob
  748 935   3  -1.0500  20.369986999684  11.881512998930  18.085727003444 # ob
  749 936   3  -1.0500  17.401186999708  16.369712998809   8.389397003411 # ob
  750 937   3  -1.0500  23.082387000618  15.690312999397   4.205387002558 # ob
  751 938   3  -1.0500   5.554756999930  10.974212999646  21.973227004693 # ob
  752 939   3  -1.0500  20.281586999050  14.089012999433  19.462827003908 # ob
  753 940   3  -1.0500  21.528386999204  12.459113000549   7.462337003662 # ob
  754 941   3  -1.0500  21.005986998432  14.203612998796   4.434237001436 # ob
  755 942   3  -1.0500  19.612086999440  15.697113000115  22.192827003582 # ob
  756 943   3  -1.0500  18.176586999493  12.734012999973  19.145626999720 # ob
  757 944   3  -1.0500  15.359986999614  17.298112999201   7.158237001900 # ob
  758  49   4  -0.9500  23.292487000092  11.190712999573  26.286727001983 # oh
  759  50   4  -0.9500  20.191086999355  16.145712999211  57.864027002134 # oh
  760 945   3  -1.0500  19.122387000128  13.416512999794  11.654827002858 # ob
  761 946   3  -1.0500  19.162286999686  15.252012999504  14.788527001606 # ob
  762 947   3  -1.0500  20.110586999705  17.611713000496   2.128597000992 # ob
  763 948   3  -1.0500  22.991087000654  12.926913000141  24.379627003725 # ob
  764 949   3  -1.0500  18.023386999001  16.291012999929  16.991027003640 # ob
  765 950   3  -1.0500  18.653886999115  14.331012999729   9.254377003380 # ob
  766 951   3  -1.0500  18.554086999831  17.269612999335   4.211317001092 # ob
  767 952   3  -1.0500  21.565786999875  12.658412999644  22.283227000561 # ob
  768 953   3  -1.0500  16.278686999222  15.835912999136  18.769527001646 # ob
  769 954   3  -1.0500  17.131487000952  14.111313000339   7.174167001048 # ob
  770 955   3  -1.0500  24.866287000776  12.280412999857   4.500167003654 # ob
  771 956   3  -1.0500  23.760386999454  13.944513000439  22.113526999639 # ob
  772 957   3  -1.0500  22.280187000039  11.084412999747  19.603127004646 # ob
  773 958   3  -1.0500  19.321487000416  15.260612999920   7.047777000631 # ob
  774  51   4  -0.9500  15.284986999268  17.811513000437   0.976867001370 # oh
  775  51   5   0.4250  16.197787000483  17.440013000489   0.619547000186 # ho
  776  52   4  -0.9500  18.242286999226  13.272912999719  25.217227002337 # oh
  777  52   5   0.4250  19.262487000456  13.067412999806  25.356027001825 # ho
  778  53   4  -0.9500  20.494887000954  16.343213000466  16.738327001096 # oh
  779  53   5   0.4250  20.817086998737  17.150412998885  16.141227002194 # ho
  780  54   4  -0.9500  20.942986999783  14.470512999562  10.212526999780 # oh
  781  54   5   0.4250  21.924087000221  14.022113000433  10.171727002835 # ho
  782 127   6  -0.8476  21.424387000783  15.975112999948  55.509027002320 # o*
  783 127   7   0.4238  21.925986998535  16.253412998802  54.666827000645 # h*
  784 127   7   0.4238  22.252686999880  15.559912998968  55.951527000533 # h*
  785 128   6  -0.8476  17.266986999298  15.609612998995  26.191427004009 # o*
  786 128   7   0.4238  17.809286999554  16.498013000520  26.169227000560 # h*
  787 128   7   0.4238  17.858886999286  14.822412999080  25.893327001457 # h*
  788 129   6  -0.8476  22.855187000002  13.184712999645  17.023427000532 # o*
  789 129   7   0.4238  23.203587000711  12.818312999772  16.158227000921 # h*
  790 129   7   0.4238  22.935386999581  14.206512999239  16.935927000951 # h*
  791 130   6  -0.8476  20.602886999800  16.963613000481   9.203456999697 # o*
  792 130   7   0.4238  20.869687000859  17.474613000261  10.056927000187 # h*
  793 130   7   0.4238  20.791986999014  16.000312999439   9.491777001277 # h*
  794 131   6  -0.8476  16.767387000740  14.828412999932  11.556727001004 # o*
  795 131   7   0.4238  17.618487000543  14.282712999467  11.406827002688 # h*
  796 131   7   0.4238  17.149586999926  15.545512999525  12.190727000551 # h*
  797 132   6  -0.8476  20.732286999113  11.991312999098  15.327427001800 # o*
  798 132   7   0.4238  20.942486999469  12.037512998783  16.328326999087 # h*
  799 132   7   0.4238  21.470087000692  12.562312999966  14.932127002779 # h*
  800 133   6  -0.8476  20.740387000240  15.784313000357  12.811527004152 # o*
  801 106   7   0.4238  14.158986999814  17.454112999054  12.329827003764 # h*
  802 106   7   0.4238  14.363687000283  15.859312998928  12.336927001188 # h*
  803 134   6  -0.8476  23.960886999802  10.926712999250  13.323027001968 # o*
  804 134   7   0.4238  23.462687000277  10.347112999825  14.016527002852 # h*
  805 134   7   0.4238  23.450687000878  11.812213000332  13.386127001673 # h*
  806 135   6  -0.8476  17.638186999533  16.853013000447  13.170227000462 # o*
  807 135   7   0.4238  18.120586999864  16.132213000546  13.774427002581 # h*
  808 135   7   0.4238  17.383786999849  17.710212999772  13.685627000372 # h*
  809  49   5   0.4250  22.771486999180  11.813112999252  26.913627004106 # ho
  810  50   5   0.4250  20.647687000380  16.320712999594  56.931527002792 # ho
  811 136   7   0.4238   7.219767000368   4.514382999752  48.352327003269 # h*
  812 136   7   0.4238   7.945077000957   3.494743000540  49.095027001150 # h*
  813 136   6  -0.8476   6.987787000612   3.622002999452  48.815727002302 # o*
  814 137   7   0.4238  25.588687000296  17.293912999905  41.159927001099 # h*
  815 137   7   0.4238  26.999387000238  16.331912999574  41.200327000800 # h*
  816 137   6  -0.8476  26.134486999780  16.600213000104  41.705627000784 # o*
  817 138   7   0.4238  16.702487000276  15.566112999786  57.570727001268 # h*
  818 138   7   0.4238  16.038787000797  14.505413000213   0.629150003999 # h*
  819 138   6  -0.8476  16.379487000286  14.616013000246  57.598726999512 # o*
  820 139   7   0.4238  17.354887000747  13.314113000243  48.862827002182 # h*
  821 139   7   0.4238  16.028786998753  14.210612999480  49.021027001240 # h*
  822 139   6  -0.8476  16.872386999000  13.891912999969  49.521127002295 # o*
  823 140   7   0.4238  21.629187000596  10.245313000174  43.583727001895 # h*
  824 140   7   0.4238  22.292086999324  11.558613000124  44.082027003766 # h*
  825 140   6  -0.8476  22.568987000643  10.649512999283  43.666426999791 # o*
  826 141   7   0.4238  16.143486999317  11.361212999781  56.383026999228 # h*
  827 141   7   0.4238  16.212786999716  12.938713000020  56.478427002307 # h*
  828 141   6  -0.8476  16.246087000209  12.178613000206  55.793327001475 # o*
  829 142   7   0.4238  12.108686999993   3.427422999194  25.189427002715 # h*
  830 142   7   0.4238  12.170887000148   4.969683000511  24.970527004796 # h*
  831 142   6  -0.8476  12.171687000026   4.106832999811  24.436027003250 # o*
  832 143   7   0.4238  18.587386999212   0.617191998844  43.963527003440 # h*
  833 143   7   0.4238  26.573387000348  17.738012998826  43.200327001983 # h*
  834 143   6  -0.8476  27.186687000434  18.350312999271  43.738627000518 # o*
  835 144   7   0.4238   6.948616999957  10.192512999737  52.918527003103 # h*
  836 144   7   0.4238   6.458526999244   9.232633000537  54.059126999470 # h*
  837 144   6  -0.8476   6.486936999605   9.292602999864  53.052726999528 # o*
  838 145   7   0.4238  15.688786999340  16.991212999569  34.970927002162 # h*
  839 145   7   0.4238  15.669587000025  18.244612999344  34.025027002460 # h*
  840 145   6  -0.8476  15.624486999897  17.225513000227  33.981227003014 # o*
  841 146   7   0.4238  18.393586999925   6.743702999011  31.274426999899 # h*
  842 146   7   0.4238  19.002786999622   7.224243000369  32.681327003584 # h*
  843 146   6  -0.8476  18.188986998941   6.729022999243  32.267426999481 # o*
  844 147   7   0.4238  16.348086999620  14.380412998877  41.791526999803 # h*
  845 147   7   0.4238  16.914986999385  12.822812999946  41.733127002473 # h*
  846 147   6  -0.8476  16.188887000751  13.461312999713  41.377926999427 # o*
  847 148   7   0.4238   7.026996999275   3.465472998852  56.501427000244 # h*
  848 148   7   0.4238   7.002946999392   3.051702999396  54.997827002437 # h*
  849 148   6  -0.8476   6.537917000235   2.788322999527  55.878526999525 # o*
  850 149   7   0.4238  18.530887000543  12.797013000557  45.998726999602 # h*
  851 149   7   0.4238  19.783087000242  11.734213000406  46.110727004163 # h*
  852 149   6  -0.8476  19.133387000585  12.289312999294  46.674027004233 # o*
  853 150   7   0.4238  19.191487000206  11.092112999384  52.188227000886 # h*
  854 150   7   0.4238  20.025786999145  12.199712999455  51.465027001886 # h*
  855 150   6  -0.8476  19.519786999464  11.349512998956  51.262327002413 # o*
  856 151   7   0.4238  15.580186998691   4.378262998795  42.905027003310 # h*
  857 151   7   0.4238  14.269786998685   5.393872998777  42.619027004282 # h*
  858 151   6  -0.8476  15.283186999772   5.336192998787  42.666627000718 # o*
  859 152   7   0.4238  21.352386998791   7.320782999230  29.934927001049 # h*
  860 152   7   0.4238  22.841687000802   7.933043000425  30.368527002654 # h*
  861 152   6  -0.8476  21.908486999086   7.693962999267  30.688426999825 # o*
  862 153   7   0.4238  16.177487000054  15.972612999439  51.919127001274 # h*
  863 153   7   0.4238  16.462287000444  14.914512999429  50.748727001687 # h*
  864 153   6  -0.8476  15.826486999684  15.668112999404  51.028427003572 # o*
  865 154   7   0.4238   7.721156998439  15.289412998806  45.706827000675 # h*
  866 154   7   0.4238  27.456440644891  16.280312998936  44.721027003620 # h*
  867 154   6  -0.8476   7.005226999412  15.301613000476  44.957826999858 # o*
  868 155   7   0.4238  19.729387000478  15.910613000545  46.466927000320 # h*
  869 155   7   0.4238  18.450687000193  16.742613000380  46.376226999615 # h*
  870 155   6  -0.8476  18.849287000386  15.898912999720  45.922226999538 # o*
  871 156   7   0.4238  19.478186999409   4.082522999893  41.878527002829 # h*
  872 156   7   0.4238  18.731986998828   3.603702999733  43.165727002870 # h*
  873 156   6  -0.8476  19.345586998612   3.247602999062  42.455327002570 # o*
  874 157   7   0.4238   7.611036999680  15.047613000335  24.846427002503 # h*
  875 157   7   0.4238   7.585157000021  14.484013000085  26.338426999134 # h*
  876 157   6  -0.8476   7.017176999634  15.001412998792  25.682427000554 # o*
  877 158   7   0.4238   6.667347000228  10.273512999161  44.787427003759 # h*
  878 158   7   0.4238   7.277826999891  11.496913000251  44.117327003849 # h*
  879 158   6  -0.8476   7.600757000743  10.624312999792  44.527227000754 # o*
  880 159   7   0.4238  22.427886999333   9.626193000315  54.440627000888 # h*
  881 159   7   0.4238  22.696186999025  10.894612999988  55.401026999163 # h*
  882 159   6  -0.8476  22.765886999301  10.579012999027  54.434227004433 # o*
  883 160   7   0.4238  14.174886999176   0.138056799019  34.157527004805 # h*
  884 160   7   0.4238  22.956586999919  17.291913000241  34.820826999432 # h*
  885 160   6  -0.8476  22.911386999369  17.893112999759  34.017327003378 # o*
  886 161   7   0.4238  14.708586999906   5.816312999658  48.387127001004 # h*
  887 161   7   0.4238  14.348386999974   4.348362999164  48.758027000149 # h*
  888 161   6  -0.8476  15.142687000507   4.902932999163  48.499927000054 # o*
  889 162   7   0.4238  19.760986998743  13.371412998995  28.720127000357 # h*
  890 162   7   0.4238  20.405986999853  12.678512999060  27.469827000960 # h*
  891 162   6  -0.8476  20.063187000403  12.475613000569  28.396227001782 # o*
  892 163   7   0.4238  10.004887000421  17.401212999563  32.869827002417 # h*
  893 163   7   0.4238  11.364586999180  17.165312999174  33.714727002867 # h*
  894 163   6  -0.8476  10.361386998450  17.355312998899  33.842527002837 # o*
  895 164   7   0.4238  26.508386999813  17.874312999196  55.656827003519 # h*
  896 164   7   0.4238  27.876140645945  17.766112998759  54.946926999775 # h*
  897 164   6  -0.8476  27.222686999602  17.156212999771  55.448026999732 # o*
  898 165   7   0.4238   8.321556998676  13.719312999184  28.086427004536 # h*
  899 165   7   0.4238   9.893386999984  13.985613000050  27.422627001769 # h*
  900 165   6  -0.8476   8.956886999227  14.317813000085  27.561227002634 # o*
  901 166   7   0.4238   3.194537000538   1.594363000189  28.171327004652 # h*
  902 166   7   0.4238   2.704127001161   2.531683000572  27.098327000157 # h*
  903 166   6  -0.8476   3.472047000913   2.496382999988  27.767927003512 # o*
  904 167   7   0.4238  24.257787000063  12.230212998985  54.533227000087 # h*
  905 167   7   0.4238  24.435487000109  12.792113000449  52.964327000355 # h*
  906 167   6  -0.8476  24.598587000353  13.014513000316  53.943327003712 # o*
  907 168   7   0.4238   6.032316999988  13.766812999580  50.411727000686 # h*
  908 168   7   0.4238   7.366907000252  14.550112999220  50.193627003047 # h*
  909 168   6  -0.8476   6.793416998998  14.170912999635  50.929227003504 # o*
  910 169   7   0.4238  15.413686999519   2.427353000508  44.121927001119 # h*
  911 169   7   0.4238  16.921986999280   2.840852998987  43.846727002986 # h*
  912 169   6  -0.8476  16.033386999678   2.771192999706  43.386827003010 # o*
  913 170   7   0.4238  15.837486998805   5.996172999040  55.368027000612 # h*
  914 170   7   0.4238  14.708686999987   7.007312998749  55.828227004314 # h*
  915 170   6  -0.8476  15.515186998742   6.508362999271  56.192527002590 # o*
  916 171   7   0.4238   1.088727000296   0.165174999011  50.752627003780 # h*
  917 171   7   0.4238   2.281866999064   0.874148000236  49.838027002757 # h*
  918 171   6  -0.8476   2.118136999030   0.274535600217  50.643727001031 # o*
  919 172   7   0.4238  18.142286999980  17.717712999443  44.792627002688 # h*
  920 172   7   0.4238   9.662286999209   0.177104050129  43.497727003564 # h*
  921 172   6  -0.8476  18.297786999248  17.913212999176  43.822427002421 # o*
  922 173   7   0.4238  10.592686999698  16.958612999461   0.099122359268 # h*
  923 173   7   0.4238  11.381186999993  17.447513000161  56.717427000765 # h*
  924 173   6  -0.8476  11.251787001189  16.613913000594  57.289127000888 # o*
  925 174   7   0.4238  12.183686999529  15.642113000048  49.279426999268 # h*
  926 174   7   0.4238  11.450086999881  16.234112999251  48.032027003061 # h*
  927 174   6  -0.8476  11.514087000656  15.356312999665  48.561127001263 # o*
  928 175   7   0.4238  23.617487000847  12.291412999871  36.918827003158 # h*
  929 175   7   0.4238  24.872587000600  11.395812999553  36.547527000976 # h*
  930 175   6  -0.8476  24.195686999471  12.028713000259  36.133327004733 # o*
  931 176   7   0.4238  14.238787000588  15.741612999156  50.607726999979 # h*
  932 176   7   0.4238  13.203587000131  16.979713000568  50.364826999427 # h*
  933 176   6  -0.8476  13.278687000445  15.963812999056  50.377127001573 # o*
  934 177   7   0.4238  20.692086998814   9.830962999515  38.201127002202 # h*
  935 177   7   0.4238  20.179086999460  11.246312999539  37.867927003983 # h*
  936 177   6  -0.8476  20.944687000432  10.830113000584  38.372427003686 # o*
  937 178   7   0.4238   8.150076998523   3.019992998861  36.832027004546 # h*
  938 178   7   0.4238   8.973416999093   1.599812999740  37.159927004526 # h*
  939 178   6  -0.8476   8.189296999696   2.144012999527  37.407026999311 # o*
  940 179   7   0.4238  14.124887000100  15.101613000570  39.861727001541 # h*
  941 179   7   0.4238  14.871986999623  14.560213000313  41.070827000956 # h*
  942 179   6  -0.8476  13.971087001044  14.992213000335  40.844527001887 # o*
  943 180   7   0.4238  23.700386999065  14.340213000044  28.241227003848 # h*
  944 180   7   0.4238  22.386486999234  15.305212999873  27.916426999888 # h*
  945 180   6  -0.8476  22.690287000379  14.357412999018  28.208927000474 # o*
  946 181   7   0.4238  22.557486999267  15.235112999550  35.374527001925 # h*
  947 181   7   0.4238  22.642486999365  15.820012999015  36.855027002483 # h*
  948 181   6  -0.8476  22.934087000910  16.016113000505  35.912427003216 # o*
  949 182   7   0.4238  25.414487000549  16.110413000485  52.339927004178 # h*
  950 182   7   0.4238  26.780986998747  15.888712999572  51.497527003882 # h*
  951 182   6  -0.8476  26.034887000200  16.591312998810  51.670127002202 # o*
  952 183   7   0.4238   8.989066999550  12.433912999200  31.267726999719 # h*
  953 183   7   0.4238   9.232826999392  13.930413000016  31.456126999241 # h*
  954 183   6  -0.8476   8.519927000086  13.223513000571  31.643127002616 # o*
  955 184   7   0.4238  11.090286999627   1.883213000526  46.452327002435 # h*
  956 184   7   0.4238  10.057686999062   0.854850999933  46.984727001071 # h*
  957 184   6  -0.8476  10.228386999461   1.848632999449  46.972227000304 # o*
  958 185   7   0.4238  25.292187000042  15.888512999606  29.420927003079 # h*
  959 185   7   0.4238  24.786087000590  15.128812999725  30.719127002637 # h*
  960 185   6  -0.8476  25.432686999237  15.001012998859  29.935627002018 # o*
  961 186   7   0.4238  21.411787000576   7.516222999158  40.965227004434 # h*
  962 186   7   0.4238  22.239586999847   6.562972998753  39.836127004140 # h*
  963 186   6  -0.8476  21.457186999333   7.175322999654  39.984327002583 # o*
  964 187   7   0.4238  17.384487000312   5.333493000169  50.793727004451 # h*
  965 187   7   0.4238  16.238886999293   5.679513000302  49.747527000675 # h*
  966 187   6  -0.8476  16.610686999412   5.965093000164  50.663027001290 # o*
  967 188   7   0.4238  14.061286999466   2.012182999430   0.000000000000 # h*
  968 188   7   0.4238  14.939187000040   3.018362999227  57.071827003530 # h*
  969 188   6  -0.8476  14.520886999258   2.082163000144  57.019527004721 # o*
  970 189   7   0.4238  19.956087000720   3.784743000218  38.140527002651 # h*
  971 189   7   0.4238  18.510487000371   3.751802999982  37.673227001526 # h*
  972 189   6  -0.8476  19.026386999241   3.839483000515  38.563026999636 # o*
  973 190   7   0.4238   9.227437000145   0.448713000461  30.043727004487 # h*
  974 190   7   0.4238  17.000686998944  17.549312999812  30.453727000703 # h*
  975 190   6  -0.8476  16.565487000616  18.415213000465  30.165927002492 # o*
  976 191   7   0.4238   6.800657000242   7.520582999170  52.091327002350 # h*
  977 191   7   0.4238   7.543056999570   7.342502998932  50.788127002485 # h*
  978 191   6  -0.8476   7.123797000644   6.767062999553  51.486326999950 # o*
  979 192   7   0.4238   2.439036998978   0.944261998902  37.960226999457 # h*
  980 192   7   0.4238   2.479986999748   2.130112999070  39.008727004764 # h*
  981 192   6  -0.8476   1.830817000213   1.580552999439  38.462227004799 # o*
  982 193   7   0.4238  16.932887000556   0.416760999353  32.075726999525 # h*
  983 193   7   0.4238  17.571186999913   1.132986999074  33.359827003546 # h*
  984 193   6  -0.8476  17.202286999329   1.326372999885  32.449026999512 # o*
  985 194   7   0.4238  17.140886999207   8.092072999676  28.097727001986 # h*
  986 194   7   0.4238  17.639887000492   6.546942999676  28.045727001109 # h*
  987 194   6  -0.8476  16.879186999438   7.124352998818  28.340727001849 # o*
  988 195   7   0.4238  12.802487000719   8.333983000266  27.571427001871 # h*
  989 195   7   0.4238  13.172687000998   8.776983000301  26.080226999728 # h*
  990 195   6  -0.8476  12.402587000568   8.423882999126  26.633127001940 # o*
  991 196   7   0.4238  15.833186999894   6.579903000466  29.401627002821 # h*
  992 196   7   0.4238  15.088286999330   7.363042999390  30.636127001015 # h*
  993 196   6  -0.8476  15.247286999038   6.431112998754  30.227726999568 # o*
  994 197   7   0.4238   7.387197000164   2.377483000417  38.881227002727 # h*
  995 197   7   0.4238   6.379067000340   1.373262999176  39.636227002753 # h*
  996 197   6  -0.8476   6.760476999682   2.298102999421  39.689327001844 # o*
  997 198   7   0.4238  19.602686998809   6.727542999120  48.679227004346 # h*
  998 198   7   0.4238  19.171687000165   8.243473000301  48.107227000497 # h*
  999 198   6  -0.8476  19.761386999179   7.443642998880  47.994527000759 # o*
 1000 199   7   0.4238   1.917487000435   2.420293000020  24.730627000953 # h*
 1001 199   7   0.4238   1.022356999080   1.494122999161  25.638527001796 # h*
 1002 199   6  -0.8476   1.640906999510   2.313993000194  25.713726999232 # o*
 1003 200   7   0.4238  13.247587000507   7.227863000319  29.083127001797 # h*
 1004 200   7   0.4238  13.791586999994   8.399602999110  30.039927001705 # h*
 1005 200   6  -0.8476  13.412187000282   8.217642999151  29.119027003538 # o*
 1006 201   7   0.4238   9.271727000595  10.463612999799  35.660427001642 # h*
 1007 201   7   0.4238   9.416787000788  10.204213000563  34.114727004262 # h*
 1008 201   6  -0.8476   9.839586999056   9.957932998755  35.024326999186 # o*
 1009 202   7   0.4238  19.516787000579   1.259802999807  34.925727000777 # h*
 1010 202   7   0.4238  19.878486999127   2.737133000029  34.366826999354 # h*
 1011 202   6  -0.8476  20.190386999999   2.002502998823  35.008427004465 # o*
 1012 203   7   0.4238  13.722287000244   7.636762999569  51.858427002412 # h*
 1013 203   7   0.4238  13.524787000283   6.308962999263  52.888627000572 # h*
 1014 203   6  -0.8476  13.131886999537   6.860613000124  52.181427001396 # o*
 1015 204   7   0.4238  19.110087000307   5.747702998807  35.822927000036 # h*
 1016 204   7   0.4238  17.716587000540   6.290023000396  36.190827002472 # h*
 1017 204   6  -0.8476  18.162986999517   5.416292999290  35.867127002519 # o*
 1018 205   7   0.4238   7.596856998885   8.092652999022  38.502727003810 # h*
 1019 205   7   0.4238   6.829197000308   7.867073000246  37.060227002110 # h*
 1020 205   6  -0.8476   7.374806999465   7.373522999862  37.805727003870 # o*
 1021 206   7   0.4238  10.283386999711   1.749503000372  55.301826999095 # h*
 1022 206   7   0.4238  10.487886999832   3.219222998804  55.849627001689 # h*
 1023 206   6  -0.8476  10.024386999956   2.377662999829  56.046327001952 # o*
 1024 207   7   0.4238  12.266486998724   2.660772999084  49.326027002593 # h*
 1025 207   7   0.4238  12.958586998833   3.011982998997  47.833827001548 # h*
 1026 207   6  -0.8476  12.680086998596   3.409812999081  48.753527002189 # o*
 1027 208   7   0.4238   4.050377000553   3.496973000073  31.371927000094 # h*
 1028 208   7   0.4238   4.245236999426   1.962732999825  30.815627003929 # h*
 1029 208   6  -0.8476   3.592586999722   2.741392999129  30.839527001458 # o*
 1030 209   7   0.4238  16.363886999027  14.416912999260  38.570427000785 # h*
 1031 209   7   0.4238  16.972587000071  15.623912999384  37.572626999518 # h*
 1032 209   6  -0.8476  17.043286999745  15.167012998893  38.480227002429 # o*
 1033 210   7   0.4238   4.402916998553   5.606892998915  39.315827003234 # h*
 1034 210   7   0.4238   3.121646999933   4.735842999590  39.716526999807 # h*
 1035 210   6  -0.8476   3.372776999579   5.594992999982  39.204627004747 # o*
 1036 211   7   0.4238  21.881186999990  13.338012999022  45.034227000611 # h*
 1037 211   7   0.4238  20.711286999407  13.130712999410  43.857527003881 # h*
 1038 211   6  -0.8476  21.176987000649  12.703012999597  44.645027000111 # o*
 1039 212   7   0.4238  12.748686999672   4.811642999886  54.272427001216 # h*
 1040 212   7   0.4238  11.995286999128   4.528632999685  52.847127002657 # h*
 1041 212   6  -0.8476  12.855486999580   4.324842999764  53.371426999174 # o*
 1042 213   7   0.4238  26.290830645515  13.892712999835  57.044626999775 # h*
 1043 213   7   0.4238  26.194610644757  14.641412999703   0.398319000465 # h*
 1044 213   6  -0.8476  25.748486999592  13.815712999741  57.900127002498 # o*
 1045 214   7   0.4238   2.066146999048   2.562612999937  33.872727003302 # h*
 1046 214   7   0.4238   3.404736999460   1.857192998757  34.118627000562 # h*
 1047 214   6  -0.8476   2.818297000561   2.583493000523  34.518727001269 # o*
 1048 215   7   0.4238  20.103187000225   4.044443000333  32.154427001810 # h*
 1049 215   7   0.4238  19.138286999877   4.552542999670  33.264727004193 # h*
 1050 215   6  -0.8476  19.916986999740   3.899103000365  33.154127001572 # o*
 1051 216   7   0.4238  21.857720645150   4.619692999094  33.674026999441 # h*
 1052 216   7   0.4238   2.313756999738   4.879722999989  34.932227002334 # h*
 1053 216   6  -0.8476  22.464090645601   5.328252999933  34.100326999207 # o*
 1054 217   7   0.4238  10.307187000315  18.115912999559  30.620326999813 # h*
 1055 217   7   0.4238  10.473187000473  16.599512999293  30.970027000204 # h*
 1056 217   6  -0.8476   9.846387000096  17.372712999697  31.147627004624 # o*
 1057 218   7   0.4238  24.525686999922  16.408812998755  35.955527001692 # h*
 1058 218   7   0.4238  26.161087000710  16.478413000091  35.828926999246 # h*
 1059 218   6  -0.8476  25.344187000055  16.946513000562  36.231626999417 # o*
 1060 219   7   0.4238  25.531287000629  14.808913000415  41.519327004171 # h*
 1061 219   7   0.4238  24.395786999887  13.816712999573  41.848327002365 # h*
 1062 219   6  -0.8476  25.340887000504  13.819213000083  41.476226999903 # o*
 1063 220   7   0.4238   9.601496999101   2.799462999703  42.939627002423 # h*
 1064 220   7   0.4238   9.427527000690   1.652902999849  41.756127000410 # h*
 1065 220   6  -0.8476   9.328696999480   1.838303000346  42.755727000861 # o*
 1066 221   7   0.4238  19.664886999044   4.829172999640  49.986526999133 # h*
 1067 221   7   0.4238  20.121687000046   5.081713000213  51.474327001530 # h*
 1068 221   6  -0.8476  19.516587000061   5.470262999623  50.729027004185 # o*
 1069 222   7   0.4238  20.198687000739   5.962753000371  40.335627003536 # h*
 1070 222   7   0.4238  19.364886999071   4.604872999163  39.963227003141 # h*
 1071 222   6  -0.8476  19.453087000348   5.318002999329  40.693427000254 # o*
 1072 223   7   0.4238   6.257576999579   0.296948000409  46.346927004535 # h*
 1073 223   7   0.4238  13.729886999323  17.488712998826  45.824726999343 # h*
 1074 223   6  -0.8476  14.634886999411  17.922812999424  46.040927004279 # o*
 1075 224   7   0.4238  12.412787000448   5.191932999009  41.728827003135 # h*
 1076 224   7   0.4238  11.356387000685   5.353872999910  42.975127001128 # h*
 1077 224   6  -0.8476  12.329886999954   5.360832999486  42.731526999606 # o*
 1078 225   7   0.4238  11.431786999047  17.963912999035  54.580127001345 # h*
 1079 225   7   0.4238   3.733907000767   0.787672000356  55.319527004584 # h*
 1080 225   6  -0.8476  11.839486999484  18.392413000572  55.415226999803 # o*
 1081 226   7   0.4238  17.184887000155   2.237613000553  29.215927002074 # h*
 1082 226   7   0.4238  17.969186999479   0.783952999242  29.110326999760 # h*
 1083 226   6  -0.8476  17.334986999771   1.410542998870  28.633227002434 # o*
 1084 227   7   0.4238  15.545986998846   6.314812998747  46.605327002563 # h*
 1085 227   7   0.4238  15.896786999284   7.408132998982  45.422527001519 # h*
 1086 227   6  -0.8476  15.898586998642   6.439772998974  45.686627000824 # o*
 1087 228   7   0.4238  16.104786999707   8.698322998813  52.105226999265 # h*
 1088 228   7   0.4238  14.914586999714   9.528772999372  52.674527004338 # h*
 1089 228   6  -0.8476  15.161086999331   8.956663000271  51.861426999121 # o*
 1090 229   7   0.4238  18.404387000438  17.009413000233   0.290434004625 # h*
 1091 229   7   0.4238  17.458486998784  17.394012998913  56.827827004765 # h*
 1092 229   6  -0.8476  17.491886998798  17.115212999214  57.806827002329 # o*
 1093 230   7   0.4238  15.639687000032   5.506213000563  31.641527002054 # h*
 1094 230   7   0.4238  16.637086998659   5.789422998872  32.852027003409 # h*
 1095 230   6  -0.8476  16.086487000808   5.037223000520  32.412227003972 # o*
 1096 231   7   0.4238  16.327787000374  11.515612999902  32.163727001454 # h*
 1097 231   7   0.4238  17.381886999849  10.868813000598  31.156527001231 # h*
 1098 231   6  -0.8476  16.656586999710  10.597212999692  31.858427002168 # o*
 1099 232   7   0.4238   6.631447000105  12.477413000267  27.883626999959 # h*
 1100 232   7   0.4238   7.480877000488  11.823112999433  26.588827000147 # h*
 1101 232   6  -0.8476   6.646386999271  11.716212999708  27.174427002977 # o*
 1102 233   7   0.4238  15.022787000486  14.487713000394  27.779426999584 # h*
 1103 233   7   0.4238  15.929187000711  14.763812999616  26.552927004198 # h*
 1104 233   6  -0.8476  15.085486999740  14.215712999554  26.802827002862 # o*
 1105 234   7   0.4238  24.168087000232  13.252912999357  34.828127001270 # h*
 1106 234   7   0.4238  25.368486999342  13.550012998774  33.845427000235 # h*
 1107 234   6  -0.8476  24.346086999327  13.650512999573  33.891227003280 # o*
 1108 235   7   0.4238   3.400627000237   3.365842998929  41.106927001320 # h*
 1109 235   7   0.4238   2.244457000112   2.270223000009  40.767427000165 # h*
 1110 235   6  -0.8476   2.828796999983   3.002202999336  40.353826999788 # o*
 1111 236   7   0.4238   5.293297001059  11.805113000594  46.393527002068 # h*
 1112 236   7   0.4238   5.988657000686  13.226713000034  45.915427000047 # h*
 1113 236   6  -0.8476  25.718470645702  12.807612998779  46.394427001660 # o*
 1114 237   7   0.4238  14.357186999537   2.329362999567  42.191327002576 # h*
 1115 237   7   0.4238  13.550086998388   0.943188998813  42.020627002751 # h*
 1116 237   6  -0.8476  13.625887000039   1.878853000513  41.653527000596 # o*
 1117 238   7   0.4238  10.465287000627   6.840642999663  31.527227001754 # h*
 1118 238   7   0.4238  11.427587000596   7.711432999218  32.565427002722 # h*
 1119 238   6  -0.8476  10.532986999387   7.220513000158  32.503427001231 # o*
 1120 239   7   0.4238  18.319487000618   1.346812999431  45.587727004482 # h*
 1121 239   7   0.4238  17.532386999612   2.611902998825  46.178327001827 # h*
 1122 239   6  -0.8476  17.846386999816   2.178402999984  45.287227001088 # o*
 1123 240   7   0.4238   3.087766999187   5.734612999423  55.945527001323 # h*
 1124 240   7   0.4238  22.253586999625   6.227912999384  55.419127001896 # h*
 1125 240   6  -0.8476  22.675200646224   5.400992999069  55.835427001049 # o*
 1126 241   7   0.4238  18.007786999441   9.842112999039  35.225327004579 # h*
 1127 241   7   0.4238  19.318387000449   9.777422999017  36.324727000964 # h*
 1128 241   6  -0.8476  18.757687000815  10.333913000181  35.718527001039 # o*
 1129 242   7   0.4238  14.988386999429  11.449612999821  53.018927000696 # h*
 1130 242   7   0.4238  15.342687000346  11.628713000446  54.506727003093 # h*
 1131 242   6  -0.8476  14.742086999560  11.041913000370  53.916327004371 # o*
 1132 243   7   0.4238  19.906387000539  15.057213000583  43.957727002852 # h*
 1133 243   7   0.4238  19.925286999385  15.814112999076  42.535427001002 # h*
 1134 243   6  -0.8476  20.312187000072  15.048213000234  43.036726999582 # o*
 1135 244   7   0.4238  19.785186999282  18.113812998982  42.798327002782 # h*
 1136 244   7   0.4238  20.383686999745  17.615512999859  41.375227000651 # h*
 1137 244   6  -0.8476  20.636486999924  17.916112999618  42.310627003184 # o*
 1138 245   7   0.4238  20.081987000336  13.885013000197  39.664827002656 # h*
 1139 245   7   0.4238  19.428286999584  14.705712999140  38.392727002847 # h*
 1140 245   6  -0.8476  20.142286999144  14.707612999750  39.077227002020 # o*
 1141 246   7   0.4238  16.468286999188   4.909243000242  53.290827004187 # h*
 1142 246   7   0.4238  16.943287000059   6.349572999235  52.864527004421 # h*
 1143 246   6  -0.8476  16.567886999120   5.847772999771  53.671727003946 # o*
 1144 247   7   0.4238  22.152287001077  17.561413000570  42.765527002853 # h*
 1145 247   7   0.4238  23.625186999161  17.803712999886  42.251227001158 # h*
 1146 247   6  -0.8476  23.123386999010  17.343412999966  43.002527003506 # o*
 1147 248   7   0.4238   2.753456998848   4.665192999825  47.485027000748 # h*
 1148 248   7   0.4238   2.860197000396   5.660442998761  48.728127003410 # h*
 1149 248   6  -0.8476   2.278876999186   4.907062999306  48.328526999259 # o*
 1150 249   7   0.4238  10.374587000092  15.305012999906  41.218027000497 # h*
 1151 249   7   0.4238  10.148786999348  16.919013000528  41.714027000836 # h*
 1152 249   6  -0.8476   9.889987000440  16.152312999962  41.064326999399 # o*
 1153 250   7   0.4238  20.465087000569  11.529713000325  25.636427004679 # h*
 1154 250   7   0.4238  21.554686998701  12.800712999007  25.294327004060 # h*
 1155 250   6  -0.8476  20.693186999906  12.517612999100  25.766227002456 # o*
 1156 251   7   0.4238   8.576896999913   5.608332999789  55.336627002622 # h*
 1157 251   7   0.4238   9.466086999761   6.699393000589  56.105027003008 # h*
 1158 251   6  -0.8476   8.778387000773   5.965382999837  56.247626999486 # o*
 1159 252   7   0.4238   6.192897000375  10.603213000544  40.268427003116 # h*
 1160 252   7   0.4238   4.707626999648  10.150992999639  40.752426999244 # h*
 1161 252   6  -0.8476   5.562957000084   9.814793000276  40.347727001267 # o*
 1162 253   7   0.4238  13.470987000439   3.990912999183  33.130427002665 # h*
 1163 253   7   0.4238  13.917486998970   5.116382999137  34.223327003285 # h*
 1164 253   6  -0.8476  13.134586999560   4.817242998947  33.630027001372 # o*
 1165 254   7   0.4238  11.993486999653   0.862423000112  57.261927002925 # h*
 1166 254   7   0.4238  13.332186999509   0.677079000423  56.269227001276 # h*
 1167 254   6  -0.8476  12.527004339608   0.207118465269  56.695827004768 # o*
 1168 255   7   0.4238   4.950397000905   1.520893000339  41.115127002750 # h*
 1169 255   7   0.4238   5.909747000560   0.261756799643  41.436627000483 # h*
 1170 255   6  -0.8476   4.994677000838   0.525929999971  41.121727003619 # o*
 1171 256   7   0.4238   3.382887000298   3.817242999413  55.374827000103 # h*
 1172 256   7   0.4238   4.737516999283   2.905362999596  55.285227003405 # h*
 1173 256   6  -0.8476   3.710316999547   2.868163000260  55.297127002514 # o*
 1174 257   7   0.4238  13.127886999939  18.467612999110  30.068427002296 # h*
 1175 257   7   0.4238   6.004047000309   1.188942998869  30.355227001605 # h*
 1176 257   6  -0.8476   5.165057000533   0.699065999997  30.631827001678 # o*
 1177 258   7   0.4238  10.460187001167   0.399975000514  39.847127003657 # h*
 1178 258   7   0.4238   9.018916999148   0.575814000264  40.447527002994 # h*
 1179 258   6  -0.8476   9.840687000706   1.107060999724  40.148827004576 # o*
 1180 259   7   0.4238   9.400307000956   7.912923000454  49.137227000035 # h*
 1181 259   7   0.4238   8.427767000824   9.141962999855  49.663127002906 # h*
 1182 259   6  -0.8476   8.415606999141   8.169912998886  49.263227000822 # o*
 1183 260   7   0.4238  21.394486999315  12.640612998912  40.785927000142 # h*
 1184 260   7   0.4238  20.718787000563  11.739513000446  39.763626999687 # h*
 1185 260   6  -0.8476  20.461287000847  12.398613000475  40.488527004353 # o*
 1186 261   7   0.4238  14.817686999998   0.498304999726  48.763027000456 # h*
 1187 261   7   0.4238  15.561287000235   1.875583000040  48.260827002284 # h*
 1188 261   6  -0.8476  15.241786999355   0.969981999792  47.941027004424 # o*
 1189 262   7   0.4238  15.303886999636   1.545352999768  54.586527003592 # h*
 1190 262   7   0.4238  13.875387000003   1.120621999800  54.129427001702 # h*
 1191 262   6  -0.8476  14.710986999769   0.739609999813  54.580227000656 # o*
 1192 263   7   0.4238  12.582687000700   2.432543000288  40.478827001672 # h*
 1193 263   7   0.4238  11.073786999331   2.373482999229  39.910327002672 # h*
 1194 263   6  -0.8476  11.949886998945   2.881322998796  39.796127001683 # o*
 1195 264   7   0.4238  12.713987000755  13.030613000403  28.020327002330 # h*
 1196 264   7   0.4238  12.543187000646  12.108912999817  29.189326999978 # h*
 1197 264   6  -0.8476  12.966787000500  12.997312999484  28.999227000583 # o*
 1198 265   7   0.4238  15.161886999468  16.456312999151  44.885626999131 # h*
 1199 265   7   0.4238  14.653086999613  14.887913000173  44.520726999197 # h*
 1200 265   6  -0.8476  15.387487000956  15.608513000108  44.358227000802 # o*
 1201 266   7   0.4238  21.952686998925   7.660962999227  45.480127004362 # h*
 1202 266   7   0.4238  20.792486999217   7.301692998994  46.496127001881 # h*
 1203 266   6  -0.8476  21.058087000103   7.242642999141  45.525426999266 # o*
 1204 267   7   0.4238  24.609320644856   9.969552999222  29.989727000012 # h*
 1205 267   7   0.4238   4.364256998991   8.670302999238  29.256027003842 # h*
 1206 267   6  -0.8476  24.145580645410   9.091822998787  29.748227001400 # o*
 1207 268   7   0.4238  12.675287000544  13.618213000344  44.843927002595 # h*
 1208 268   7   0.4238  13.898087000346  12.829212998873  44.355227004093 # h*
 1209 268   6  -0.8476  13.650687000048  13.747113000096  44.662227003253 # o*
 1210 269   7   0.4238  11.210687000932   5.812432999937  39.849527004499 # h*
 1211 269   7   0.4238  11.952087000575   4.390482999161  39.846826999931 # h*
 1212 269   6  -0.8476  12.120287000391   5.404363000455  40.051627002314 # o*
 1213 270   7   0.4238  18.741487000322   6.118132999770  54.745527002930 # h*
 1214 270   7   0.4238  19.000187000792   4.709103000173  54.562427001648 # h*
 1215 270   6  -0.8476  19.555287000152   5.557543000223  54.553526999248 # o*
 1216 271   7   0.4238   6.038376999563  11.608812999138  29.693826999681 # h*
 1217 271   7   0.4238  25.153310646291  11.501613000392  30.495427003033 # h*
 1218 271   6  -0.8476   5.419706999802  10.967512999840  30.164427001241 # o*
 1219 272   7   0.4238  13.943486999243   8.884692999240  32.165626999949 # h*
 1220 272   7   0.4238  15.265487000364   9.622252998932  31.608627002814 # h*
 1221 272   6  -0.8476  14.699687000491   8.773262999438  31.476627002817 # o*
 1222 273   7   0.4238  11.258286998962  11.087713000122  40.905527004475 # h*
 1223 273   7   0.4238  10.031187000172  10.121812999516  41.506127002434 # h*
 1224 273   6  -0.8476  10.994786999881  10.399313000362  41.603127000282 # o*
 1225 274   7   0.4238  19.967687000857  11.157413000512  34.383927003185 # h*
 1226 274   7   0.4238  20.592287000450  11.191912999371  32.878227002469 # h*
 1227 274   6  -0.8476  20.447886998748  11.737712998890  33.739927003024 # o*
 1228 275   7   0.4238   2.996696999086   1.344182999965  35.856927003283 # h*
 1229 275   7   0.4238  10.624687000669  18.393613000371  35.765927004645 # h*
 1230 275   6  -0.8476   3.142796999090   0.415936000188  36.273626999679 # o*
 1231 276   7   0.4238  24.607187000734  12.659113000456  57.276027004254 # h*
 1232 276   7   0.4238  23.188586999583  12.173113000199  56.829727003260 # h*
 1233 276   6  -0.8476  24.181387000356  11.876512999769  56.779127004323 # o*
 1234 277   7   0.4238   6.414196999299   1.035144000255  56.138827001840 # h*
 1235 277   7   0.4238  14.135387000656  17.978212999424  56.149427004113 # h*
 1236 277   6  -0.8476   6.668804341058   0.099718466556  55.879227000495 # o*
 1237 278   7   0.4238  22.233387000819  14.969213000475  41.820727001365 # h*
 1238 278   7   0.4238  23.214087000134  15.250312998860  42.979626999087 # h*
 1239 278   6  -0.8476  22.944186998805  14.512012999106  42.344527001327 # o*
 1240 279   7   0.4238  10.334787000085  14.522113000199  34.258027001709 # h*
 1241 279   7   0.4238  10.026986999270  15.930512999995  34.674627004587 # h*
 1242 279   6  -0.8476  10.007986999058  14.992813000234  35.080127002844 # o*
 1243 280   7   0.4238  21.235886999182  15.954912999620  52.324527000221 # h*
 1244 280   7   0.4238  20.122186999049  14.862812999737  52.258827001052 # h*
 1245 280   6  -0.8476  20.757287000054  15.346213000430  51.657026999775 # o*
 1246 281   7   0.4238   8.738187000147  16.236512998849  49.356327002369 # h*
 1247 281   7   0.4238   8.692056998941  15.203512999275  48.118727002362 # h*
 1248 281   6  -0.8476   8.592456999378  15.295312998746  49.126326999829 # o*
 1249 282   7   0.4238  14.890187000428  11.001813000592  38.319027000870 # h*
 1250 282   7   0.4238  14.192087000474  10.455212999349  36.992427000032 # h*
 1251 282   6  -0.8476  14.920686999788  11.086212999445  37.296727000415 # o*
 1252 283   7   0.4238  12.667286999882  18.428112999231  33.335327004359 # h*
 1253 283   7   0.4238   5.057396999370   1.033908999951  32.443527002650 # h*
 1254 283   6  -0.8476   4.464467000904   0.846166000414  33.267827000213 # o*
 1255 284   7   0.4238  19.296086999496  11.862212999380  54.188027003447 # h*
 1256 284   7   0.4238  17.798786999282  11.352713000277  54.649627003296 # h*
 1257 284   6  -0.8476  18.514586999609  11.266612998922  53.944027004682 # o*
 1258 285   7   0.4238   9.294227000314  18.037512999699  53.816827000577 # h*
 1259 285   7   0.4238   0.902646999207   1.028195999524  53.913327001869 # h*
 1260 285   6  -0.8476   0.521304341230   0.107118465315  54.215927002380 # o*
 1261 286   7   0.4238  23.723886999152  14.492112999656  32.769627003446 # h*
 1262 286   7   0.4238  22.549987000674  14.745912999831  31.696526999639 # h*
 1263 286   6  -0.8476  23.464987000093  15.101512999657  31.956326999607 # o*
 1264 287   7   0.4238  10.618887000033   1.553583000153  30.992227003653 # h*
 1265 287   7   0.4238  11.969986999209   0.810299998828  30.707227003528 # h*
 1266 287   6  -0.8476  10.964686999740   0.732801999245  30.509827002295 # o*
 1267 288   7   0.4238  15.017086999692  18.517413000050  54.060627000721 # h*
 1268 288   7   0.4238  14.447486999221  17.979713000102  52.599427000421 # h*
 1269 288   6  -0.8476  15.239087000289  18.379912999881  53.071327004609 # o*
 1270 289   7   0.4238  12.091486999999  11.922912999420  38.888127001528 # h*
 1271 289   7   0.4238  13.271286999310  11.905713000447  40.065827002954 # h*
 1272 289   6  -0.8476  12.278987000154  12.079312999206  39.899826999711 # o*
 1273 290   7   0.4238   5.618417000430   3.129272999488  50.090827004612 # h*
 1274 290   7   0.4238   4.241266999046   3.030373000279  50.903726999621 # h*
 1275 290   6  -0.8476   5.256316999152   2.826052999610  50.991727001550 # o*
 1276 291   7   0.4238   7.893737000323  10.860912999136  51.035327002374 # h*
 1277 291   7   0.4238   9.414747000299  10.360712999402  51.166827000023 # h*
 1278 291   6  -0.8476   8.624646999356  10.347312999792  50.521327004404 # o*
 1279 292   7   0.4238  18.412086999063   9.696082999465  53.574327003062 # h*
 1280 292   7   0.4238  17.550286998545   8.420952998781  54.030927002604 # h*
 1281 292   6  -0.8476  18.083087000415   8.800672999766  53.237827004408 # o*
 1282 293   7   0.4238   4.576117000042   9.494482999827  45.881727000526 # h*
 1283 293   7   0.4238   5.756336998636   9.679532998989  46.775327001418 # h*
 1284 293   6  -0.8476   5.546487000360   9.844543000397  45.808726999518 # o*
 1285 294   7   0.4238   7.056786999409   8.550502998889  56.889327003908 # h*
 1286 294   7   0.4238   6.676377000059   7.370502999811  57.909826999386 # h*
 1287 294   6  -0.8476   7.263717000005   8.192182999890  57.803227003961 # o*
 1288 295   7   0.4238  14.760187000513   8.069562999456  48.738127004024 # h*
 1289 295   7   0.4238  13.634687000127   7.692803000577  47.527327004736 # h*
 1290 295   6  -0.8476  14.251687000750   7.310942999765  48.257527001850 # o*
 1291 296   7   0.4238  15.451086999985   3.079482999755  52.171027003537 # h*
 1292 296   7   0.4238  16.616687000584   2.089232999980  52.328026999277 # h*
 1293 296   6  -0.8476  16.334386999657   2.994753000121  52.648627003210 # o*
 1294 297   7   0.4238  17.809786999853  10.366612999342  45.394927000520 # h*
 1295 297   7   0.4238  18.055786999211   9.520252999314  46.785927003691 # h*
 1296 297   6  -0.8476  17.821886998966   9.439802999334  45.801827000717 # o*
 1297 298   7   0.4238   9.457686998753   8.606522999342  32.788927003704 # h*
 1298 298   7   0.4238   8.074527000924   9.249593000294  32.161727003648 # h*
 1299 298   6  -0.8476   9.040117000158   9.440862998970  32.405127000755 # o*
 1300 299   7   0.4238  25.741987000620  17.285013000469  47.057827001390 # h*
 1301 299   7   0.4238  26.071086999299  15.701813000256  46.805627001194 # h*
 1302 299   6  -0.8476  25.349187000621  16.361513000184  47.035927001667 # o*
 1303 300   7   0.4238   6.133976999167  13.412713000431  42.558527004042 # h*
 1304 300   7   0.4238   6.936416999604  13.915412998815  43.948627001830 # h*
 1305 300   6  -0.8476   6.731077000820  13.123012999773  43.343127002875 # o*
 1306 301   7   0.4238   7.212226998949  13.633112998774  32.703627000551 # h*
 1307 301   7   0.4238   6.630607000409  12.480812999697  33.557627002023 # h*
 1308 301   6  -0.8476   6.509206999156  13.485613000283  33.455027002210 # o*
 1309 302   7   0.4238  14.386386999001  15.128212999825  30.375027004211 # h*
 1310 302   7   0.4238  13.345586998577  14.025012999017  30.228626999159 # h*
 1311 302   6  -0.8476  13.592086999729  14.751612999804  30.914427000960 # o*
 1312 303   7   0.4238   6.366396999392   5.292412999254  38.568727000913 # h*
 1313 303   7   0.4238   6.155636998977   4.074572999833  39.656727000537 # h*
 1314 303   6  -0.8476   5.931337000283   5.056323000104  39.453627003819 # o*
 1315 304   7   0.4238  12.215187001075   1.442293000514  50.981727000936 # h*
 1316 304   7   0.4238  11.790386999441   0.228975800375  50.135027001302 # h*
 1317 304   6  -0.8476  12.160987000188   1.181717998920  49.994026999594 # o*
 1318 305   7   0.4238   8.082157000579   9.432803000508  40.314927001338 # h*
 1319 305   7   0.4238   8.182136999578  10.021713000508  38.726926999970 # h*
 1320 305   6  -0.8476   8.467647000054   9.265263000547  39.360727000895 # o*
 1321 306   7   0.4238   6.195406999957   5.147382999512   0.218263000454 # h*
 1322 306   7   0.4238   4.674786999728   5.716322999052   0.220165003106 # h*
 1323 306   6  -0.8476   5.638747000490   5.933362999075  57.860327004456 # o*
 1324 307   7   0.4238  10.359286999728   1.305232999528   0.921496999383 # h*
 1325 307   7   0.4238  10.574287001052   1.890483000328  57.417427003207 # h*
 1326 307   6  -0.8476  11.113087000069   1.605193000138   0.358737003701 # o*
 1327 308   7   0.4238  22.166887000199  10.992512999364  48.346027000334 # h*
 1328 308   7   0.4238  21.902886999297   9.609072999842  49.134927004296 # h*
 1329 308   6  -0.8476  22.398387000097  10.019132999640  48.335427003853 # o*
 1330 309   7   0.4238  17.723486999859   2.316432999041  41.173727004495 # h*
 1331 309   7   0.4238  17.865487000124   3.136032999097  39.795927003061 # h*
 1332 309   6  -0.8476  17.179787000515   2.638282999418  40.380327002574 # o*
 1333 310   7   0.4238  22.941387000129   9.742402998758  46.776327000321 # h*
 1334 310   7   0.4238  23.125686999754   9.629632998995  45.057427002963 # h*
 1335 310   6  -0.8476  23.465687000665   9.330213000339  45.974627003451 # o*
 1336 311   7   0.4238   5.596136998958   8.056092998835  47.960427003993 # h*
 1337 311   7   0.4238   4.504507000390   6.872893000294  48.432627000323 # h*
 1338 311   6  -0.8476   5.456957000208   7.060063000587  48.134527003564 # o*
 1339 312   7   0.4238  23.600287000121  16.076412998755  38.750227001633 # h*
 1340 312   7   0.4238  24.409886999170  16.917412998938  37.638527003102 # h*
 1341 312   6  -0.8476  24.056287000122  16.986813000307  38.600727000561 # o*
 1342 313   7   0.4238  10.514487000705   8.891842999435  26.260727001545 # h*
 1343 313   7   0.4238   9.219436999390   8.143462999141  26.063426999623 # h*
 1344 313   6  -0.8476   9.524677000096   9.064013000385  26.410827004276 # o*
 1345 314   7   0.4238  10.250086999768  10.872312999082  37.583227001791 # h*
 1346 314   7   0.4238  11.534786999353  10.489212999222  36.901227002772 # h*
 1347 314   6  -0.8476  11.178687000118  11.249412999948  37.455827004857 # o*
 1348 315   7   0.4238  20.948486999772   8.664542999461  42.821627004444 # h*
 1349 315   7   0.4238  21.251186999848   7.247073000164  43.378427002957 # h*
 1350 315   6  -0.8476  21.169587000543   7.730892999485  42.512627001687 # o*
 1351 316   7   0.4238  18.315486999257   8.387103000277  41.919727002811 # h*
 1352 316   7   0.4238  17.493287000478   9.108062999037  40.833427003059 # h*
 1353 316   6  -0.8476  18.166287000127   9.338832999451  41.556827000682 # o*
 1354 317   7   0.4238  17.876686999794  14.004512999668   0.286618999629 # h*
 1355 317   7   0.4238  19.363486999960  14.770013000435   0.559737999588 # h*
 1356 317   6  -0.8476  18.782386999900  13.927112999641   0.751077002263 # o*
 1357 318   7   0.4238  23.465987000856  10.909913000209  42.375627001383 # h*
 1358 318   7   0.4238  24.773187000547  11.684012999534  41.845426999175 # h*
 1359 318   6  -0.8476  23.915286999228  11.287212999184  41.522327000880 # o*
 1360 319   7   0.4238  12.434086998973   5.354702999678  56.730127000155 # h*
 1361 319   7   0.4238  11.967487000322   6.373583000133  55.725827003122 # h*
 1362 319   6  -0.8476  12.560886999572   5.568913000268  55.758627003051 # o*
 1363 320   7   0.4238  19.757587000291  16.490212999970  39.732227001698 # h*
 1364 320   7   0.4238  20.677286999732  17.851512999303  39.375627002505 # h*
 1365 320   6  -0.8476  19.943887000958  17.446513000328  39.973927004725 # o*
 1366 321   7   0.4238  14.102086999914   2.172643000207  34.834927000761 # h*
 1367 321   7   0.4238  13.269186999654   2.209672999479  36.144527002873 # h*
 1368 321   6  -0.8476  13.578086999693   1.533722999953  35.434727004232 # o*
 1369 322   7   0.4238  19.663387000516  18.005912999424  30.032127003311 # h*
 1370 322   7   0.4238  20.488287000000  16.588813000158  30.432527001950 # h*
 1371 322   6  -0.8476  20.133087000300  17.148713000099  29.686527003635 # o*
 1372 323   7   0.4238  23.087986999938  17.173312999690  28.232827003795 # h*
 1373 323   7   0.4238  21.459087000572  17.097712999361  28.632427002154 # h*
 1374 323   6  -0.8476  22.154886999547  17.009912999220  27.870727001947 # o*
 1375 324   7   0.4238  10.499486999105  12.316913000240  44.566627001552 # h*
 1376 324   7   0.4238  10.878286999946  13.561112999700  43.527227003059 # h*
 1377 324   6  -0.8476  10.570486999397  13.306912999592  44.467726999417 # o*
 1378 325   7   0.4238  11.713187000385  12.562212999053  32.901227000406 # h*
 1379 325   7   0.4238  11.623586999362  12.900112999061  34.593427002149 # h*
 1380 325   6  -0.8476  11.193187000821  13.011012999974  33.673827000818 # o*
 1381 326   7   0.4238  13.162787000361  11.651812999359  31.125827004212 # h*
 1382 326   7   0.4238  14.108687000569  12.291012999938  32.287527000021 # h*
 1383 326   6  -0.8476  13.174387000380  11.887912999715  32.135227000862 # o*
 1384 327   7   0.4238  10.323986998941  17.933012999572  46.768026999580 # h*
 1385 327   7   0.4238  11.721586999492  17.474613000261  46.051726999381 # h*
 1386 327   6  -0.8476  11.229986999472  17.556313000496  46.955526999510 # o*
 1387 328   7   0.4238   7.512216999577   3.933352998802  29.316427004771 # h*
 1388 328   7   0.4238   7.665317000172   5.415313000012  29.955326999521 # h*
 1389 328   6  -0.8476   8.017107000019   4.467833000591  30.015527001828 # o*
 1390 329   7   0.4238   8.599266998657  16.740612998857  27.610627004046 # h*
 1391 329   7   0.4238   7.863397000882  17.726312999859  28.714727002806 # h*
 1392 329   6  -0.8476   8.465377000179  17.689313000490  27.897126999630 # o*
 1393 330   7   0.4238  16.192687000232   8.105472999287  36.173127002775 # h*
 1394 330   7   0.4238  15.989187000054   8.050053000591  37.754527003275 # h*
 1395 330   6  -0.8476  16.298086999779   7.490462999019  36.959327002169 # o*
 1396 331   7   0.4238   3.996456999440   5.895972999120  27.820227002321 # h*
 1397 331   7   0.4238   3.358826999964   6.352203000560  26.550627002666 # h*
 1398 331   6  -0.8476   4.257637000454   6.048163000262  26.864027004072 # o*
 1399 332   7   0.4238   7.329976999261   8.886183000570  48.588027001293 # h*
 1400 332   7   0.4238   6.304797000914  10.062553000349  49.103827004239 # h*
 1401 332   6  -0.8476   6.570936999607   9.528382998787  48.291127002059 # o*
 1402 333   7   0.4238  23.977290646759   8.185363000476  33.710126999804 # h*
 1403 333   7   0.4238   3.171256998821   6.528452999339  33.851127001512 # h*
 1404 333   6  -0.8476   3.814307000338   7.265313000078  33.495927004258 # o*
 1405 334   7   0.4238   9.405986999333   4.510353000521  44.268727003415 # h*
 1406 334   7   0.4238   8.925486999618   5.229262999160  42.942427000510 # h*
 1407 334   6  -0.8476   9.754386999363   4.846642999591  43.350326999610 # o*
 1408 335   7   0.4238  23.990386999622  14.485412999850  48.964627001715 # h*
 1409 335   7   0.4238  24.315686999118  15.809612998901  48.223426999292 # h*
 1410 335   6  -0.8476  23.602286999490  15.411813000577  48.845827003455 # o*
 1411 336   7   0.4238  24.494310646002  10.622313000128  34.556927004541 # h*
 1412 336   7   0.4238  23.731787000408  10.772413000041  33.097527003425 # h*
 1413 336   6  -0.8476  23.943387000955  10.127013000502  33.846627003553 # o*
 1414 337   7   0.4238  12.442086998754   9.404582999109  33.718027003301 # h*
 1415 337   7   0.4238  12.351587000049  10.396512998973  32.435727004256 # h*
 1416 337   6  -0.8476  12.323287000686   9.416563000258  32.692527001723 # o*
 1417 338   7   0.4238  12.861586998461   5.076232998902  44.863027004231 # h*
 1418 338   7   0.4238  14.363887000175   5.547083000305  45.351326999696 # h*
 1419 338   6  -0.8476  13.656686999057   4.815232999934  45.423127003178 # o*
 1420 339   7   0.4238  11.254386999270   8.429533000501  55.363926999897 # h*
 1421 339   7   0.4238  11.332886998939   8.391732999408  56.907727004574 # h*
 1422 339   6  -0.8476  10.967686999312   7.821682999775  56.156927004574 # o*
 1423 340   7   0.4238   1.330626999604   1.000600999182  47.016527002097 # h*
 1424 340   7   0.4238   1.083287000542   0.931217999120  45.406527001695 # h*
 1425 340   6  -0.8476   1.021497000411   0.417024000229  46.275127001052 # o*
 1426 341   7   0.4238  20.937786999152  11.406412999634  57.594427000175 # h*
 1427 341   7   0.4238  21.242687000689  10.226213000589  56.723827003012 # h*
 1428 341   6  -0.8476  21.628687000549  11.153713000203  56.892827002964 # o*
 1429 342   7   0.4238   9.550177000750   6.632173000155  33.692327000796 # h*
 1430 342   7   0.4238   9.020897000767   5.985532999709  34.947227003255 # h*
 1431 342   6  -0.8476   8.651426999020   6.375722999960  34.118726999874 # o*
 1432 343   7   0.4238  18.136486999460   6.250772999081  41.466627002325 # h*
 1433 343   7   0.4238  16.675086999518   6.229242999997  42.137527002516 # h*
 1434 343   6  -0.8476  17.618986999303   6.598892999790  42.240927002610 # o*
 1435 344   7   0.4238  19.586286999150  15.545112999592  28.887127002503 # h*
 1436 344   7   0.4238  18.430186998927  15.637912998894  27.771727000501 # h*
 1437 344   6  -0.8476  18.895086999441  14.967612998886  28.391627004511 # o*
 1438 345   7   0.4238   6.522957000276   2.331892999979  47.336027002024 # h*
 1439 345   7   0.4238   5.315716999188   2.299713000359  46.398527002375 # h*
 1440 345   6  -0.8476   6.148407000400   1.772152998896  46.555927001151 # o*
 1441 346   7   0.4238   9.400906999800  10.257412999073  31.158027002482 # h*
 1442 346   7   0.4238   9.112267000302  10.283013000355  29.550627001545 # h*
 1443 346   6  -0.8476   9.572317000341  10.815213000296  30.313827003002 # o*
 1444 347   7   0.4238  13.047887000237   3.423552998821  45.896427003514 # h*
 1445 347   7   0.4238  13.502287000459   1.866012999694  45.920127002421 # h*
 1446 347   6  -0.8476  12.752387000791   2.480593000127  46.210626999408 # o*
 1447 348   7   0.4238   8.791026998940   1.648922999215  34.221027001754 # h*
 1448 348   7   0.4238   7.741297000237   2.322672999110  33.375627004748 # h*
 1449 348   6  -0.8476   7.869926998487   1.444312998874  33.876227002358 # o*
 1450 349   7   0.4238  16.517687000068   9.397962999661  49.027427003486 # h*
 1451 349   7   0.4238  15.362686999292   9.707542999215  50.167027000950 # h*
 1452 349   6  -0.8476  15.521887000318   9.566532999357  49.160227003764 # o*
 1453 350   7   0.4238  21.879787000917  14.002712999970  50.676927003997 # h*
 1454 350   7   0.4238  22.114786999863  13.009712999262  49.504127003568 # h*
 1455 350   6  -0.8476  22.063786999365  13.014113000383  50.515527003816 # o*
 1456 351   7   0.4238   8.157676999092  12.244613000287  37.562627004696 # h*
 1457 351   7   0.4238   7.608446999460  10.914112999505  36.740927000805 # h*
 1458 351   6  -0.8476   8.277137000515  11.235613000405  37.430227001663 # o*
 1459 352   7   0.4238   7.483326999533   5.451243000397  52.572227002457 # h*
 1460 352   7   0.4238   7.818246998863   4.101482999315  53.266027001274 # h*
 1461 352   6  -0.8476   8.053936999255   5.080803000086  53.330226999193 # o*
 1462 353   7   0.4238   3.309577000970   4.019483000059  28.652827000626 # h*
 1463 353   7   0.4238   2.769026999099   4.712382999994  29.985727004400 # h*
 1464 353   6  -0.8476   2.999926999539   4.920912999306  29.010527003826 # o*
 1465 354   7   0.4238  10.974387000249   5.728062999128  47.655727000573 # h*
 1466 354   7   0.4238  11.906587000354   4.781812999407  48.683727002305 # h*
 1467 354   6  -0.8476  11.143687000195   5.507503000068  48.644626999440 # o*
 1468 355   7   0.4238   6.766267000219  14.926512999275  34.125526999364 # h*
 1469 355   7   0.4238   7.821177000800  15.483913000564  35.149927002729 # h*
 1470 355   6  -0.8476   6.963767000198  15.761212999586  34.689927003441 # o*
 1471 356   7   0.4238  27.958586998601  18.389212999251  46.765727003841 # h*
 1472 356   7   0.4238  18.761404340593   0.377918466356  47.747827003217 # h*
 1473 356   6  -0.8476  26.961086999426  18.534712999936  46.843127003497 # o*
 1474 357   7   0.4238   6.748587000703   1.952553000232  44.811127002666 # h*
 1475 357   7   0.4238   7.757636999679   1.894892998938  43.451427003965 # h*
 1476 357   6  -0.8476   6.832096999628   2.148103000420  43.829827003570 # o*
 1477 358   7   0.4238  13.090186999318   2.636402999362  53.137227002401 # h*
 1478 358   7   0.4238  11.806986999506   1.628152998889  53.164927002712 # h*
 1479 358   6  -0.8476  12.808286999596   1.666612999686  53.036527001082 # o*
 1480 359   7   0.4238  23.276186998578   8.588292998776  27.924227004074 # h*
 1481 359   7   0.4238  22.953386998874   9.583122999084  26.672126999702 # h*
 1482 359   6  -0.8476  22.683986999518   8.702672999477  27.112927003834 # o*
 1483 360   7   0.4238  17.076587000480   0.600631999019  57.209426999701 # h*
 1484 360   7   0.4238  16.164186999631   0.490557998879  56.015027003274 # h*
 1485 360   6  -0.8476  17.152587000801   0.371098000517  56.237627004664 # o*
 1486 361   7   0.4238  14.890386998955   4.796423000023  27.430427000163 # h*
 1487 361   7   0.4238  15.861886999787   3.703693000339  28.030427002255 # h*
 1488 361   6  -0.8476  14.882587000110   3.962113000297  28.029427003352 # o*
 1489 362   7   0.4238  13.311486998819  14.339112999300  57.835227003610 # h*
 1490 362   7   0.4238  12.325786999350  13.573813000357  56.851326999257 # h*
 1491 362   6  -0.8476  12.804387000941  13.465212999988  57.744226999180 # o*
 1492 363   7   0.4238  20.299487000598   5.480582999379  29.294027002700 # h*
 1493 363   7   0.4238  20.580286999538   5.802563000570  27.665327003698 # h*
 1494 363   6  -0.8476  20.462587000394   6.222892999668  28.607327001307 # o*
 1495 364   7   0.4238   5.162637000675   1.206533000286  51.115127002872 # h*
 1496 364   7   0.4238   3.844016998850   0.323452999355  51.150727000888 # h*
 1497 364   6  -0.8476   4.832656999049   0.275898899161  51.357427001766 # o*
 1498 365   7   0.4238   5.730196999012   4.535042999818  32.714726999379 # h*
 1499 365   7   0.4238   4.377147000958   5.431893000391  32.915027003802 # h*
 1500 365   6  -0.8476   4.811257001025   4.714203000246  32.359827000059 # o*
 1501 366   7   0.4238  15.155186998774  18.316312999398  28.012927001180 # h*
 1502 366   7   0.4238  15.345386999833  17.528112999651  29.309027003621 # h*
 1503 366   6  -0.8476  14.667886999321  17.595512999497  28.536827000453 # o*
 1504 367   7   0.4238  20.537213645779   0.559181000183  42.775027001119 # h*
 1505 367   7   0.4238  20.592986999668   1.984443000180  42.077426999520 # h*
 1506 367   6  -0.8476   0.664177000032   1.280212999450  42.438926999710 # o*
 1507 368   7   0.4238  27.419380645790  16.511312999219  32.813827000136 # h*
 1508 368   7   0.4238   8.116247000035  17.282113000026  31.939526999502 # h*
 1509 368   6  -0.8476  27.650270645332  17.239312999771  32.155127002780 # o*
 1510 369   7   0.4238  20.681586999299   7.681633000499  37.160327001770 # h*
 1511 369   7   0.4238  20.730586999620   7.962032999930  38.667127000700 # h*
 1512 369   6  -0.8476  20.384286999299   8.397933000226  37.803627000961 # o*
 1513 370   7   0.4238  10.752686999117   3.484012999645  34.552727004515 # h*
 1514 370   7   0.4238  10.935587000464   2.909272999219  33.181627003261 # h*
 1515 370   6  -0.8476  10.483087000141   2.629773000567  34.051027002899 # o*
 1516 371   7   0.4238   8.153906999814  14.345113000152  39.086826999598 # h*
 1517 371   7   0.4238   9.493236999444  14.249712999427  38.415227004229 # h*
 1518 371   6  -0.8476   8.669936999417  13.714113000056  38.500327002968 # o*
 1519 372   7   0.4238  16.377186999567   3.353892999540  37.225326999969 # h*
 1520 372   7   0.4238  17.215687000887   3.871352999909  35.903827004541 # h*
 1521 372   6  -0.8476  16.918086999366   3.055623000226  36.416827003608 # o*
 1522 373   7   0.4238  18.945286999933   5.044732999539  26.301127001246 # h*
 1523 373   7   0.4238  17.601787000242   4.412402998830  26.517827002737 # h*
 1524 373   6  -0.8476  18.010286999808   5.344552999987  26.498527002479 # o*
 1525 374   7   0.4238  12.537386999465   9.717703000113  29.511927001717 # h*
 1526 374   7   0.4238  11.388587001022  10.619713000564  30.167527003053 # h*
 1527 374   6  -0.8476  12.383786999412  10.618412999853  29.982827001210 # o*
 1528 375   7   0.4238  17.555986999143   7.479703000080  50.370527000704 # h*
 1529 375   7   0.4238  18.369687000759   8.474372999671  51.229727001106 # h*
 1530 375   6  -0.8476  18.200886999916   8.237622998959  50.253127004384 # o*
 1531 376   7   0.4238  23.120986999881  10.971813000048  52.738627002945 # h*
 1532 376   7   0.4238  22.863787000653  11.758413000064  51.315527000814 # h*
 1533 376   6  -0.8476  23.462786999798  11.067312999827  51.779127004261 # o*
 1534 377   7   0.4238  19.517286999204   0.252483299196  50.106427001399 # h*
 1535 377   7   0.4238  27.465386999510  18.051413000156  51.379727004525 # h*
 1536 377   6  -0.8476  28.232200645827  18.297712998801  50.758127000643 # o*
 1537 378   7   0.4238  17.558986998910   3.148462998778  54.113726999811 # h*
 1538 378   7   0.4238  17.654686999000   2.104372999485  55.268827000544 # h*
 1539 378   6  -0.8476  17.786287001103   3.060293000464  55.109226999547 # o*
 1540 379   7   0.4238  13.124286999500  10.903013000437  48.465127002319 # h*
 1541 379   7   0.4238  14.566586999400  10.454412999483  47.868127002727 # h*
 1542 379   6  -0.8476  13.669386998904  10.903712999391  47.632627003325 # o*
 1543 380   7   0.4238  16.438286999675  15.745213000411  43.099227003420 # h*
 1544 380   7   0.4238  17.912986999690  15.953812998875  42.880326999708 # h*
 1545 380   6  -0.8476  17.136987000331  15.602512999256  42.369627002173 # o*
 1546 381   7   0.4238  12.086186999327   3.399363000369  31.092926999179 # h*
 1547 381   7   0.4238  10.692787000383   4.088542999441  31.588627001586 # h*
 1548 381   6  -0.8476  11.183086998899   3.185762999027  31.479427000904 # o*
 1549 382   7   0.4238   9.789986999916  10.859512999370  46.578727000466 # h*
 1550 382   7   0.4238   8.517786998931  11.389712999647  47.290427003394 # h*
 1551 382   6  -0.8476   9.461357000050  11.705812999594  47.022627000618 # o*
 1552 383   7   0.4238  17.153286999709  10.504512999443  27.136127000393 # h*
 1553 383   7   0.4238  18.366487000027   9.644263000165  27.245027003142 # h*
 1554 383   6  -0.8476  17.540287000737   9.830183000203  27.806527004029 # o*
 1555 384   7   0.4238  19.608986999121   8.280142998889  56.348627004530 # h*
 1556 384   7   0.4238  20.992486999448   8.116203000182  55.527926999542 # h*
 1557 384   6  -0.8476  20.581387000584   8.552733000280  56.366627002160 # o*
 1558 385   7   0.4238  16.942986999206  17.913912999987  36.405427001054 # h*
 1559 385   7   0.4238  15.450886999585  17.406312999637  36.819127000742 # h*
 1560 385   6  -0.8476  16.378187000058  17.076312999234  36.570027002358 # o*
 1561 386   7   0.4238  23.260386998765  17.155712998925  49.601127001415 # h*
 1562 386   7   0.4238  21.980187001011  17.545313000483  50.442527002809 # h*
 1563 386   6  -0.8476  22.819686998624  17.941912999008  50.062126999605 # o*
 1564 387   7   0.4238   8.531456999803   9.402782999410  27.705426999674 # h*
 1565 387   7   0.4238   7.021297000191   9.920863000233  27.888327002333 # h*
 1566 387   6  -0.8476   7.783306999918   9.503423000371  28.400527001119 # o*
 1567 388   7   0.4238  16.745186999518  12.579912998872  44.711727003976 # h*
 1568 388   7   0.4238  17.280486999802  11.765712999769  43.677927001656 # h*
 1569 388   6  -0.8476  16.614086999185  11.611413000560  44.421927002165 # o*
 1570 389   7   0.4238  18.703587000833  10.016503000174  49.215827003008 # h*
 1571 389   7   0.4238  18.559286999800  11.131012999364  48.029427003597 # h*
 1572 389   6  -0.8476  18.333586998980  10.170742999579  48.309126999689 # o*
 1573 390   7   0.4238  23.484020644984   7.429442999404  50.158227003654 # h*
 1574 390   7   0.4238  22.959686999442   7.728652998746  48.644626999440 # h*
 1575 390   6  -0.8476  23.548770646020   7.101782998793  49.176727000143 # o*
 1576 391   7   0.4238  25.672286999812  18.552712998775  35.799927002099 # h*
 1577 391   7   0.4238  17.078086999082   1.475613000129  35.630927002147 # h*
 1578 391   6  -0.8476  17.669886998553   0.768571998914  35.191827003680 # o*
 1579 392   7   0.4238  24.919290644745  10.562912998940  50.851626999434 # h*
 1580 392   7   0.4238   5.881287000449  10.815413000262  51.228927000825 # h*
 1581 392   6  -0.8476   5.284917000028  10.802212998760  50.430227000663 # o*
 1582 393   7   0.4238   7.093447000160  14.146412999098  54.236927002511 # h*
 1583 393   7   0.4238   6.884097000060  15.262412999618  55.402427001103 # h*
 1584 393   6  -0.8476   6.762936998832  14.282512999501  55.180927003719 # o*
 1585 394   7   0.4238  16.302187000087  17.807613000162  46.328427004557 # h*
 1586 394   7   0.4238  17.042387000038  17.544212999738  47.771627001435 # h*
 1587 394   6  -0.8476  17.227686999783  17.821612999672  46.788727001778 # o*
 1588 395   7   0.4238   9.520837000098   3.258252999598  46.250827000487 # h*
 1589 395   7   0.4238   8.541116998742   4.528782999195  46.375727003060 # h*
 1590 395   6  -0.8476   9.141467000811   4.022843000239  45.707127004400 # o*
 1591 396   7   0.4238  10.113086999068   4.146822999330  48.918227002804 # h*
 1592 396   7   0.4238  10.061087000080   2.700253000268  48.356727001918 # h*
 1593 396   6  -0.8476   9.721186999965   3.240302999357  49.139026999218 # o*
 1594 397   7   0.4238  10.177287000479   6.358673000497  29.330327001686 # h*
 1595 397   7   0.4238  11.270586999477   5.351082999728  29.536227002282 # h*
 1596 397   6  -0.8476  10.870486999322   6.147182999079  30.021527001038 # o*
 1597 398   7   0.4238  13.909286998947   4.990022999144  30.384827000411 # h*
 1598 398   7   0.4238  14.236386998738   3.810462999250  29.543326999706 # h*
 1599 398   6  -0.8476  13.685686999519   4.013512999109  30.355027002983 # o*
 1600 399   7   0.4238   9.513636998562   7.832382998910  39.715726999526 # h*
 1601 399   7   0.4238   9.138376999497   6.385162999492  40.439127002941 # h*
 1602 399   6  -0.8476   9.824386999466   6.871523000431  39.833227000950 # o*
 1603 400   7   0.4238  10.910287000450  13.380212999377  50.554826999511 # h*
 1604 400   7   0.4238   9.335757000201  13.299312999008  50.959727001902 # h*
 1605 400   6  -0.8476  10.276086999920  13.302212999451  51.365827001818 # o*
 1606 401   7   0.4238   2.255077000128   4.309002999447  51.542027004298 # h*
 1607 401   7   0.4238   2.508266999451   3.840802999922  50.021427001972 # h*
 1608 401   6  -0.8476   2.497906999362   3.503072999979  50.984627004126 # o*
 1609 402   7   0.4238   2.350096999555   2.316243000281  52.562526999776 # h*
 1610 402   7   0.4238   2.556137000048   2.438953000421  54.066726999242 # h*
 1611 402   6  -0.8476   1.819817000849   2.171903000145  53.411827004667 # o*
 1612 403   7   0.4238  11.283887000253   9.586162999689  35.267327004841 # h*
 1613 403   7   0.4238  11.965986998970   8.821562999700  36.500626999718 # h*
 1614 403   6  -0.8476  12.221787000478   9.448472998902  35.737226999639 # o*
 1615 404   7   0.4238  21.329100644545   2.243412999581  57.454926999717 # h*
 1616 404   7   0.4238   0.775846998919   0.986017999221  56.380227001142 # h*
 1617 404   6  -0.8476  20.986856645906   1.284352998942  57.268527003794 # o*
 1618 405   7   0.4238   1.964386999840   2.156713000184  30.721127000443 # h*
 1619 405   7   0.4238   1.197566999219   0.961467000337  29.936127004366 # h*
 1620 405   6  -0.8476   1.031967000512   1.807622999545  30.449726999299 # o*
 1621 406   7   0.4238  13.792386999401   5.869412999115  39.880427000141 # h*
 1622 406   7   0.4238  14.815186999486   6.464532999281  40.963027002214 # h*
 1623 406   6  -0.8476  14.703186999231   6.325182998959  39.987427004395 # o*
 1624 407   7   0.4238  12.750186999800   5.712872999167  27.173527003385 # h*
 1625 407   7   0.4238  12.184286999297   6.755662999607  26.086427003353 # h*
 1626 407   6  -0.8476  12.077086999898   5.823662999819  26.464127001988 # o*
 1627 408   7   0.4238  10.024987000064  15.136112999429  46.142427000086 # h*
 1628 408   7   0.4238   9.167906999651  13.717712999452  46.397827001405 # h*
 1629 408   6  -0.8476   9.183826998943  14.722612999093  46.522627004667 # o*
 1630 409   7   0.4238  15.188187000382  13.046713000490  33.597227001443 # h*
 1631 409   7   0.4238  15.945686999749  13.788212999707  32.489727002939 # h*
 1632 409   6  -0.8476  15.599687000930  12.871913000074  32.673827003123 # o*
 1633 410   7   0.4238  11.485587000254  18.436312999714  41.901726999388 # h*
 1634 410   7   0.4238   1.958236999413   0.370466999108  42.631127002013 # h*
 1635 410   6  -0.8476  10.786587000116  18.174412999968  42.612427003414 # o*
 1636 411   7   0.4238  21.122086999493   7.305923000050  32.650327002838 # h*
 1637 411   7   0.4238  21.020986999509   7.949592999043  34.094227000686 # h*
 1638 411   6  -0.8476  20.450886999680   7.632223000145  33.299727000550 # o*
 1639 412   7   0.4238  22.054187000781   7.468923000587  53.367627002185 # h*
 1640 412   7   0.4238  20.757086999549   6.752842999522  54.064627002125 # h*
 1641 412   6  -0.8476  21.533986999479   7.424043000309  54.237427004859 # o*
 1642 413   7   0.4238  11.418487000988  18.248613000532  27.666127003979 # h*
 1643 413   7   0.4238   9.960286998922  18.382312999479  28.182126999755 # h*
 1644 413   6  -0.8476  10.912487000131  18.545812999003  28.499427003254 # o*
 1645 414   7   0.4238  18.026386999512  10.520012999631  29.363027002304 # h*
 1646 414   7   0.4238  19.184986999083  11.667112999581  29.514726999803 # h*
 1647 414   6  -0.8476  18.473387000256  11.146813000431  30.048727004794 # o*
 1648 415   7   0.4238   5.684186999094   8.220712999658  40.634327001954 # h*
 1649 415   7   0.4238   5.767706999504   6.648983000402  40.303727003199 # h*
 1650 415   6  -0.8476   5.743436999153   7.304242999960  41.072227002896 # o*
 1651 416   7   0.4238  16.582086999383   9.496092998906  33.769227003897 # h*
 1652 416   7   0.4238  17.496786998522   8.193762999068  33.733927003814 # h*
 1653 416   6  -0.8476  16.883887000509   8.723323000195  34.341626999197 # o*
 1654 417   7   0.4238  23.792486999814  16.819512999562  31.660426999276 # h*
 1655 417   7   0.4238  23.548586999811  17.847512999974  32.565127004789 # h*
 1656 417   6  -0.8476  23.786687000227  17.825212999068  31.584627000182 # o*
 1657 418   7   0.4238  13.431686999598  14.754812999267  24.587026999780 # h*
 1658 418   7   0.4238  13.598586998737  14.111612999359  26.009227002319 # h*
 1659 418   6  -0.8476  12.876587000845  14.254113000547  25.271426999641 # o*
 1660 419   7   0.4238  10.482687000837   1.409872999818  35.278427003669 # h*
 1661 419   7   0.4238  18.687586999336  18.479512999902  35.993527000550 # h*
 1662 419   6  -0.8476  10.078686999843   0.749943999771  35.934527001561 # o*
 1663 420   7   0.4238  16.223186999817  16.146712999043  32.791427003858 # h*
 1664 420   7   0.4238  17.402886999749  15.169112999470  32.403327001572 # h*
 1665 420   6  -0.8476  16.524986999939  15.502312999337  32.040727003168 # o*
 1666 421   7   0.4238  21.995487000201   8.546542998810  51.255627002233 # h*
 1667 421   7   0.4238  23.398286998459   9.051042998751  51.895327003056 # h*
 1668 421   6  -0.8476  22.870587000131   8.184232999830  51.664727004650 # o*
 1669 422   7   0.4238  13.591486999189   1.671072998753  31.376327004535 # h*
 1670 422   7   0.4238  14.401804339565   0.276818465658  31.057827003511 # h*
 1671 422   6  -0.8476  13.511986999580   0.755838999107  30.935427001092 # o*
 1672 423   7   0.4238  16.183187000491  14.999412999127  30.499927000992 # h*
 1673 423   7   0.4238  16.989386999858  14.309812999568  29.181826999517 # h*
 1674 423   6  -0.8476  16.102287000116  14.573612999924  29.581027000631 # o*
 1675 424   7   0.4238  22.469287000234  18.086212999894  38.180227001382 # h*
 1676 424   7   0.4238  21.630869660029  18.582694533695  36.900527001802 # h*
 1677 424   6  -0.8476  21.520486999306  18.338112999459  37.884827003399 # o*
 1678 425   7   0.4238  18.375087000081  17.029512999649  49.522827002167 # h*
 1679 425   7   0.4238  19.697586998922  16.429812998950  50.231327003972 # h*
 1680 425   6  -0.8476  19.362686998785  17.189512998832  49.680127001633 # o*
 1681 426   7   0.4238  12.696787000226   8.464352998936  45.252126999628 # h*
 1682 426   7   0.4238  12.203487001072   7.183973000526  46.222627003621 # h*
 1683 426   6  -0.8476  12.978787001082   7.788443000518  45.972827004267 # o*
 1684 427   7   0.4238  16.154287000376  12.083012999515  36.685327001561 # h*
 1685 427   7   0.4238  17.712186999045  12.122712999360  36.033427003696 # h*
 1686 427   6  -0.8476  16.885587000239  12.679712998859  36.293826999530 # o*
 1687 428   7   0.4238   9.624607000611   5.356552999832  36.902526999608 # h*
 1688 428   7   0.4238   8.377006999566   6.227202999224  37.321427004017 # h*
 1689 428   6  -0.8476   8.630777000762   5.288523000185  36.975127003371 # o*
 1690 429   7   0.4238  27.894370644851  16.880412999569  39.260826999857 # h*
 1691 429   7   0.4238   8.450556998669  16.117012999379  40.183427003689 # h*
 1692 429   6  -0.8476   7.462146998730  16.058312999003  39.903927000426 # o*
 1693 430   7   0.4238  10.802987000464   7.144193000322  38.486327000950 # h*
 1694 430   7   0.4238  11.448886999310   6.611883000120  37.001327002432 # h*
 1695 430   6  -0.8476  11.181286999633   7.434142999544  37.576427002300 # o*
 1696 431   7   0.4238  18.005486999809   6.079683000179  43.658127004842 # h*
 1697 431   7   0.4238  17.307086998813   5.826832999380  44.861027000633 # h*
 1698 431   6  -0.8476  18.153387000304   5.446823000581  44.432627003749 # o*
 1699 432   7   0.4238   6.876346999866  12.787712999329  52.067727002754 # h*
 1700 432   7   0.4238   7.903807000253  11.923912999253  52.954326999741 # h*
 1701 432   6  -0.8476   7.135396998741  11.841612999118  52.314526999607 # o*
 1702 433   7   0.4238  19.349087000387  17.337313000060  55.639427001755 # h*
 1703 433   7   0.4238  18.348986998890  18.064112998955  54.634327004442 # h*
 1704 433   6  -0.8476  18.392586998882  17.267212999737  55.284126999398 # o*
 1705 434   7   0.4238   8.210426999332   6.785603000346  48.279127003639 # h*
 1706 434   7   0.4238   7.062586999475   6.438322998753  47.553827001730 # h*
 1707 434   6  -0.8476   7.916077000412   5.957793000459  47.766826999750 # o*
 1708 435   7   0.4238  16.399087000144  12.677312999261  50.918327003298 # h*
 1709 435   7   0.4238  16.939986999408  11.622212998749  52.007027003892 # h*
 1710 435   6  -0.8476  16.075687000062  12.023413000219  51.652127004572 # o*
 1711 436   7   0.4238   9.598387000131   1.291122999758  52.780727002518 # h*
 1712 436   7   0.4238   8.772406999812   0.193877358846  53.513727003511 # h*
 1713 436   6  -0.8476   9.622747000011   0.747718998983  53.641627002793 # o*
 1714 437   7   0.4238  23.002287000065  12.484812999026  31.349727002438 # h*
 1715 437   7   0.4238  24.190686998918  12.729412998886  32.328927004417 # h*
 1716 437   6  -0.8476  23.836386999301  12.004713000568  31.742927004342 # o*
 1717 438   7   0.4238  10.826187000029  17.719712999108  52.198027002878 # h*
 1718 438   7   0.4238  11.305086999710  16.365712999480  53.029327004347 # h*
 1719 438   6  -0.8476  10.817086998842  17.258412999355  53.130527002221 # o*
 1720 439   7   0.4238  22.481086999914  11.595012999594  38.976827004427 # h*
 1721 439   7   0.4238  23.641986999537  12.040913000071  39.951227004721 # h*
 1722 439   6  -0.8476  23.282786999627  12.220412998770  39.020727003184 # o*
 1723 440   7   0.4238  14.325186999892   3.788963000068  37.504927002543 # h*
 1724 440   7   0.4238  13.011687000193   3.215753000222  38.144326999641 # h*
 1725 440   6  -0.8476  13.366287000348   3.586993000399  37.262027001991 # o*
 1726 441   7   0.4238  11.012186998882  10.521012999463  43.292427004627 # h*
 1727 441   7   0.4238  12.257187000346  10.637013000450  44.369127001008 # h*
 1728 441   6  -0.8476  11.247986998815  10.376212999590  44.256327001959 # o*
 1729 442   7   0.4238  16.128587000666  16.733613000031  40.270427000922 # h*
 1730 442   7   0.4238  16.770986999145  17.603612999067  39.202826999770 # h*
 1731 442   6  -0.8476  16.053586999405  17.689513000456  39.906027003335 # o*
 1732 443   7   0.4238   6.699096999229   9.814823000178  34.748027002839 # h*
 1733 443   7   0.4238   6.517887000465  10.084753000342  33.183026999408 # h*
 1734 443   6  -0.8476   6.715917000541  10.589612999108  34.056127002517 # o*
 1735 444   7   0.4238   3.920317000752   4.165843000414  46.259326999850 # h*
 1736 444   7   0.4238   2.820566998750   3.145942999572  45.628627000738 # h*
 1737 444   6  -0.8476   3.504937000679   3.222903000417  46.391227000536 # o*
 1738 445   7   0.4238  19.030186999139  12.393713000368  41.664727004528 # h*
 1739 445   7   0.4238  18.039287000454  11.039512998915  41.689026999301 # h*
 1740 445   6  -0.8476  18.167686998921  11.990512999233  42.083027001486 # o*
 1741 446   7   0.4238  15.402187000827   4.999923000271  39.055427001608 # h*
 1742 446   7   0.4238  15.984386998852   3.518582999515  39.507427003880 # h*
 1743 446   6  -0.8476  15.630486999349   4.046592999508  38.726926999970 # o*
 1744 447   7   0.4238  20.644286999458  17.066112999086  33.142227002463 # h*
 1745 447   7   0.4238  21.999587000495  16.635612999742  32.230627003941 # h*
 1746 447   6  -0.8476  21.022986999836  16.496712999809  32.401227004455 # o*
 1747 448   7   0.4238  10.679386999743  12.368013000032  48.257127004605 # h*
 1748 448   7   0.4238  11.387687000550  13.791812999104  49.003927003202 # h*
 1749 448   6  -0.8476  11.268386999075  12.779712998812  48.979727001947 # o*
 1750 449   7   0.4238  15.920004340764   0.131418465886  50.867526999947 # h*
 1751 449   7   0.4238  25.474586999620  18.123713000109  51.368327001972 # h*
 1752 449   6  -0.8476  16.774186999186   0.397297000090  51.321727004439 # o*
 1753 450   7   0.4238  12.011287000422   4.642062999151  36.637527000711 # h*
 1754 450   7   0.4238  12.163186999701   5.198832998781  35.149727004106 # h*
 1755 450   6  -0.8476  11.483086999447   5.045252999080  35.879127000939 # o*
 1756 451   7   0.4238  10.003686999931  13.117212998887  57.555527001725 # h*
 1757 451   7   0.4238  10.410986999558  13.278612999693  56.001527003603 # h*
 1758 451   6  -0.8476  10.084687000546  12.554413000361  56.669827004330 # o*
 1759 452   7   0.4238   6.099016999062  10.755713000054  56.500427001341 # h*
 1760 452   7   0.4238   7.153516999690  11.158112999465  55.294327004427 # h*
 1761 452   6  -0.8476   6.779757000180  10.382512999463  55.799627004411 # o*
 1762 453   7   0.4238  14.274087000054   9.543112999011  54.485326999926 # h*
 1763 453   7   0.4238  13.200086999433   8.415322999818  54.224726999677 # h*
 1764 453   6  -0.8476  14.114187000333   8.556112999156  54.676427004015 # o*
 1765 454   7   0.4238   3.246326999060   7.281942999054  38.153827003700 # h*
 1766 454   7   0.4238   3.958617000478   6.842543000274  36.784427002318 # h*
 1767 454   6  -0.8476   3.623447000005   7.651442999337  37.311627002025 # o*
 1768 455   7   0.4238  16.532587000027   3.659212999994  48.098926999756 # h*
 1769 455   7   0.4238  18.182786999056   3.637293000325  48.325627001861 # h*
 1770 455   6  -0.8476  17.402386999969   3.156772999522  47.886927000638 # o*
 1771 456   7   0.4238  15.246886998753  12.260212999529  40.750427001438 # h*
 1772 456   7   0.4238  15.043387000433  10.857212998827  41.232426999759 # h*
 1773 456   6  -0.8476  14.704986999804  11.438012999909  40.467426999118 # o*
 1774 457   7   0.4238  21.539687000782   3.667043000446  52.612027000499 # h*
 1775 457   7   0.4238  20.642887000763   4.834272999714  53.452427002990 # h*
 1776 457   6  -0.8476  21.141287000677   4.590663000339  52.618527002057 # o*
 1777 458   7   0.4238  10.322687000128   1.443663000377  28.809727002847 # h*
 1778 458   7   0.4238  11.183386999672   1.787992999213  27.515227000968 # h*
 1779 458   6  -0.8476  10.405686999682   1.206662999242  27.829727000588 # o*
 1780 459   7   0.4238   6.828446999898   6.217092998783  41.396227000782 # h*
 1781 459   7   0.4238   7.340836999857   4.711422999412  41.668026999170 # h*
 1782 459   6  -0.8476   7.645636998981   5.680412999221  41.654627004603 # o*
 1783 460   7   0.4238   7.149496998838   7.691932999701  34.647727004557 # h*
 1784 460   7   0.4238   5.487907000837   7.651373000185  34.735727000693 # h*
 1785 460   6  -0.8476   6.348017000103   8.115042999634  35.045527003731 # o*
 1786 461   7   0.4238  25.243586998588  15.786412999076  54.965827002789 # h*
 1787 461   7   0.4238  24.824686999278  14.490912999857  54.117827000526 # h*
 1788 461   6  -0.8476  24.798086998949  15.521712999800  54.078727003454 # o*
 1789 462   7   0.4238   3.401736999748   4.784492999329  37.215326999355 # h*
 1790 462   7   0.4238   4.446347000186   4.323032998859  36.233527003704 # h*
 1791 462   6  -0.8476   3.889196998734   5.170102999047  36.393826999879 # o*
 1792 463   7   0.4238  16.498987000534  14.565812999374  45.375827004676 # h*
 1793 463   7   0.4238  18.044786999002  14.796212999757  45.490327003598 # h*
 1794 463   6  -0.8476  17.350886999242  14.055113000473  45.165327001016 # o*
 1795 464   7   0.4238   1.322476999665   2.609492999880  43.593427004576 # h*
 1796 464   7   0.4238  21.469087000817   3.896083000314  44.564727003057 # h*
 1797 464   6  -0.8476   1.681667000469   3.217282998943  44.322727002098 # o*
 1798 465   7   0.4238  19.902186999541  10.821412999256  30.702227003221 # h*
 1799 465   7   0.4238  21.239287000640   9.876833000277  31.060727000909 # h*
 1800 465   6  -0.8476  20.780186999941  10.754412999343  31.219826999558 # o*
 1801 466   7   0.4238  20.186186998941   9.928262998992  50.507127003764 # h*
 1802 466   7   0.4238  20.276486999221   8.433273000060  49.914226999095 # h*
 1803 466   6  -0.8476  20.855786999088   9.248782999222  50.167226999572 # o*
 1804 467   7   0.4238   9.236736999805  12.268612999978  55.190227003363 # h*
 1805 467   7   0.4238   9.739187000997  11.408913000143  53.887727004468 # h*
 1806 467   6  -0.8476   8.987247000493  12.029412999213  54.239427002665 # o*
 1807 468   7   0.4238  17.348686999803  14.885212999697  53.774227004448 # h*
 1808 468   7   0.4238  17.980186999140  16.393313000426  53.519427004788 # h*
 1809 468   6  -0.8476  18.066587000694  15.423613000457  53.255827002038 # o*
 1810 469   7   0.4238   0.415764341534   0.245718466228  38.654027004066 # h*
 1811 469   7   0.4238  19.520286999294   0.044562000201  37.891326999164 # h*
 1812 469   6  -0.8476  28.195090645659  18.351512999070  38.676327001033 # o*
 1813 470   7   0.4238  12.603486999787  14.308612999769  41.459027002554 # h*
 1814 470   7   0.4238  11.828787000196  12.974813000470  41.248827002620 # h*
 1815 470   6  -0.8476  11.762286999495  13.835513000137  41.808527004323 # o*
 1816 471   7   0.4238   6.340266998629   3.775642998957  27.283326999933 # h*
 1817 471   7   0.4238   5.327966999609   2.837503000013  28.099427001859 # h*
 1818 471   6  -0.8476   6.311867000827   3.041692999867  27.996527004112 # o*
 1819 472   7   0.4238  15.549587000109  13.268513000457  35.605927000612 # h*
 1820 472   7   0.4238  14.261586999311  14.241512998944  35.542027000626 # h*
 1821 472   6  -0.8476  14.812786999446  13.617413000478  34.976127001091 # o*
 1822 473   7   0.4238  10.879286999392  14.456612999105  36.482126999741 # h*
 1823 473   7   0.4238  11.388586999099  13.014612999370  37.313227002587 # h*
 1824 473   6  -0.8476  11.529586998956  14.019712998977  37.165726999321 # o*
 1825 474   7   0.4238  10.254587000277   9.556332999210  45.027427001120 # h*
 1826 474   7   0.4238   8.689137000441   9.675222999433  45.207626999212 # h*
 1827 474   6  -0.8476   9.485807000256   9.121693000374  45.540327000876 # o*
 1828 475   7   0.4238  10.052786999497   7.534092999042  45.917226999231 # h*
 1829 475   7   0.4238  10.119587000064   6.384093000507  44.938427000289 # h*
 1830 475   6  -0.8476  10.363086999371   6.548503000158  45.897227003795 # o*
 1831 476   7   0.4238  17.454187000769   2.710892999598  31.607527004600 # h*
 1832 476   7   0.4238  17.167086999723   4.279992999388  31.316327000850 # h*
 1833 476   6  -0.8476  17.613686999723   3.438732999434  30.902026999504 # o*
 1834 477   7   0.4238   1.199746999723   2.744083000257  37.579127001076 # h*
 1835 477   7   0.4238  21.132686998935   3.037662998778  36.084127001944 # h*
 1836 477   6  -0.8476  21.271887000004   3.445533000152  37.009027001514 # o*
 1837 478   7   0.4238  11.055987000161  14.463112998945  32.384927000905 # h*
 1838 478   7   0.4238  12.044087000148  14.656512999958  31.215626999532 # h*
 1839 478   6  -0.8476  11.041586999527  14.726413000314  31.406627004311 # o*
 1840 479   7   0.4238   7.048287000599   1.696852999446  53.128827002348 # h*
 1841 479   7   0.4238   6.117977000597   2.810772999943  52.443027000547 # h*
 1842 479   6  -0.8476   6.852016998922   2.684732999526  53.154127001817 # o*
 1843 480   7   0.4238  15.464187000808   8.060233000185  39.532927001970 # h*
 1844 480   7   0.4238  15.593986999584   9.420232998807  40.312827004221 # h*
 1845 480   6  -0.8476  16.113486999779   8.854972999021  39.652327001888 # o*
 1846 481   7   0.4238  13.970486998608  13.033312999021  48.003126999433 # h*
 1847 481   7   0.4238  14.071387000260  14.467713000031  47.398727004485 # h*
 1848 481   6  -0.8476  14.537787000141  13.892512999869  48.089427001489 # o*
 1849 482   7   0.4238  10.569487000770   5.972813000356  51.687927001209 # h*
 1850 482   7   0.4238   9.476566999883   5.118413000562  52.649327004180 # h*
 1851 482   6  -0.8476  10.428587000284   5.112512998764  52.215927001197 # o*
 1852 483   7   0.4238  23.586186998934  14.993512999188  45.555927003456 # h*
 1853 483   7   0.4238  24.192186999084  13.551413000398  46.056227003133 # h*
 1854 483   6  -0.8476  23.339486998802  14.080012999084  45.925626999283 # o*
 1855 484   7   0.4238  25.492586999111  17.370713000033  27.399227000795 # h*
 1856 484   7   0.4238  24.863786999205  18.344313000277  28.523427000094 # h*
 1857 484   6  -0.8476  24.818187000830  17.387013000087  28.167227003937 # o*
 1858 485   7   0.4238  15.206787000277  14.722012999193  54.886027002290 # h*
 1859 485   7   0.4238  14.712487000361  14.273712999118  53.411427001631 # h*
 1860 485   6  -0.8476  15.362686999496  14.861512999026  53.916827000926 # o*
 1861 486   7   0.4238   6.134637000701   2.348712999574  36.729127001007 # h*
 1862 486   7   0.4238   5.375846999004   2.185112999138  35.296327001988 # h*
 1863 486   6  -0.8476   5.471256999384   2.776782999418  36.096727002022 # o*
 1864 487   7   0.4238   8.208926998602  10.638712999236  42.888826999072 # h*
 1865 487   7   0.4238   8.107816999924  11.387012999171  41.404727000146 # h*
 1866 487   6  -0.8476   8.198536998932  10.501612999000  41.877326999512 # o*
 1867 488   7   0.4238  19.068386999398   0.642739000422  30.712127004524 # h*
 1868 488   7   0.4238  27.463287000044  17.773213000356  30.580527001771 # h*
 1869 488   6  -0.8476  27.296686999175  18.569512999674  29.941327003295 # o*
 1870 489   7   0.4238   7.551766998479  12.502312998879  39.612727002469 # h*
 1871 489   7   0.4238   6.030387000326  13.005313000000  40.076327000123 # h*
 1872 489   6  -0.8476   6.709466999623  12.209312999703  40.069726999255 # o*
 1873 490   7   0.4238  13.500686999715  18.173712999156  38.143027002805 # h*
 1874 490   7   0.4238  12.684787000862  18.196013000062  36.901327002083 # h*
 1875 490   6  -0.8476  13.567386999308  17.810212999725  37.220027001729 # o*
 1876 491   7   0.4238  11.868787000673   7.195042999691  50.867227002014 # h*
 1877 491   7   0.4238  10.967386999440   6.432872999202  49.823127001147 # h*
 1878 491   6  -0.8476  10.890686999118   7.176902998831  50.533527001446 # o*
 1879 492   7   0.4238   4.973006999528   6.179302998895  46.885627000314 # h*
 1880 492   7   0.4238   4.659257000615   6.213483000039  45.248027004705 # h*
 1881 492   6  -0.8476   4.399006999513   5.770742999774  46.123527002864 # o*
 1882 493   7   0.4238  25.276987000448  13.063912999464  48.012827002114 # h*
 1883 493   7   0.4238  25.278287000284  12.377213000347  49.465927000295 # h*
 1884 493   6  -0.8476  25.154387000312  13.276512999116  48.993227001618 # o*
 1885 494   7   0.4238  20.471586999587   3.073162999328  30.332727000223 # h*
 1886 494   7   0.4238  19.040087000412   3.851793000587  30.484027000479 # h*
 1887 494   6  -0.8476  20.030787000193   4.015192999199  30.288827001466 # o*
 1888 495   7   0.4238  13.201886999747  15.977712999512  32.332126999748 # h*
 1889 495   7   0.4238  14.142386999994  16.895112999891  33.266226999652 # h*
 1890 495   6  -0.8476  13.172686998796  16.579912998863  33.140227004657 # o*
 1891 496   7   0.4238   7.441937000019   8.006982999360  29.559326999530 # h*
 1892 496   7   0.4238   7.218556999127   7.544752998926  31.090027001781 # h*
 1893 496   6  -0.8476   7.485416999815   7.188642998906  30.167327004431 # o*
 1894 497   7   0.4238  24.318487000673  14.718412999797  57.416927000859 # h*
 1895 497   7   0.4238  23.454586998899  15.954412998774  57.622027001175 # h*
 1896 497   6  -0.8476  23.576386998889  15.229012999644  56.936727001721 # o*
 1897 498   7   0.4238   5.894827000870   5.786612999993  54.950326999520 # h*
 1898 498   7   0.4238   5.180476999187   5.750922998824  56.359327000321 # h*
 1899 498   6  -0.8476   4.971686999362   5.772422999864  55.356827002473 # o*
 1900 499   7   0.4238  20.085287000505   4.323323000390  47.091427001600 # h*
 1901 499   7   0.4238  20.997986999787   4.669362999219  48.313627003441 # h*
 1902 499   6  -0.8476  20.069886999549   4.298282999758  48.121726999071 # o*
 1903 500   7   0.4238  22.937286999824   7.967122998797  35.944427002864 # h*
 1904 500   7   0.4238  22.648686999790   9.509663000440  35.404627003078 # h*
 1905 500   6  -0.8476  22.342886999882   8.554452999620  35.403426999761 # o*
 1906 501   7   0.4238  21.896387000404  15.799613000578  47.917927001383 # h*
 1907 501   7   0.4238  20.577886999785  16.732613000199  48.379726999855 # h*
 1908 501   6  -0.8476  21.034086999929  16.227812999379  47.610627004291 # o*
 1909 502   7   0.4238  18.358786999903  14.479412998998  34.542327000864 # h*
 1910 502   7   0.4238  17.702987000551  14.262312999172  36.029527001603 # h*
 1911 502   6  -0.8476  18.473786999662  14.674112998865  35.531527003457 # o*
 1912 503   7   0.4238  14.771686999562  10.694013000182  44.687427003410 # h*
 1913 503   7   0.4238  13.896286999641  10.600113000134  46.045627000860 # h*
 1914 503   6  -0.8476  13.833586999404  10.779912999712  45.026026999181 # o*
 1915 504   7   0.4238  11.814086999172  14.581413000474  54.182527000793 # h*
 1916 504   7   0.4238  11.479186999613  15.318812999450  55.550527000235 # h*
 1917 504   6  -0.8476  11.520286999413  14.379113000024  55.156326999427 # o*
 1918 505   7   0.4238  10.633587000986   8.342873000355  53.218527004150 # h*
 1919 505   7   0.4238  11.986286999483   7.584752999651  53.031627000086 # h*
 1920 505   6  -0.8476  11.561487000051   8.315173000355  53.612327001920 # o*
 1921 506   7   0.4238  19.537487000904   9.319132999967  44.454327004850 # h*
 1922 506   7   0.4238  19.322686999343  10.126873000340  43.057027004536 # h*
 1923 506   6  -0.8476  20.010487000129   9.910543000477  43.769127004708 # o*
 1924 507   7   0.4238  21.306987000064   6.141332999596  35.355727004014 # h*
 1925 507   7   0.4238  21.022486999512   5.159143000142  36.653027003980 # h*
 1926 507   6  -0.8476  20.823587000056   6.077052998855  36.243727002941 # o*
 1927 508   7   0.4238  16.283587000259  16.676013000400  49.807627003670 # h*
 1928 508   7   0.4238  16.398486999995  18.261712999264  49.411127001332 # h*
 1929 508   6  -0.8476  16.670486999190  17.327712999811  49.136627004168 # o*
 1930 509   7   0.4238  21.734587000762  13.750613000438  29.876226999993 # h*
 1931 509   7   0.4238  21.330587000269  12.428913000039  30.818527001327 # h*
 1932 509   6  -0.8476  21.732886998956  13.387213000062  30.817926999668 # o*
 1933 510   7   0.4238   7.856937000408   4.598252999716  33.183627001067 # h*
 1934 510   7   0.4238   7.884316999611   4.044462999029  31.595927003424 # h*
 1935 510   6  -0.8476   7.751027001133   3.772913000437  32.596427003467 # o*
 1936 511   7   0.4238  10.024086999274   2.714613000461  50.737326999134 # h*
 1937 511   7   0.4238  10.520786999478   3.366582998991  52.060227002294 # h*
 1938 511   6  -0.8476  10.109486999008   2.484542999000  51.728727003947 # o*
 1939 512   7   0.4238  19.449786998827   4.703672999318  45.104627002154 # h*
 1940 512   7   0.4238  20.541387000797   5.650622999851  45.609127001857 # h*
 1941 512   6  -0.8476  20.340287000572   4.627042999255  45.616927000251 # o*
 1942 513   7   0.4238  15.234086999140   0.932724999899  46.151027004553 # h*
 1943 513   7   0.4238  14.627504339776   0.130018466120  44.853927003209 # h*
 1944 513   6  -0.8476  14.891086999492   1.017462999383  45.190726999796 # o*
 1945 514   7   0.4238  19.682286999300  13.800812999452  33.058626999183 # h*
 1946 514   7   0.4238  19.943486999061  15.382612999900  32.664727002101 # h*
 1947 514   6  -0.8476  19.215386999001  14.654612999348  32.810627004805 # o*
 1948 515   7   0.4238  20.854587000368  13.832512998782  54.828927001796 # h*
 1949 515   7   0.4238  19.476186999736  14.412313000031  54.384627004399 # h*
 1950 515   6  -0.8476  20.040087000551  13.572613000559  54.281026999891 # o*
 1951 516   7   0.4238   5.080566999825   9.994602999201  38.412727004076 # h*
 1952 516   7   0.4238   5.116966999471   9.004902998870  37.083227000047 # h*
 1953 516   6  -0.8476   5.278726999134   9.972152998786  37.390226999206 # o*
 1954 517   7   0.4238  18.185186999677   1.927002999407  48.745227001448 # h*
 1955 517   7   0.4238  17.707386999893   1.039734000135  49.911827004045 # h*
 1956 517   6  -0.8476  18.470686999461   1.101115999931  49.255327003117 # o*
 1957 518   7   0.4238  15.615387000664   1.947712999929  32.889427000608 # h*
 1958 518   7   0.4238  15.273986998720   3.498492999446  32.735726999510 # h*
 1959 518   6  -0.8476  14.878386999852   2.632492999739  33.022127001575 # o*
 1960 519   7   0.4238  20.392387000245  14.124212999105  35.765327002987 # h*
 1961 519   7   0.4238  21.119387001034  12.902513000517  34.887127000260 # h*
 1962 519   6  -0.8476  21.295587000401  13.689212999586  35.497626999522 # o*
 1963 520   7   0.4238  12.916886999821  16.143112999647  44.224726999555 # h*
 1964 520   7   0.4238  11.750286999771  17.257012999590  43.817427002113 # h*
 1965 520   6  -0.8476  12.518586999625  17.065213000166  44.474227000975 # o*
 1966 521   7   0.4238   3.300587000759   0.628779000162  48.064927002302 # h*
 1967 521   7   0.4238   2.982876999935   2.200802999944  47.553227000071 # h*
 1968 521   6  -0.8476   2.789257000525   1.489173000456  48.261927000498 # o*
 1969 522   7   0.4238  10.514486998619  11.508612999218  51.611127003212 # h*
 1970 522   7   0.4238  11.434387000542  10.238712999422  51.928727004644 # h*
 1971 522   6  -0.8476  10.507487000682  10.651012999960  52.150727004376 # o*
 1972 523   7   0.4238  17.690386998710   8.604982999415  56.554227001401 # h*
 1973 523   7   0.4238  16.929186999262   7.314572999064  55.890927000982 # h*
 1974 523   6  -0.8476  17.833187000289   7.834572999193  55.855127004344 # o*
 1975 524   7   0.4238   3.799706999369   3.551732999065  43.532427001988 # h*
 1976 524   7   0.4238   5.187777000717   2.769273000399  43.203127000069 # h*
 1977 524   6  -0.8476   4.289847000350   3.091492998948  42.804327001992 # o*
 1978 525   7   0.4238  16.379386998865   0.789451999500  40.486427001444 # h*
 1979 525   7   0.4238  24.111786999749  17.918912999149  39.985227002175 # h*
 1980 525   6  -0.8476  24.415586999359  18.424212998956  40.855727000027 # o*
 1981 526   7   0.4238  12.471186999401   6.258482999925   1.254257004109 # h*
 1982 526   7   0.4238  11.215787000248   5.362783000553   0.736767004697 # h*
 1983 526   6  -0.8476  12.276386998872   5.449632999460   0.736172001845 # o*
 1984 527   7   0.4238  12.443486999498  15.184212999725  51.787027001966 # h*
 1985 527   7   0.4238  11.243587000427  14.222713000239  52.327827000655 # h*
 1986 527   6  -0.8476  11.958687000178  14.900012999073  52.664627003035 # o*
 1987 528   7   0.4238   3.937686998915   7.576442998908  42.797527002501 # h*
 1988 528   7   0.4238   5.180536999736   6.724133000342  42.715526999782 # h*
 1989 528   6  -0.8476   4.559547000363   7.092183000403  43.436327003733 # o*
 1990 529   7   0.4238  12.912187000814  14.610313000273  37.553127000638 # h*
 1991 529   7   0.4238  13.688986999691  16.018313000136  37.188927001673 # h*
 1992 529   6  -0.8476  13.839586999813  15.031513000248  37.398327001326 # o*
 1993 530   7   0.4238  21.711587000494  14.561213000146  38.515727001133 # h*
 1994 530   7   0.4238  23.137387000174  13.848712999781  38.611727000078 # h*
 1995 530   6  -0.8476  22.696287000161  14.740612999791  38.430727001706 # o*
 1996 531   7   0.4238  14.948686998978   6.304772999316  36.117427004220 # h*
 1997 531   7   0.4238  15.754487000155   4.927532998754  35.780427003219 # h*
 1998 531   6  -0.8476  14.934787000361   5.466342998794  35.547226999556 # o*
 1999 532   7   0.4238   7.293247000577   2.016613000452  27.222627001071 # h*
 2000 532   7   0.4238   8.723457000116   1.179166000314  27.246927001637 # h*
 2001 532   6  -0.8476   7.728847000839   1.108035000508  26.986427000699 # o*
 2002 533   7   0.4238  22.448686998680  13.346812999404  46.925226999734 # h*
 2003 533   7   0.4238  20.942687000820  13.130013000457  47.223427001597 # h*
 2004 533   6  -0.8476  21.820486999909  12.889512998980  47.610426999877 # o*
 2005 536   8  -1.0411  13.815728328362  10.700790499115  42.127595247493 # oc
 2006 535   8  -1.0411  14.854958813081   8.900790499955  42.127595247493 # oc
 2007 536   8  -1.0411  12.776497844482   8.900790499955  42.127595247493 # oc
 2008 536   9   1.1233  13.815728329326   9.500790499675  42.127595247493 # co

Bonds

    1   1    38    89 # oh-ho
    2   1    39    90 # oh-ho
    3   1    54    55 # oh-ho
    4   1    56    57 # oh-ho
    5   1    58    59 # oh-ho
    6   1    60    61 # oh-ho
    7   1   128   179 # oh-ho
    8   1   129   180 # oh-ho
    9   1   144   145 # oh-ho
   10   1   146   147 # oh-ho
   11   1   148   149 # oh-ho
   12   1   150   151 # oh-ho
   13   1   218   269 # oh-ho
   14   1   219   270 # oh-ho
   15   1   234   235 # oh-ho
   16   1   236   237 # oh-ho
   17   1   238   239 # oh-ho
   18   1   240   241 # oh-ho
   19   1   308   359 # oh-ho
   20   1   309   360 # oh-ho
   21   1   324   325 # oh-ho
   22   1   326   327 # oh-ho
   23   1   328   329 # oh-ho
   24   1   330   331 # oh-ho
   25   1   398   449 # oh-ho
   26   1   399   450 # oh-ho
   27   1   414   415 # oh-ho
   28   1   416   417 # oh-ho
   29   1   418   419 # oh-ho
   30   1   420   421 # oh-ho
   31   1   488   539 # oh-ho
   32   1   489   540 # oh-ho
   33   1   504   505 # oh-ho
   34   1   506   507 # oh-ho
   35   1   508   509 # oh-ho
   36   1   510   511 # oh-ho
   37   1   578   629 # oh-ho
   38   1   579   630 # oh-ho
   39   1   594   595 # oh-ho
   40   1   596   597 # oh-ho
   41   1   598   599 # oh-ho
   42   1   600   601 # oh-ho
   43   1   668   719 # oh-ho
   44   1   669   720 # oh-ho
   45   1   684   685 # oh-ho
   46   1   686   687 # oh-ho
   47   1   688   689 # oh-ho
   48   1   690   691 # oh-ho
   49   1   758   809 # oh-ho
   50   1   759   810 # oh-ho
   51   1   774   775 # oh-ho
   52   1   776   777 # oh-ho
   53   1   778   779 # oh-ho
   54   1   780   781 # oh-ho
   55   2    62    63 # o*-h*
   56   2    62    64 # o*-h*
   57   2    65    66 # o*-h*
   58   2    65    67 # o*-h*
   59   2    68    69 # o*-h*
   60   2    68    70 # o*-h*
   61   2    71    72 # o*-h*
   62   2    71    73 # o*-h*
   63   2    74    75 # o*-h*
   64   2    74    76 # o*-h*
   65   2    77    78 # o*-h*
   66   2    77    79 # o*-h*
   67   2    80   351 # o*-h*
   68   2    80   352 # o*-h*
   69   2    83    84 # o*-h*
   70   2    83    85 # o*-h*
   71   2    86    87 # o*-h*
   72   2    86    88 # o*-h*
   73   2   152   153 # o*-h*
   74   2   152   154 # o*-h*
   75   2   155   156 # o*-h*
   76   2   155   157 # o*-h*
   77   2   158   159 # o*-h*
   78   2   158   160 # o*-h*
   79   2   161   162 # o*-h*
   80   2   161   163 # o*-h*
   81   2   164   165 # o*-h*
   82   2   164   166 # o*-h*
   83   2   167   168 # o*-h*
   84   2   167   169 # o*-h*
   85   2   170   441 # o*-h*
   86   2   170   442 # o*-h*
   87   2   173   174 # o*-h*
   88   2   173   175 # o*-h*
   89   2   176   177 # o*-h*
   90   2   176   178 # o*-h*
   91   2   242   243 # o*-h*
   92   2   242   244 # o*-h*
   93   2   245   246 # o*-h*
   94   2   245   247 # o*-h*
   95   2   248   249 # o*-h*
   96   2   248   250 # o*-h*
   97   2   251   252 # o*-h*
   98   2   251   253 # o*-h*
   99   2   254   255 # o*-h*
  100   2   254   256 # o*-h*
  101   2   257   258 # o*-h*
  102   2   257   259 # o*-h*
  103   2   260   531 # o*-h*
  104   2   260   532 # o*-h*
  105   2   263   264 # o*-h*
  106   2   263   265 # o*-h*
  107   2   266   267 # o*-h*
  108   2   266   268 # o*-h*
  109   2   332   333 # o*-h*
  110   2   332   334 # o*-h*
  111   2   335   336 # o*-h*
  112   2   335   337 # o*-h*
  113   2   338   339 # o*-h*
  114   2   338   340 # o*-h*
  115   2   341   342 # o*-h*
  116   2   341   343 # o*-h*
  117   2   344   345 # o*-h*
  118   2   344   346 # o*-h*
  119   2   347   348 # o*-h*
  120   2   347   349 # o*-h*
  121   2   350   621 # o*-h*
  122   2   350   622 # o*-h*
  123   2   353   354 # o*-h*
  124   2   353   355 # o*-h*
  125   2   356   357 # o*-h*
  126   2   356   358 # o*-h*
  127   2   422   423 # o*-h*
  128   2   422   424 # o*-h*
  129   2   425   426 # o*-h*
  130   2   425   427 # o*-h*
  131   2   428   429 # o*-h*
  132   2   428   430 # o*-h*
  133   2   431   432 # o*-h*
  134   2   431   433 # o*-h*
  135   2   434   435 # o*-h*
  136   2   434   436 # o*-h*
  137   2   437   438 # o*-h*
  138   2   437   439 # o*-h*
  139   2   440   711 # o*-h*
  140   2   440   712 # o*-h*
  141   2   443   444 # o*-h*
  142   2   443   445 # o*-h*
  143   2   446   447 # o*-h*
  144   2   446   448 # o*-h*
  145   2   512   513 # o*-h*
  146   2   512   514 # o*-h*
  147   2   515   516 # o*-h*
  148   2   515   517 # o*-h*
  149   2   518   519 # o*-h*
  150   2   518   520 # o*-h*
  151   2   521   522 # o*-h*
  152   2   521   523 # o*-h*
  153   2   524   525 # o*-h*
  154   2   524   526 # o*-h*
  155   2   527   528 # o*-h*
  156   2   527   529 # o*-h*
  157   2   530   801 # o*-h*
  158   2   530   802 # o*-h*
  159   2   533   534 # o*-h*
  160   2   533   535 # o*-h*
  161   2   536   537 # o*-h*
  162   2   536   538 # o*-h*
  163   2   602   603 # o*-h*
  164   2   602   604 # o*-h*
  165   2   605   606 # o*-h*
  166   2   605   607 # o*-h*
  167   2   608   609 # o*-h*
  168   2   608   610 # o*-h*
  169   2   611   612 # o*-h*
  170   2   611   613 # o*-h*
  171   2   614   615 # o*-h*
  172   2   614   616 # o*-h*
  173   2   617   618 # o*-h*
  174   2   617   619 # o*-h*
  175   2   620    81 # o*-h*
  176   2   620    82 # o*-h*
  177   2   623   624 # o*-h*
  178   2   623   625 # o*-h*
  179   2   626   627 # o*-h*
  180   2   626   628 # o*-h*
  181   2   692   693 # o*-h*
  182   2   692   694 # o*-h*
  183   2   695   696 # o*-h*
  184   2   695   697 # o*-h*
  185   2   698   699 # o*-h*
  186   2   698   700 # o*-h*
  187   2   701   702 # o*-h*
  188   2   701   703 # o*-h*
  189   2   704   705 # o*-h*
  190   2   704   706 # o*-h*
  191   2   707   708 # o*-h*
  192   2   707   709 # o*-h*
  193   2   710   171 # o*-h*
  194   2   710   172 # o*-h*
  195   2   713   714 # o*-h*
  196   2   713   715 # o*-h*
  197   2   716   717 # o*-h*
  198   2   716   718 # o*-h*
  199   2   782   783 # o*-h*
  200   2   782   784 # o*-h*
  201   2   785   786 # o*-h*
  202   2   785   787 # o*-h*
  203   2   788   789 # o*-h*
  204   2   788   790 # o*-h*
  205   2   791   792 # o*-h*
  206   2   791   793 # o*-h*
  207   2   794   795 # o*-h*
  208   2   794   796 # o*-h*
  209   2   797   798 # o*-h*
  210   2   797   799 # o*-h*
  211   2   800   261 # o*-h*
  212   2   800   262 # o*-h*
  213   2   803   804 # o*-h*
  214   2   803   805 # o*-h*
  215   2   806   807 # o*-h*
  216   2   806   808 # o*-h*
  217   2   813   811 # o*-h*
  218   2   813   812 # o*-h*
  219   2   816   814 # o*-h*
  220   2   816   815 # o*-h*
  221   2   819   817 # o*-h*
  222   2   819   818 # o*-h*
  223   2   822   820 # o*-h*
  224   2   822   821 # o*-h*
  225   2   825   823 # o*-h*
  226   2   825   824 # o*-h*
  227   2   828   826 # o*-h*
  228   2   828   827 # o*-h*
  229   2   831   829 # o*-h*
  230   2   831   830 # o*-h*
  231   2   834   832 # o*-h*
  232   2   834   833 # o*-h*
  233   2   837   835 # o*-h*
  234   2   837   836 # o*-h*
  235   2   840   838 # o*-h*
  236   2   840   839 # o*-h*
  237   2   843   841 # o*-h*
  238   2   843   842 # o*-h*
  239   2   846   844 # o*-h*
  240   2   846   845 # o*-h*
  241   2   849   847 # o*-h*
  242   2   849   848 # o*-h*
  243   2   852   850 # o*-h*
  244   2   852   851 # o*-h*
  245   2   855   853 # o*-h*
  246   2   855   854 # o*-h*
  247   2   858   856 # o*-h*
  248   2   858   857 # o*-h*
  249   2   861   859 # o*-h*
  250   2   861   860 # o*-h*
  251   2   864   862 # o*-h*
  252   2   864   863 # o*-h*
  253   2   867   865 # o*-h*
  254   2   867   866 # o*-h*
  255   2   870   868 # o*-h*
  256   2   870   869 # o*-h*
  257   2   873   871 # o*-h*
  258   2   873   872 # o*-h*
  259   2   876   874 # o*-h*
  260   2   876   875 # o*-h*
  261   2   879   877 # o*-h*
  262   2   879   878 # o*-h*
  263   2   882   880 # o*-h*
  264   2   882   881 # o*-h*
  265   2   885   883 # o*-h*
  266   2   885   884 # o*-h*
  267   2   888   886 # o*-h*
  268   2   888   887 # o*-h*
  269   2   891   889 # o*-h*
  270   2   891   890 # o*-h*
  271   2   894   892 # o*-h*
  272   2   894   893 # o*-h*
  273   2   897   895 # o*-h*
  274   2   897   896 # o*-h*
  275   2   900   898 # o*-h*
  276   2   900   899 # o*-h*
  277   2   903   901 # o*-h*
  278   2   903   902 # o*-h*
  279   2   906   904 # o*-h*
  280   2   906   905 # o*-h*
  281   2   909   907 # o*-h*
  282   2   909   908 # o*-h*
  283   2   912   910 # o*-h*
  284   2   912   911 # o*-h*
  285   2   915   913 # o*-h*
  286   2   915   914 # o*-h*
  287   2   918   916 # o*-h*
  288   2   918   917 # o*-h*
  289   2   921   919 # o*-h*
  290   2   921   920 # o*-h*
  291   2   924   922 # o*-h*
  292   2   924   923 # o*-h*
  293   2   927   925 # o*-h*
  294   2   927   926 # o*-h*
  295   2   930   928 # o*-h*
  296   2   930   929 # o*-h*
  297   2   933   931 # o*-h*
  298   2   933   932 # o*-h*
  299   2   936   934 # o*-h*
  300   2   936   935 # o*-h*
  301   2   939   937 # o*-h*
  302   2   939   938 # o*-h*
  303   2   942   940 # o*-h*
  304   2   942   941 # o*-h*
  305   2   945   943 # o*-h*
  306   2   945   944 # o*-h*
  307   2   948   946 # o*-h*
  308   2   948   947 # o*-h*
  309   2   951   949 # o*-h*
  310   2   951   950 # o*-h*
  311   2   954   952 # o*-h*
  312   2   954   953 # o*-h*
  313   2   957   955 # o*-h*
  314   2   957   956 # o*-h*
  315   2   960   958 # o*-h*
  316   2   960   959 # o*-h*
  317   2   963   961 # o*-h*
  318   2   963   962 # o*-h*
  319   2   966   964 # o*-h*
  320   2   966   965 # o*-h*
  321   2   969   967 # o*-h*
  322   2   969   968 # o*-h*
  323   2   972   970 # o*-h*
  324   2   972   971 # o*-h*
  325   2   975   973 # o*-h*
  326   2   975   974 # o*-h*
  327   2   978   976 # o*-h*
  328   2   978   977 # o*-h*
  329   2   981   979 # o*-h*
  330   2   981   980 # o*-h*
  331   2   984   982 # o*-h*
  332   2   984   983 # o*-h*
  333   2   987   985 # o*-h*
  334   2   987   986 # o*-h*
  335   2   990   988 # o*-h*
  336   2   990   989 # o*-h*
  337   2   993   991 # o*-h*
  338   2   993   992 # o*-h*
  339   2   996   994 # o*-h*
  340   2   996   995 # o*-h*
  341   2   999   997 # o*-h*
  342   2   999   998 # o*-h*
  343   2  1002  1000 # o*-h*
  344   2  1002  1001 # o*-h*
  345   2  1005  1003 # o*-h*
  346   2  1005  1004 # o*-h*
  347   2  1008  1006 # o*-h*
  348   2  1008  1007 # o*-h*
  349   2  1011  1009 # o*-h*
  350   2  1011  1010 # o*-h*
  351   2  1014  1012 # o*-h*
  352   2  1014  1013 # o*-h*
  353   2  1017  1015 # o*-h*
  354   2  1017  1016 # o*-h*
  355   2  1020  1018 # o*-h*
  356   2  1020  1019 # o*-h*
  357   2  1023  1021 # o*-h*
  358   2  1023  1022 # o*-h*
  359   2  1026  1024 # o*-h*
  360   2  1026  1025 # o*-h*
  361   2  1029  1027 # o*-h*
  362   2  1029  1028 # o*-h*
  363   2  1032  1030 # o*-h*
  364   2  1032  1031 # o*-h*
  365   2  1035  1033 # o*-h*
  366   2  1035  1034 # o*-h*
  367   2  1038  1036 # o*-h*
  368   2  1038  1037 # o*-h*
  369   2  1041  1039 # o*-h*
  370   2  1041  1040 # o*-h*
  371   2  1044  1042 # o*-h*
  372   2  1044  1043 # o*-h*
  373   2  1047  1045 # o*-h*
  374   2  1047  1046 # o*-h*
  375   2  1050  1048 # o*-h*
  376   2  1050  1049 # o*-h*
  377   2  1053  1051 # o*-h*
  378   2  1053  1052 # o*-h*
  379   2  1056  1054 # o*-h*
  380   2  1056  1055 # o*-h*
  381   2  1059  1057 # o*-h*
  382   2  1059  1058 # o*-h*
  383   2  1062  1060 # o*-h*
  384   2  1062  1061 # o*-h*
  385   2  1065  1063 # o*-h*
  386   2  1065  1064 # o*-h*
  387   2  1068  1066 # o*-h*
  388   2  1068  1067 # o*-h*
  389   2  1071  1069 # o*-h*
  390   2  1071  1070 # o*-h*
  391   2  1074  1072 # o*-h*
  392   2  1074  1073 # o*-h*
  393   2  1077  1075 # o*-h*
  394   2  1077  1076 # o*-h*
  395   2  1080  1078 # o*-h*
  396   2  1080  1079 # o*-h*
  397   2  1083  1081 # o*-h*
  398   2  1083  1082 # o*-h*
  399   2  1086  1084 # o*-h*
  400   2  1086  1085 # o*-h*
  401   2  1089  1087 # o*-h*
  402   2  1089  1088 # o*-h*
  403   2  1092  1090 # o*-h*
  404   2  1092  1091 # o*-h*
  405   2  1095  1093 # o*-h*
  406   2  1095  1094 # o*-h*
  407   2  1098  1096 # o*-h*
  408   2  1098  1097 # o*-h*
  409   2  1101  1099 # o*-h*
  410   2  1101  1100 # o*-h*
  411   2  1104  1102 # o*-h*
  412   2  1104  1103 # o*-h*
  413   2  1107  1105 # o*-h*
  414   2  1107  1106 # o*-h*
  415   2  1110  1108 # o*-h*
  416   2  1110  1109 # o*-h*
  417   2  1113  1111 # o*-h*
  418   2  1113  1112 # o*-h*
  419   2  1116  1114 # o*-h*
  420   2  1116  1115 # o*-h*
  421   2  1119  1117 # o*-h*
  422   2  1119  1118 # o*-h*
  423   2  1122  1120 # o*-h*
  424   2  1122  1121 # o*-h*
  425   2  1125  1123 # o*-h*
  426   2  1125  1124 # o*-h*
  427   2  1128  1126 # o*-h*
  428   2  1128  1127 # o*-h*
  429   2  1131  1129 # o*-h*
  430   2  1131  1130 # o*-h*
  431   2  1134  1132 # o*-h*
  432   2  1134  1133 # o*-h*
  433   2  1137  1135 # o*-h*
  434   2  1137  1136 # o*-h*
  435   2  1140  1138 # o*-h*
  436   2  1140  1139 # o*-h*
  437   2  1143  1141 # o*-h*
  438   2  1143  1142 # o*-h*
  439   2  1146  1144 # o*-h*
  440   2  1146  1145 # o*-h*
  441   2  1149  1147 # o*-h*
  442   2  1149  1148 # o*-h*
  443   2  1152  1150 # o*-h*
  444   2  1152  1151 # o*-h*
  445   2  1155  1153 # o*-h*
  446   2  1155  1154 # o*-h*
  447   2  1158  1156 # o*-h*
  448   2  1158  1157 # o*-h*
  449   2  1161  1159 # o*-h*
  450   2  1161  1160 # o*-h*
  451   2  1164  1162 # o*-h*
  452   2  1164  1163 # o*-h*
  453   2  1167  1165 # o*-h*
  454   2  1167  1166 # o*-h*
  455   2  1170  1168 # o*-h*
  456   2  1170  1169 # o*-h*
  457   2  1173  1171 # o*-h*
  458   2  1173  1172 # o*-h*
  459   2  1176  1174 # o*-h*
  460   2  1176  1175 # o*-h*
  461   2  1179  1177 # o*-h*
  462   2  1179  1178 # o*-h*
  463   2  1182  1180 # o*-h*
  464   2  1182  1181 # o*-h*
  465   2  1185  1183 # o*-h*
  466   2  1185  1184 # o*-h*
  467   2  1188  1186 # o*-h*
  468   2  1188  1187 # o*-h*
  469   2  1191  1189 # o*-h*
  470   2  1191  1190 # o*-h*
  471   2  1194  1192 # o*-h*
  472   2  1194  1193 # o*-h*
  473   2  1197  1195 # o*-h*
  474   2  1197  1196 # o*-h*
  475   2  1200  1198 # o*-h*
  476   2  1200  1199 # o*-h*
  477   2  1203  1201 # o*-h*
  478   2  1203  1202 # o*-h*
  479   2  1206  1204 # o*-h*
  480   2  1206  1205 # o*-h*
  481   2  1209  1207 # o*-h*
  482   2  1209  1208 # o*-h*
  483   2  1212  1210 # o*-h*
  484   2  1212  1211 # o*-h*
  485   2  1215  1213 # o*-h*
  486   2  1215  1214 # o*-h*
  487   2  1218  1216 # o*-h*
  488   2  1218  1217 # o*-h*
  489   2  1221  1219 # o*-h*
  490   2  1221  1220 # o*-h*
  491   2  1224  1222 # o*-h*
  492   2  1224  1223 # o*-h*
  493   2  1227  1225 # o*-h*
  494   2  1227  1226 # o*-h*
  495   2  1230  1228 # o*-h*
  496   2  1230  1229 # o*-h*
  497   2  1233  1231 # o*-h*
  498   2  1233  1232 # o*-h*
  499   2  1236  1234 # o*-h*
  500   2  1236  1235 # o*-h*
  501   2  1239  1237 # o*-h*
  502   2  1239  1238 # o*-h*
  503   2  1242  1240 # o*-h*
  504   2  1242  1241 # o*-h*
  505   2  1245  1243 # o*-h*
  506   2  1245  1244 # o*-h*
  507   2  1248  1246 # o*-h*
  508   2  1248  1247 # o*-h*
  509   2  1251  1249 # o*-h*
  510   2  1251  1250 # o*-h*
  511   2  1254  1252 # o*-h*
  512   2  1254  1253 # o*-h*
  513   2  1257  1255 # o*-h*
  514   2  1257  1256 # o*-h*
  515   2  1260  1258 # o*-h*
  516   2  1260  1259 # o*-h*
  517   2  1263  1261 # o*-h*
  518   2  1263  1262 # o*-h*
  519   2  1266  1264 # o*-h*
  520   2  1266  1265 # o*-h*
  521   2  1269  1267 # o*-h*
  522   2  1269  1268 # o*-h*
  523   2  1272  1270 # o*-h*
  524   2  1272  1271 # o*-h*
  525   2  1275  1273 # o*-h*
  526   2  1275  1274 # o*-h*
  527   2  1278  1276 # o*-h*
  528   2  1278  1277 # o*-h*
  529   2  1281  1279 # o*-h*
  530   2  1281  1280 # o*-h*
  531   2  1284  1282 # o*-h*
  532   2  1284  1283 # o*-h*
  533   2  1287  1285 # o*-h*
  534   2  1287  1286 # o*-h*
  535   2  1290  1288 # o*-h*
  536   2  1290  1289 # o*-h*
  537   2  1293  1291 # o*-h*
  538   2  1293  1292 # o*-h*
  539   2  1296  1294 # o*-h*
  540   2  1296  1295 # o*-h*
  541   2  1299  1297 # o*-h*
  542   2  1299  1298 # o*-h*
  543   2  1302  1300 # o*-h*
  544   2  1302  1301 # o*-h*
  545   2  1305  1303 # o*-h*
  546   2  1305  1304 # o*-h*
  547   2  1308  1306 # o*-h*
  548   2  1308  1307 # o*-h*
  549   2  1311  1309 # o*-h*
  550   2  1311  1310 # o*-h*
  551   2  1314  1312 # o*-h*
  552   2  1314  1313 # o*-h*
  553   2  1317  1315 # o*-h*
  554   2  1317  1316 # o*-h*
  555   2  1320  1318 # o*-h*
  556   2  1320  1319 # o*-h*
  557   2  1323  1321 # o*-h*
  558   2  1323  1322 # o*-h*
  559   2  1326  1324 # o*-h*
  560   2  1326  1325 # o*-h*
  561   2  1329  1327 # o*-h*
  562   2  1329  1328 # o*-h*
  563   2  1332  1330 # o*-h*
  564   2  1332  1331 # o*-h*
  565   2  1335  1333 # o*-h*
  566   2  1335  1334 # o*-h*
  567   2  1338  1336 # o*-h*
  568   2  1338  1337 # o*-h*
  569   2  1341  1339 # o*-h*
  570   2  1341  1340 # o*-h*
  571   2  1344  1342 # o*-h*
  572   2  1344  1343 # o*-h*
  573   2  1347  1345 # o*-h*
  574   2  1347  1346 # o*-h*
  575   2  1350  1348 # o*-h*
  576   2  1350  1349 # o*-h*
  577   2  1353  1351 # o*-h*
  578   2  1353  1352 # o*-h*
  579   2  1356  1354 # o*-h*
  580   2  1356  1355 # o*-h*
  581   2  1359  1357 # o*-h*
  582   2  1359  1358 # o*-h*
  583   2  1362  1360 # o*-h*
  584   2  1362  1361 # o*-h*
  585   2  1365  1363 # o*-h*
  586   2  1365  1364 # o*-h*
  587   2  1368  1366 # o*-h*
  588   2  1368  1367 # o*-h*
  589   2  1371  1369 # o*-h*
  590   2  1371  1370 # o*-h*
  591   2  1374  1372 # o*-h*
  592   2  1374  1373 # o*-h*
  593   2  1377  1375 # o*-h*
  594   2  1377  1376 # o*-h*
  595   2  1380  1378 # o*-h*
  596   2  1380  1379 # o*-h*
  597   2  1383  1381 # o*-h*
  598   2  1383  1382 # o*-h*
  599   2  1386  1384 # o*-h*
  600   2  1386  1385 # o*-h*
  601   2  1389  1387 # o*-h*
  602   2  1389  1388 # o*-h*
  603   2  1392  1390 # o*-h*
  604   2  1392  1391 # o*-h*
  605   2  1395  1393 # o*-h*
  606   2  1395  1394 # o*-h*
  607   2  1398  1396 # o*-h*
  608   2  1398  1397 # o*-h*
  609   2  1401  1399 # o*-h*
  610   2  1401  1400 # o*-h*
  611   2  1404  1402 # o*-h*
  612   2  1404  1403 # o*-h*
  613   2  1407  1405 # o*-h*
  614   2  1407  1406 # o*-h*
  615   2  1410  1408 # o*-h*
  616   2  1410  1409 # o*-h*
  617   2  1413  1411 # o*-h*
  618   2  1413  1412 # o*-h*
  619   2  1416  1414 # o*-h*
  620   2  1416  1415 # o*-h*
  621   2  1419  1417 # o*-h*
  622   2  1419  1418 # o*-h*
  623   2  1422  1420 # o*-h*
  624   2  1422  1421 # o*-h*
  625   2  1425  1423 # o*-h*
  626   2  1425  1424 # o*-h*
  627   2  1428  1426 # o*-h*
  628   2  1428  1427 # o*-h*
  629   2  1431  1429 # o*-h*
  630   2  1431  1430 # o*-h*
  631   2  1434  1432 # o*-h*
  632   2  1434  1433 # o*-h*
  633   2  1437  1435 # o*-h*
  634   2  1437  1436 # o*-h*
  635   2  1440  1438 # o*-h*
  636   2  1440  1439 # o*-h*
  637   2  1443  1441 # o*-h*
  638   2  1443  1442 # o*-h*
  639   2  1446  1444 # o*-h*
  640   2  1446  1445 # o*-h*
  641   2  1449  1447 # o*-h*
  642   2  1449  1448 # o*-h*
  643   2  1452  1450 # o*-h*
  644   2  1452  1451 # o*-h*
  645   2  1455  1453 # o*-h*
  646   2  1455  1454 # o*-h*
  647   2  1458  1456 # o*-h*
  648   2  1458  1457 # o*-h*
  649   2  1461  1459 # o*-h*
  650   2  1461  1460 # o*-h*
  651   2  1464  1462 # o*-h*
  652   2  1464  1463 # o*-h*
  653   2  1467  1465 # o*-h*
  654   2  1467  1466 # o*-h*
  655   2  1470  1468 # o*-h*
  656   2  1470  1469 # o*-h*
  657   2  1473  1471 # o*-h*
  658   2  1473  1472 # o*-h*
  659   2  1476  1474 # o*-h*
  660   2  1476  1475 # o*-h*
  661   2  1479  1477 # o*-h*
  662   2  1479  1478 # o*-h*
  663   2  1482  1480 # o*-h*
  664   2  1482  1481 # o*-h*
  665   2  1485  1483 # o*-h*
  666   2  1485  1484 # o*-h*
  667   2  1488  1486 # o*-h*
  668   2  1488  1487 # o*-h*
  669   2  1491  1489 # o*-h*
  670   2  1491  1490 # o*-h*
  671   2  1494  1492 # o*-h*
  672   2  1494  1493 # o*-h*
  673   2  1497  1495 # o*-h*
  674   2  1497  1496 # o*-h*
  675   2  1500  1498 # o*-h*
  676   2  1500  1499 # o*-h*
  677   2  1503  1501 # o*-h*
  678   2  1503  1502 # o*-h*
  679   2  1506  1504 # o*-h*
  680   2  1506  1505 # o*-h*
  681   2  1509  1507 # o*-h*
  682   2  1509  1508 # o*-h*
  683   2  1512  1510 # o*-h*
  684   2  1512  1511 # o*-h*
  685   2  1515  1513 # o*-h*
  686   2  1515  1514 # o*-h*
  687   2  1518  1516 # o*-h*
  688   2  1518  1517 # o*-h*
  689   2  1521  1519 # o*-h*
  690   2  1521  1520 # o*-h*
  691   2  1524  1522 # o*-h*
  692   2  1524  1523 # o*-h*
  693   2  1527  1525 # o*-h*
  694   2  1527  1526 # o*-h*
  695   2  1530  1528 # o*-h*
  696   2  1530  1529 # o*-h*
  697   2  1533  1531 # o*-h*
  698   2  1533  1532 # o*-h*
  699   2  1536  1534 # o*-h*
  700   2  1536  1535 # o*-h*
  701   2  1539  1537 # o*-h*
  702   2  1539  1538 # o*-h*
  703   2  1542  1540 # o*-h*
  704   2  1542  1541 # o*-h*
  705   2  1545  1543 # o*-h*
  706   2  1545  1544 # o*-h*
  707   2  1548  1546 # o*-h*
  708   2  1548  1547 # o*-h*
  709   2  1551  1549 # o*-h*
  710   2  1551  1550 # o*-h*
  711   2  1554  1552 # o*-h*
  712   2  1554  1553 # o*-h*
  713   2  1557  1555 # o*-h*
  714   2  1557  1556 # o*-h*
  715   2  1560  1558 # o*-h*
  716   2  1560  1559 # o*-h*
  717   2  1563  1561 # o*-h*
  718   2  1563  1562 # o*-h*
  719   2  1566  1564 # o*-h*
  720   2  1566  1565 # o*-h*
  721   2  1569  1567 # o*-h*
  722   2  1569  1568 # o*-h*
  723   2  1572  1570 # o*-h*
  724   2  1572  1571 # o*-h*
  725   2  1575  1573 # o*-h*
  726   2  1575  1574 # o*-h*
  727   2  1578  1576 # o*-h*
  728   2  1578  1577 # o*-h*
  729   2  1581  1579 # o*-h*
  730   2  1581  1580 # o*-h*
  731   2  1584  1582 # o*-h*
  732   2  1584  1583 # o*-h*
  733   2  1587  1585 # o*-h*
  734   2  1587  1586 # o*-h*
  735   2  1590  1588 # o*-h*
  736   2  1590  1589 # o*-h*
  737   2  1593  1591 # o*-h*
  738   2  1593  1592 # o*-h*
  739   2  1596  1594 # o*-h*
  740   2  1596  1595 # o*-h*
  741   2  1599  1597 # o*-h*
  742   2  1599  1598 # o*-h*
  743   2  1602  1600 # o*-h*
  744   2  1602  1601 # o*-h*
  745   2  1605  1603 # o*-h*
  746   2  1605  1604 # o*-h*
  747   2  1608  1606 # o*-h*
  748   2  1608  1607 # o*-h*
  749   2  1611  1609 # o*-h*
  750   2  1611  1610 # o*-h*
  751   2  1614  1612 # o*-h*
  752   2  1614  1613 # o*-h*
  753   2  1617  1615 # o*-h*
  754   2  1617  1616 # o*-h*
  755   2  1620  1618 # o*-h*
  756   2  1620  1619 # o*-h*
  757   2  1623  1621 # o*-h*
  758   2  1623  1622 # o*-h*
  759   2  1626  1624 # o*-h*
  760   2  1626  1625 # o*-h*
  761   2  1629  1627 # o*-h*
  762   2  1629  1628 # o*-h*
  763   2  1632  1630 # o*-h*
  764   2  1632  1631 # o*-h*
  765   2  1635  1633 # o*-h*
  766   2  1635  1634 # o*-h*
  767   2  1638  1636 # o*-h*
  768   2  1638  1637 # o*-h*
  769   2  1641  1639 # o*-h*
  770   2  1641  1640 # o*-h*
  771   2  1644  1642 # o*-h*
  772   2  1644  1643 # o*-h*
  773   2  1647  1645 # o*-h*
  774   2  1647  1646 # o*-h*
  775   2  1650  1648 # o*-h*
  776   2  1650  1649 # o*-h*
  777   2  1653  1651 # o*-h*
  778   2  1653  1652 # o*-h*
  779   2  1656  1654 # o*-h*
  780   2  1656  1655 # o*-h*
  781   2  1659  1657 # o*-h*
  782   2  1659  1658 # o*-h*
  783   2  1662  1660 # o*-h*
  784   2  1662  1661 # o*-h*
  785   2  1665  1663 # o*-h*
  786   2  1665  1664 # o*-h*
  787   2  1668  1666 # o*-h*
  788   2  1668  1667 # o*-h*
  789   2  1671  1669 # o*-h*
  790   2  1671  1670 # o*-h*
  791   2  1674  1672 # o*-h*
  792   2  1674  1673 # o*-h*
  793   2  1677  1675 # o*-h*
  794   2  1677  1676 # o*-h*
  795   2  1680  1678 # o*-h*
  796   2  1680  1679 # o*-h*
  797   2  1683  1681 # o*-h*
  798   2  1683  1682 # o*-h*
  799   2  1686  1684 # o*-h*
  800   2  1686  1685 # o*-h*
  801   2  1689  1687 # o*-h*
  802   2  1689  1688 # o*-h*
  803   2  1692  1690 # o*-h*
  804   2  1692  1691 # o*-h*
  805   2  1695  1693 # o*-h*
  806   2  1695  1694 # o*-h*
  807   2  1698  1696 # o*-h*
  808   2  1698  1697 # o*-h*
  809   2  1701  1699 # o*-h*
  810   2  1701  1700 # o*-h*
  811   2  1704  1702 # o*-h*
  812   2  1704  1703 # o*-h*
  813   2  1707  1705 # o*-h*
  814   2  1707  1706 # o*-h*
  815   2  1710  1708 # o*-h*
  816   2  1710  1709 # o*-h*
  817   2  1713  1711 # o*-h*
  818   2  1713  1712 # o*-h*
  819   2  1716  1714 # o*-h*
  820   2  1716  1715 # o*-h*
  821   2  1719  1717 # o*-h*
  822   2  1719  1718 # o*-h*
  823   2  1722  1720 # o*-h*
  824   2  1722  1721 # o*-h*
  825   2  1725  1723 # o*-h*
  826   2  1725  1724 # o*-h*
  827   2  1728  1726 # o*-h*
  828   2  1728  1727 # o*-h*
  829   2  1731  1729 # o*-h*
  830   2  1731  1730 # o*-h*
  831   2  1734  1732 # o*-h*
  832   2  1734  1733 # o*-h*
  833   2  1737  1735 # o*-h*
  834   2  1737  1736 # o*-h*
  835   2  1740  1738 # o*-h*
  836   2  1740  1739 # o*-h*
  837   2  1743  1741 # o*-h*
  838   2  1743  1742 # o*-h*
  839   2  1746  1744 # o*-h*
  840   2  1746  1745 # o*-h*
  841   2  1749  1747 # o*-h*
  842   2  1749  1748 # o*-h*
  843   2  1752  1750 # o*-h*
  844   2  1752  1751 # o*-h*
  845   2  1755  1753 # o*-h*
  846   2  1755  1754 # o*-h*
  847   2  1758  1756 # o*-h*
  848   2  1758  1757 # o*-h*
  849   2  1761  1759 # o*-h*
  850   2  1761  1760 # o*-h*
  851   2  1764  1762 # o*-h*
  852   2  1764  1763 # o*-h*
  853   2  1767  1765 # o*-h*
  854   2  1767  1766 # o*-h*
  855   2  1770  1768 # o*-h*
  856   2  1770  1769 # o*-h*
  857   2  1773  1771 # o*-h*
  858   2  1773  1772 # o*-h*
  859   2  1776  1774 # o*-h*
  860   2  1776  1775 # o*-h*
  861   2  1779  1777 # o*-h*
  862   2  1779  1778 # o*-h*
  863   2  1782  1780 # o*-h*
  864   2  1782  1781 # o*-h*
  865   2  1785  1783 # o*-h*
  866   2  1785  1784 # o*-h*
  867   2  1788  1786 # o*-h*
  868   2  1788  1787 # o*-h*
  869   2  1791  1789 # o*-h*
  870   2  1791  1790 # o*-h*
  871   2  1794  1792 # o*-h*
  872   2  1794  1793 # o*-h*
  873   2  1797  1795 # o*-h*
  874   2  1797  1796 # o*-h*
  875   2  1800  1798 # o*-h*
  876   2  1800  1799 # o*-h*
  877   2  1803  1801 # o*-h*
  878   2  1803  1802 # o*-h*
  879   2  1806  1804 # o*-h*
  880   2  1806  1805 # o*-h*
  881   2  1809  1807 # o*-h*
  882   2  1809  1808 # o*-h*
  883   2  1812  1810 # o*-h*
  884   2  1812  1811 # o*-h*
  885   2  1815  1813 # o*-h*
  886   2  1815  1814 # o*-h*
  887   2  1818  1816 # o*-h*
  888   2  1818  1817 # o*-h*
  889   2  1821  1819 # o*-h*
  890   2  1821  1820 # o*-h*
  891   2  1824  1822 # o*-h*
  892   2  1824  1823 # o*-h*
  893   2  1827  1825 # o*-h*
  894   2  1827  1826 # o*-h*
  895   2  1830  1828 # o*-h*
  896   2  1830  1829 # o*-h*
  897   2  1833  1831 # o*-h*
  898   2  1833  1832 # o*-h*
  899   2  1836  1834 # o*-h*
  900   2  1836  1835 # o*-h*
  901   2  1839  1837 # o*-h*
  902   2  1839  1838 # o*-h*
  903   2  1842  1840 # o*-h*
  904   2  1842  1841 # o*-h*
  905   2  1845  1843 # o*-h*
  906   2  1845  1844 # o*-h*
  907   2  1848  1846 # o*-h*
  908   2  1848  1847 # o*-h*
  909   2  1851  1849 # o*-h*
  910   2  1851  1850 # o*-h*
  911   2  1854  1852 # o*-h*
  912   2  1854  1853 # o*-h*
  913   2  1857  1855 # o*-h*
  914   2  1857  1856 # o*-h*
  915   2  1860  1858 # o*-h*
  916   2  1860  1859 # o*-h*
  917   2  1863  1861 # o*-h*
  918   2  1863  1862 # o*-h*
  919   2  1866  1864 # o*-h*
  920   2  1866  1865 # o*-h*
  921   2  1869  1867 # o*-h*
  922   2  1869  1868 # o*-h*
  923   2  1872  1870 # o*-h*
  924   2  1872  1871 # o*-h*
  925   2  1875  1873 # o*-h*
  926   2  1875  1874 # o*-h*
  927   2  1878  1876 # o*-h*
  928   2  1878  1877 # o*-h*
  929   2  1881  1879 # o*-h*
  930   2  1881  1880 # o*-h*
  931   2  1884  1882 # o*-h*
  932   2  1884  1883 # o*-h*
  933   2  1887  1885 # o*-h*
  934   2  1887  1886 # o*-h*
  935   2  1890  1888 # o*-h*
  936   2  1890  1889 # o*-h*
  937   2  1893  1891 # o*-h*
  938   2  1893  1892 # o*-h*
  939   2  1896  1894 # o*-h*
  940   2  1896  1895 # o*-h*
  941   2  1899  1897 # o*-h*
  942   2  1899  1898 # o*-h*
  943   2  1902  1900 # o*-h*
  944   2  1902  1901 # o*-h*
  945   2  1905  1903 # o*-h*
  946   2  1905  1904 # o*-h*
  947   2  1908  1906 # o*-h*
  948   2  1908  1907 # o*-h*
  949   2  1911  1909 # o*-h*
  950   2  1911  1910 # o*-h*
  951   2  1914  1912 # o*-h*
  952   2  1914  1913 # o*-h*
  953   2  1917  1915 # o*-h*
  954   2  1917  1916 # o*-h*
  955   2  1920  1918 # o*-h*
  956   2  1920  1919 # o*-h*
  957   2  1923  1921 # o*-h*
  958   2  1923  1922 # o*-h*
  959   2  1926  1924 # o*-h*
  960   2  1926  1925 # o*-h*
  961   2  1929  1927 # o*-h*
  962   2  1929  1928 # o*-h*
  963   2  1932  1930 # o*-h*
  964   2  1932  1931 # o*-h*
  965   2  1935  1933 # o*-h*
  966   2  1935  1934 # o*-h*
  967   2  1938  1936 # o*-h*
  968   2  1938  1937 # o*-h*
  969   2  1941  1939 # o*-h*
  970   2  1941  1940 # o*-h*
  971   2  1944  1942 # o*-h*
  972   2  1944  1943 # o*-h*
  973   2  1947  1945 # o*-h*
  974   2  1947  1946 # o*-h*
  975   2  1950  1948 # o*-h*
  976   2  1950  1949 # o*-h*
  977   2  1953  1951 # o*-h*
  978   2  1953  1952 # o*-h*
  979   2  1956  1954 # o*-h*
  980   2  1956  1955 # o*-h*
  981   2  1959  1957 # o*-h*
  982   2  1959  1958 # o*-h*
  983   2  1962  1960 # o*-h*
  984   2  1962  1961 # o*-h*
  985   2  1965  1963 # o*-h*
  986   2  1965  1964 # o*-h*
  987   2  1968  1966 # o*-h*
  988   2  1968  1967 # o*-h*
  989   2  1971  1969 # o*-h*
  990   2  1971  1970 # o*-h*
  991   2  1974  1972 # o*-h*
  992   2  1974  1973 # o*-h*
  993   2  1977  1975 # o*-h*
  994   2  1977  1976 # o*-h*
  995   2  1980  1978 # o*-h*
  996   2  1980  1979 # o*-h*
  997   2  1983  1981 # o*-h*
  998   2  1983  1982 # o*-h*
  999   2  1986  1984 # o*-h*
 1000   2  1986  1985 # o*-h*
 1001   2  1989  1987 # o*-h*
 1002   2  1989  1988 # o*-h*
 1003   2  1992  1990 # o*-h*
 1004   2  1992  1991 # o*-h*
 1005   2  1995  1993 # o*-h*
 1006   2  1995  1994 # o*-h*
 1007   2  1998  1996 # o*-h*
 1008   2  1998  1997 # o*-h*
 1009   2  2001  1999 # o*-h*
 1010   2  2001  2000 # o*-h*
 1011   2  2004  2002 # o*-h*
 1012   2  2004  2003 # o*-h*
 1013   3  2008  2005 # co-oc
 1014   3  2008  2006 # co-oc
 1015   3  2008  2007 # co-oc

Angles

    1   1     6    38    89 # st-oh-ho
    2   1     5    39    90 # st-oh-ho
    3   1   545    54    55 # st-oh-ho
    4   1   546    56    57 # st-oh-ho
    5   1     7    58    59 # st-oh-ho
    6   1     8    60    61 # st-oh-ho
    7   1    96   128   179 # st-oh-ho
    8   1    95   129   180 # st-oh-ho
    9   1   635   144   145 # st-oh-ho
   10   1   636   146   147 # st-oh-ho
   11   1    97   148   149 # st-oh-ho
   12   1    98   150   151 # st-oh-ho
   13   1   186   218   269 # st-oh-ho
   14   1   185   219   270 # st-oh-ho
   15   1   725   234   235 # st-oh-ho
   16   1   726   236   237 # st-oh-ho
   17   1   187   238   239 # st-oh-ho
   18   1   188   240   241 # st-oh-ho
   19   1   276   308   359 # st-oh-ho
   20   1   275   309   360 # st-oh-ho
   21   1     5   324   325 # st-oh-ho
   22   1     6   326   327 # st-oh-ho
   23   1   277   328   329 # st-oh-ho
   24   1   278   330   331 # st-oh-ho
   25   1   366   398   449 # st-oh-ho
   26   1   365   399   450 # st-oh-ho
   27   1    95   414   415 # st-oh-ho
   28   1    96   416   417 # st-oh-ho
   29   1   367   418   419 # st-oh-ho
   30   1   368   420   421 # st-oh-ho
   31   1   456   488   539 # st-oh-ho
   32   1   455   489   540 # st-oh-ho
   33   1   185   504   505 # st-oh-ho
   34   1   186   506   507 # st-oh-ho
   35   1   457   508   509 # st-oh-ho
   36   1   458   510   511 # st-oh-ho
   37   1   546   578   629 # st-oh-ho
   38   1   545   579   630 # st-oh-ho
   39   1   275   594   595 # st-oh-ho
   40   1   276   596   597 # st-oh-ho
   41   1   547   598   599 # st-oh-ho
   42   1   548   600   601 # st-oh-ho
   43   1   636   668   719 # st-oh-ho
   44   1   635   669   720 # st-oh-ho
   45   1   365   684   685 # st-oh-ho
   46   1   366   686   687 # st-oh-ho
   47   1   637   688   689 # st-oh-ho
   48   1   638   690   691 # st-oh-ho
   49   1   726   758   809 # st-oh-ho
   50   1   725   759   810 # st-oh-ho
   51   1   455   774   775 # st-oh-ho
   52   1   456   776   777 # st-oh-ho
   53   1   727   778   779 # st-oh-ho
   54   1   728   780   781 # st-oh-ho
   55   2    64    62    63 # h*-o*-h*
   56   2    67    65    66 # h*-o*-h*
   57   2    70    68    69 # h*-o*-h*
   58   2    73    71    72 # h*-o*-h*
   59   2    75    74    76 # h*-o*-h*
   60   2    79    77    78 # h*-o*-h*
   61   2   351    80   352 # h*-o*-h*
   62   2    84    83    85 # h*-o*-h*
   63   2    88    86    87 # h*-o*-h*
   64   2   154   152   153 # h*-o*-h*
   65   2   156   155   157 # h*-o*-h*
   66   2   160   158   159 # h*-o*-h*
   67   2   162   161   163 # h*-o*-h*
   68   2   166   164   165 # h*-o*-h*
   69   2   169   167   168 # h*-o*-h*
   70   2   441   170   442 # h*-o*-h*
   71   2   174   173   175 # h*-o*-h*
   72   2   178   176   177 # h*-o*-h*
   73   2   244   242   243 # h*-o*-h*
   74   2   247   245   246 # h*-o*-h*
   75   2   250   248   249 # h*-o*-h*
   76   2   252   251   253 # h*-o*-h*
   77   2   256   254   255 # h*-o*-h*
   78   2   258   257   259 # h*-o*-h*
   79   2   531   260   532 # h*-o*-h*
   80   2   264   263   265 # h*-o*-h*
   81   2   268   266   267 # h*-o*-h*
   82   2   333   332   334 # h*-o*-h*
   83   2   336   335   337 # h*-o*-h*
   84   2   340   338   339 # h*-o*-h*
   85   2   343   341   342 # h*-o*-h*
   86   2   346   344   345 # h*-o*-h*
   87   2   348   347   349 # h*-o*-h*
   88   2   621   350   622 # h*-o*-h*
   89   2   355   353   354 # h*-o*-h*
   90   2   358   356   357 # h*-o*-h*
   91   2   424   422   423 # h*-o*-h*
   92   2   426   425   427 # h*-o*-h*
   93   2   430   428   429 # h*-o*-h*
   94   2   432   431   433 # h*-o*-h*
   95   2   436   434   435 # h*-o*-h*
   96   2   439   437   438 # h*-o*-h*
   97   2   712   440   711 # h*-o*-h*
   98   2   444   443   445 # h*-o*-h*
   99   2   448   446   447 # h*-o*-h*
  100   2   514   512   513 # h*-o*-h*
  101   2   516   515   517 # h*-o*-h*
  102   2   519   518   520 # h*-o*-h*
  103   2   522   521   523 # h*-o*-h*
  104   2   526   524   525 # h*-o*-h*
  105   2   528   527   529 # h*-o*-h*
  106   2   801   530   802 # h*-o*-h*
  107   2   535   533   534 # h*-o*-h*
  108   2   537   536   538 # h*-o*-h*
  109   2   603   602   604 # h*-o*-h*
  110   2   607   605   606 # h*-o*-h*
  111   2   609   608   610 # h*-o*-h*
  112   2   613   611   612 # h*-o*-h*
  113   2   615   614   616 # h*-o*-h*
  114   2   619   617   618 # h*-o*-h*
  115   2    81   620    82 # h*-o*-h*
  116   2   624   623   625 # h*-o*-h*
  117   2   627   626   628 # h*-o*-h*
  118   2   693   692   694 # h*-o*-h*
  119   2   696   695   697 # h*-o*-h*
  120   2   699   698   700 # h*-o*-h*
  121   2   702   701   703 # h*-o*-h*
  122   2   705   704   706 # h*-o*-h*
  123   2   709   707   708 # h*-o*-h*
  124   2   171   710   172 # h*-o*-h*
  125   2   715   713   714 # h*-o*-h*
  126   2   718   716   717 # h*-o*-h*
  127   2   783   782   784 # h*-o*-h*
  128   2   787   785   786 # h*-o*-h*
  129   2   789   788   790 # h*-o*-h*
  130   2   793   791   792 # h*-o*-h*
  131   2   795   794   796 # h*-o*-h*
  132   2   799   797   798 # h*-o*-h*
  133   2   261   800   262 # h*-o*-h*
  134   2   805   803   804 # h*-o*-h*
  135   2   808   806   807 # h*-o*-h*
  136   2   812   813   811 # h*-o*-h*
  137   2   815   816   814 # h*-o*-h*
  138   2   817   819   818 # h*-o*-h*
  139   2   820   822   821 # h*-o*-h*
  140   2   823   825   824 # h*-o*-h*
  141   2   826   828   827 # h*-o*-h*
  142   2   830   831   829 # h*-o*-h*
  143   2   832   834   833 # h*-o*-h*
  144   2   836   837   835 # h*-o*-h*
  145   2   838   840   839 # h*-o*-h*
  146   2   841   843   842 # h*-o*-h*
  147   2   844   846   845 # h*-o*-h*
  148   2   848   849   847 # h*-o*-h*
  149   2   851   852   850 # h*-o*-h*
  150   2   854   855   853 # h*-o*-h*
  151   2   857   858   856 # h*-o*-h*
  152   2   859   861   860 # h*-o*-h*
  153   2   862   864   863 # h*-o*-h*
  154   2   866   867   865 # h*-o*-h*
  155   2   868   870   869 # h*-o*-h*
  156   2   872   873   871 # h*-o*-h*
  157   2   875   876   874 # h*-o*-h*
  158   2   878   879   877 # h*-o*-h*
  159   2   880   882   881 # h*-o*-h*
  160   2   884   885   883 # h*-o*-h*
  161   2   887   888   886 # h*-o*-h*
  162   2   889   891   890 # h*-o*-h*
  163   2   893   894   892 # h*-o*-h*
  164   2   896   897   895 # h*-o*-h*
  165   2   899   900   898 # h*-o*-h*
  166   2   902   903   901 # h*-o*-h*
  167   2   905   906   904 # h*-o*-h*
  168   2   907   909   908 # h*-o*-h*
  169   2   911   912   910 # h*-o*-h*
  170   2   914   915   913 # h*-o*-h*
  171   2   917   918   916 # h*-o*-h*
  172   2   919   921   920 # h*-o*-h*
  173   2   923   924   922 # h*-o*-h*
  174   2   925   927   926 # h*-o*-h*
  175   2   928   930   929 # h*-o*-h*
  176   2   931   933   932 # h*-o*-h*
  177   2   935   936   934 # h*-o*-h*
  178   2   938   939   937 # h*-o*-h*
  179   2   940   942   941 # h*-o*-h*
  180   2   943   945   944 # h*-o*-h*
  181   2   947   948   946 # h*-o*-h*
  182   2   949   951   950 # h*-o*-h*
  183   2   952   954   953 # h*-o*-h*
  184   2   955   957   956 # h*-o*-h*
  185   2   959   960   958 # h*-o*-h*
  186   2   962   963   961 # h*-o*-h*
  187   2   964   966   965 # h*-o*-h*
  188   2   967   969   968 # h*-o*-h*
  189   2   970   972   971 # h*-o*-h*
  190   2   973   975   974 # h*-o*-h*
  191   2   977   978   976 # h*-o*-h*
  192   2   980   981   979 # h*-o*-h*
  193   2   983   984   982 # h*-o*-h*
  194   2   986   987   985 # h*-o*-h*
  195   2   989   990   988 # h*-o*-h*
  196   2   991   993   992 # h*-o*-h*
  197   2   995   996   994 # h*-o*-h*
  198   2   998   999   997 # h*-o*-h*
  199   2  1000  1002  1001 # h*-o*-h*
  200   2  1003  1005  1004 # h*-o*-h*
  201   2  1006  1008  1007 # h*-o*-h*
  202   2  1009  1011  1010 # h*-o*-h*
  203   2  1013  1014  1012 # h*-o*-h*
  204   2  1015  1017  1016 # h*-o*-h*
  205   2  1018  1020  1019 # h*-o*-h*
  206   2  1022  1023  1021 # h*-o*-h*
  207   2  1024  1026  1025 # h*-o*-h*
  208   2  1028  1029  1027 # h*-o*-h*
  209   2  1030  1032  1031 # h*-o*-h*
  210   2  1034  1035  1033 # h*-o*-h*
  211   2  1037  1038  1036 # h*-o*-h*
  212   2  1040  1041  1039 # h*-o*-h*
  213   2  1042  1044  1043 # h*-o*-h*
  214   2  1045  1047  1046 # h*-o*-h*
  215   2  1049  1050  1048 # h*-o*-h*
  216   2  1052  1053  1051 # h*-o*-h*
  217   2  1055  1056  1054 # h*-o*-h*
  218   2  1057  1059  1058 # h*-o*-h*
  219   2  1060  1062  1061 # h*-o*-h*
  220   2  1063  1065  1064 # h*-o*-h*
  221   2  1066  1068  1067 # h*-o*-h*
  222   2  1070  1071  1069 # h*-o*-h*
  223   2  1073  1074  1072 # h*-o*-h*
  224   2  1076  1077  1075 # h*-o*-h*
  225   2  1079  1080  1078 # h*-o*-h*
  226   2  1082  1083  1081 # h*-o*-h*
  227   2  1084  1086  1085 # h*-o*-h*
  228   2  1087  1089  1088 # h*-o*-h*
  229   2  1090  1092  1091 # h*-o*-h*
  230   2  1093  1095  1094 # h*-o*-h*
  231   2  1096  1098  1097 # h*-o*-h*
  232   2  1100  1101  1099 # h*-o*-h*
  233   2  1102  1104  1103 # h*-o*-h*
  234   2  1106  1107  1105 # h*-o*-h*
  235   2  1108  1110  1109 # h*-o*-h*
  236   2  1111  1113  1112 # h*-o*-h*
  237   2  1115  1116  1114 # h*-o*-h*
  238   2  1118  1119  1117 # h*-o*-h*
  239   2  1120  1122  1121 # h*-o*-h*
  240   2  1123  1125  1124 # h*-o*-h*
  241   2  1127  1128  1126 # h*-o*-h*
  242   2  1129  1131  1130 # h*-o*-h*
  243   2  1133  1134  1132 # h*-o*-h*
  244   2  1135  1137  1136 # h*-o*-h*
  245   2  1139  1140  1138 # h*-o*-h*
  246   2  1141  1143  1142 # h*-o*-h*
  247   2  1145  1146  1144 # h*-o*-h*
  248   2  1147  1149  1148 # h*-o*-h*
  249   2  1150  1152  1151 # h*-o*-h*
  250   2  1153  1155  1154 # h*-o*-h*
  251   2  1156  1158  1157 # h*-o*-h*
  252   2  1160  1161  1159 # h*-o*-h*
  253   2  1162  1164  1163 # h*-o*-h*
  254   2  1165  1167  1166 # h*-o*-h*
  255   2  1168  1170  1169 # h*-o*-h*
  256   2  1171  1173  1172 # h*-o*-h*
  257   2  1174  1176  1175 # h*-o*-h*
  258   2  1177  1179  1178 # h*-o*-h*
  259   2  1180  1182  1181 # h*-o*-h*
  260   2  1183  1185  1184 # h*-o*-h*
  261   2  1187  1188  1186 # h*-o*-h*
  262   2  1189  1191  1190 # h*-o*-h*
  263   2  1193  1194  1192 # h*-o*-h*
  264   2  1196  1197  1195 # h*-o*-h*
  265   2  1198  1200  1199 # h*-o*-h*
  266   2  1201  1203  1202 # h*-o*-h*
  267   2  1205  1206  1204 # h*-o*-h*
  268   2  1208  1209  1207 # h*-o*-h*
  269   2  1210  1212  1211 # h*-o*-h*
  270   2  1213  1215  1214 # h*-o*-h*
  271   2  1216  1218  1217 # h*-o*-h*
  272   2  1220  1221  1219 # h*-o*-h*
  273   2  1223  1224  1222 # h*-o*-h*
  274   2  1225  1227  1226 # h*-o*-h*
  275   2  1229  1230  1228 # h*-o*-h*
  276   2  1231  1233  1232 # h*-o*-h*
  277   2  1235  1236  1234 # h*-o*-h*
  278   2  1237  1239  1238 # h*-o*-h*
  279   2  1240  1242  1241 # h*-o*-h*
  280   2  1244  1245  1243 # h*-o*-h*
  281   2  1246  1248  1247 # h*-o*-h*
  282   2  1250  1251  1249 # h*-o*-h*
  283   2  1252  1254  1253 # h*-o*-h*
  284   2  1256  1257  1255 # h*-o*-h*
  285   2  1258  1260  1259 # h*-o*-h*
  286   2  1262  1263  1261 # h*-o*-h*
  287   2  1264  1266  1265 # h*-o*-h*
  288   2  1268  1269  1267 # h*-o*-h*
  289   2  1271  1272  1270 # h*-o*-h*
  290   2  1273  1275  1274 # h*-o*-h*
  291   2  1277  1278  1276 # h*-o*-h*
  292   2  1279  1281  1280 # h*-o*-h*
  293   2  1283  1284  1282 # h*-o*-h*
  294   2  1285  1287  1286 # h*-o*-h*
  295   2  1289  1290  1288 # h*-o*-h*
  296   2  1292  1293  1291 # h*-o*-h*
  297   2  1294  1296  1295 # h*-o*-h*
  298   2  1297  1299  1298 # h*-o*-h*
  299   2  1300  1302  1301 # h*-o*-h*
  300   2  1304  1305  1303 # h*-o*-h*
  301   2  1307  1308  1306 # h*-o*-h*
  302   2  1310  1311  1309 # h*-o*-h*
  303   2  1312  1314  1313 # h*-o*-h*
  304   2  1315  1317  1316 # h*-o*-h*
  305   2  1319  1320  1318 # h*-o*-h*
  306   2  1321  1323  1322 # h*-o*-h*
  307   2  1324  1326  1325 # h*-o*-h*
  308   2  1327  1329  1328 # h*-o*-h*
  309   2  1330  1332  1331 # h*-o*-h*
  310   2  1334  1335  1333 # h*-o*-h*
  311   2  1337  1338  1336 # h*-o*-h*
  312   2  1340  1341  1339 # h*-o*-h*
  313   2  1342  1344  1343 # h*-o*-h*
  314   2  1346  1347  1345 # h*-o*-h*
  315   2  1349  1350  1348 # h*-o*-h*
  316   2  1352  1353  1351 # h*-o*-h*
  317   2  1354  1356  1355 # h*-o*-h*
  318   2  1358  1359  1357 # h*-o*-h*
  319   2  1361  1362  1360 # h*-o*-h*
  320   2  1363  1365  1364 # h*-o*-h*
  321   2  1366  1368  1367 # h*-o*-h*
  322   2  1370  1371  1369 # h*-o*-h*
  323   2  1372  1374  1373 # h*-o*-h*
  324   2  1375  1377  1376 # h*-o*-h*
  325   2  1379  1380  1378 # h*-o*-h*
  326   2  1382  1383  1381 # h*-o*-h*
  327   2  1384  1386  1385 # h*-o*-h*
  328   2  1388  1389  1387 # h*-o*-h*
  329   2  1390  1392  1391 # h*-o*-h*
  330   2  1393  1395  1394 # h*-o*-h*
  331   2  1397  1398  1396 # h*-o*-h*
  332   2  1400  1401  1399 # h*-o*-h*
  333   2  1402  1404  1403 # h*-o*-h*
  334   2  1406  1407  1405 # h*-o*-h*
  335   2  1408  1410  1409 # h*-o*-h*
  336   2  1412  1413  1411 # h*-o*-h*
  337   2  1415  1416  1414 # h*-o*-h*
  338   2  1417  1419  1418 # h*-o*-h*
  339   2  1421  1422  1420 # h*-o*-h*
  340   2  1423  1425  1424 # h*-o*-h*
  341   2  1426  1428  1427 # h*-o*-h*
  342   2  1430  1431  1429 # h*-o*-h*
  343   2  1432  1434  1433 # h*-o*-h*
  344   2  1436  1437  1435 # h*-o*-h*
  345   2  1439  1440  1438 # h*-o*-h*
  346   2  1441  1443  1442 # h*-o*-h*
  347   2  1445  1446  1444 # h*-o*-h*
  348   2  1447  1449  1448 # h*-o*-h*
  349   2  1450  1452  1451 # h*-o*-h*
  350   2  1454  1455  1453 # h*-o*-h*
  351   2  1457  1458  1456 # h*-o*-h*
  352   2  1460  1461  1459 # h*-o*-h*
  353   2  1462  1464  1463 # h*-o*-h*
  354   2  1465  1467  1466 # h*-o*-h*
  355   2  1469  1470  1468 # h*-o*-h*
  356   2  1472  1473  1471 # h*-o*-h*
  357   2  1474  1476  1475 # h*-o*-h*
  358   2  1478  1479  1477 # h*-o*-h*
  359   2  1480  1482  1481 # h*-o*-h*
  360   2  1483  1485  1484 # h*-o*-h*
  361   2  1487  1488  1486 # h*-o*-h*
  362   2  1489  1491  1490 # h*-o*-h*
  363   2  1492  1494  1493 # h*-o*-h*
  364   2  1496  1497  1495 # h*-o*-h*
  365   2  1498  1500  1499 # h*-o*-h*
  366   2  1501  1503  1502 # h*-o*-h*
  367   2  1505  1506  1504 # h*-o*-h*
  368   2  1507  1509  1508 # h*-o*-h*
  369   2  1510  1512  1511 # h*-o*-h*
  370   2  1514  1515  1513 # h*-o*-h*
  371   2  1517  1518  1516 # h*-o*-h*
  372   2  1520  1521  1519 # h*-o*-h*
  373   2  1522  1524  1523 # h*-o*-h*
  374   2  1526  1527  1525 # h*-o*-h*
  375   2  1528  1530  1529 # h*-o*-h*
  376   2  1531  1533  1532 # h*-o*-h*
  377   2  1535  1536  1534 # h*-o*-h*
  378   2  1538  1539  1537 # h*-o*-h*
  379   2  1540  1542  1541 # h*-o*-h*
  380   2  1544  1545  1543 # h*-o*-h*
  381   2  1546  1548  1547 # h*-o*-h*
  382   2  1549  1551  1550 # h*-o*-h*
  383   2  1553  1554  1552 # h*-o*-h*
  384   2  1555  1557  1556 # h*-o*-h*
  385   2  1559  1560  1558 # h*-o*-h*
  386   2  1562  1563  1561 # h*-o*-h*
  387   2  1565  1566  1564 # h*-o*-h*
  388   2  1568  1569  1567 # h*-o*-h*
  389   2  1570  1572  1571 # h*-o*-h*
  390   2  1574  1575  1573 # h*-o*-h*
  391   2  1576  1578  1577 # h*-o*-h*
  392   2  1580  1581  1579 # h*-o*-h*
  393   2  1582  1584  1583 # h*-o*-h*
  394   2  1585  1587  1586 # h*-o*-h*
  395   2  1588  1590  1589 # h*-o*-h*
  396   2  1592  1593  1591 # h*-o*-h*
  397   2  1594  1596  1595 # h*-o*-h*
  398   2  1598  1599  1597 # h*-o*-h*
  399   2  1600  1602  1601 # h*-o*-h*
  400   2  1604  1605  1603 # h*-o*-h*
  401   2  1606  1608  1607 # h*-o*-h*
  402   2  1609  1611  1610 # h*-o*-h*
  403   2  1613  1614  1612 # h*-o*-h*
  404   2  1616  1617  1615 # h*-o*-h*
  405   2  1619  1620  1618 # h*-o*-h*
  406   2  1622  1623  1621 # h*-o*-h*
  407   2  1624  1626  1625 # h*-o*-h*
  408   2  1627  1629  1628 # h*-o*-h*
  409   2  1631  1632  1630 # h*-o*-h*
  410   2  1633  1635  1634 # h*-o*-h*
  411   2  1636  1638  1637 # h*-o*-h*
  412   2  1639  1641  1640 # h*-o*-h*
  413   2  1643  1644  1642 # h*-o*-h*
  414   2  1646  1647  1645 # h*-o*-h*
  415   2  1649  1650  1648 # h*-o*-h*
  416   2  1651  1653  1652 # h*-o*-h*
  417   2  1654  1656  1655 # h*-o*-h*
  418   2  1657  1659  1658 # h*-o*-h*
  419   2  1661  1662  1660 # h*-o*-h*
  420   2  1664  1665  1663 # h*-o*-h*
  421   2  1666  1668  1667 # h*-o*-h*
  422   2  1670  1671  1669 # h*-o*-h*
  423   2  1673  1674  1672 # h*-o*-h*
  424   2  1676  1677  1675 # h*-o*-h*
  425   2  1679  1680  1678 # h*-o*-h*
  426   2  1682  1683  1681 # h*-o*-h*
  427   2  1684  1686  1685 # h*-o*-h*
  428   2  1687  1689  1688 # h*-o*-h*
  429   2  1691  1692  1690 # h*-o*-h*
  430   2  1693  1695  1694 # h*-o*-h*
  431   2  1696  1698  1697 # h*-o*-h*
  432   2  1700  1701  1699 # h*-o*-h*
  433   2  1702  1704  1703 # h*-o*-h*
  434   2  1706  1707  1705 # h*-o*-h*
  435   2  1709  1710  1708 # h*-o*-h*
  436   2  1711  1713  1712 # h*-o*-h*
  437   2  1715  1716  1714 # h*-o*-h*
  438   2  1718  1719  1717 # h*-o*-h*
  439   2  1721  1722  1720 # h*-o*-h*
  440   2  1723  1725  1724 # h*-o*-h*
  441   2  1726  1728  1727 # h*-o*-h*
  442   2  1730  1731  1729 # h*-o*-h*
  443   2  1733  1734  1732 # h*-o*-h*
  444   2  1736  1737  1735 # h*-o*-h*
  445   2  1739  1740  1738 # h*-o*-h*
  446   2  1742  1743  1741 # h*-o*-h*
  447   2  1745  1746  1744 # h*-o*-h*
  448   2  1747  1749  1748 # h*-o*-h*
  449   2  1750  1752  1751 # h*-o*-h*
  450   2  1753  1755  1754 # h*-o*-h*
  451   2  1757  1758  1756 # h*-o*-h*
  452   2  1760  1761  1759 # h*-o*-h*
  453   2  1762  1764  1763 # h*-o*-h*
  454   2  1765  1767  1766 # h*-o*-h*
  455   2  1769  1770  1768 # h*-o*-h*
  456   2  1772  1773  1771 # h*-o*-h*
  457   2  1775  1776  1774 # h*-o*-h*
  458   2  1777  1779  1778 # h*-o*-h*
  459   2  1780  1782  1781 # h*-o*-h*
  460   2  1783  1785  1784 # h*-o*-h*
  461   2  1786  1788  1787 # h*-o*-h*
  462   2  1790  1791  1789 # h*-o*-h*
  463   2  1792  1794  1793 # h*-o*-h*
  464   2  1795  1797  1796 # h*-o*-h*
  465   2  1799  1800  1798 # h*-o*-h*
  466   2  1801  1803  1802 # h*-o*-h*
  467   2  1804  1806  1805 # h*-o*-h*
  468   2  1808  1809  1807 # h*-o*-h*
  469   2  1811  1812  1810 # h*-o*-h*
  470   2  1813  1815  1814 # h*-o*-h*
  471   2  1817  1818  1816 # h*-o*-h*
  472   2  1820  1821  1819 # h*-o*-h*
  473   2  1823  1824  1822 # h*-o*-h*
  474   2  1825  1827  1826 # h*-o*-h*
  475   2  1829  1830  1828 # h*-o*-h*
  476   2  1831  1833  1832 # h*-o*-h*
  477   2  1834  1836  1835 # h*-o*-h*
  478   2  1837  1839  1838 # h*-o*-h*
  479   2  1840  1842  1841 # h*-o*-h*
  480   2  1844  1845  1843 # h*-o*-h*
  481   2  1847  1848  1846 # h*-o*-h*
  482   2  1849  1851  1850 # h*-o*-h*
  483   2  1853  1854  1852 # h*-o*-h*
  484   2  1855  1857  1856 # h*-o*-h*
  485   2  1858  1860  1859 # h*-o*-h*
  486   2  1862  1863  1861 # h*-o*-h*
  487   2  1865  1866  1864 # h*-o*-h*
  488   2  1867  1869  1868 # h*-o*-h*
  489   2  1870  1872  1871 # h*-o*-h*
  490   2  1873  1875  1874 # h*-o*-h*
  491   2  1877  1878  1876 # h*-o*-h*
  492   2  1880  1881  1879 # h*-o*-h*
  493   2  1882  1884  1883 # h*-o*-h*
  494   2  1886  1887  1885 # h*-o*-h*
  495   2  1888  1890  1889 # h*-o*-h*
  496   2  1891  1893  1892 # h*-o*-h*
  497   2  1895  1896  1894 # h*-o*-h*
  498   2  1897  1899  1898 # h*-o*-h*
  499   2  1901  1902  1900 # h*-o*-h*
  500   2  1903  1905  1904 # h*-o*-h*
  501   2  1906  1908  1907 # h*-o*-h*
  502   2  1910  1911  1909 # h*-o*-h*
  503   2  1912  1914  1913 # h*-o*-h*
  504   2  1916  1917  1915 # h*-o*-h*
  505   2  1918  1920  1919 # h*-o*-h*
  506   2  1922  1923  1921 # h*-o*-h*
  507   2  1924  1926  1925 # h*-o*-h*
  508   2  1928  1929  1927 # h*-o*-h*
  509   2  1930  1932  1931 # h*-o*-h*
  510   2  1933  1935  1934 # h*-o*-h*
  511   2  1936  1938  1937 # h*-o*-h*
  512   2  1939  1941  1940 # h*-o*-h*
  513   2  1943  1944  1942 # h*-o*-h*
  514   2  1945  1947  1946 # h*-o*-h*
  515   2  1948  1950  1949 # h*-o*-h*
  516   2  1952  1953  1951 # h*-o*-h*
  517   2  1955  1956  1954 # h*-o*-h*
  518   2  1958  1959  1957 # h*-o*-h*
  519   2  1961  1962  1960 # h*-o*-h*
  520   2  1964  1965  1963 # h*-o*-h*
  521   2  1966  1968  1967 # h*-o*-h*
  522   2  1969  1971  1970 # h*-o*-h*
  523   2  1973  1974  1972 # h*-o*-h*
  524   2  1975  1977  1976 # h*-o*-h*
  525   2  1978  1980  1979 # h*-o*-h*
  526   2  1981  1983  1982 # h*-o*-h*
  527   2  1985  1986  1984 # h*-o*-h*
  528   2  1987  1989  1988 # h*-o*-h*
  529   2  1991  1992  1990 # h*-o*-h*
  530   2  1993  1995  1994 # h*-o*-h*
  531   2  1997  1998  1996 # h*-o*-h*
  532   2  2000  2001  1999 # h*-o*-h*
  533   2  2003  2004  2002 # h*-o*-h*
  534   3  2006  2008  2005 # oc-co-oc
  535   3  2006  2008  2007 # oc-co-oc
  536   3  2005  2008  2007 # oc-co-oc

Impropers

    1   1  2008  2005  2006  2007 # co-oc-oc-oc
