molecular system: L2OH2_w1100.cif
6468 atoms
8 atom types

  0.000000  40.411200 xlo xhi
  0.000000  37.257509 ylo yhi
  0.000000  43.987500 zlo zhi
-24.427186   0.000000   0.000000 xy xz yz

Masses

1  40.080000 # bulk_ca
2  40.080000 # inter_layer_ca
3  40.080000 # intra_layer_ca
4  28.086000 # BT_si
5  28.086000 # PT_si
6  16.000000 # tetra_o
7   1.007800 # H   
8  16.000000 # O   

Atoms

     1      5   3.481923   2.400005   4.904530 # PT_si
     2      5   1.446324   5.504797  23.085210 # PT_si
     3      5   0.114323   2.400005  18.898280 # PT_si
     4      5  -1.921276   5.504797   9.091459 # PT_si
     5      4  -0.390989   4.660293  16.908368 # BT_si
     6      4   1.644610   1.555501  11.081371 # BT_si
     7      5   1.093838   5.970516   4.901731 # PT_si
     8      5   3.129437   2.865723  23.088008 # PT_si
     9      5  -2.273762   5.970516  18.895481 # PT_si
    10      5  -0.238163   2.865723   9.094258 # PT_si
    11      3   3.235589   2.642178   7.982595 # intra_layer_ca
    12      3   1.199990   5.746971  20.006025 # intra_layer_ca
    13      3  -0.132011   2.642178  21.976345 # intra_layer_ca
    14      3  -2.167610   5.746971   6.012275 # intra_layer_ca
    15      3  -0.049932   2.660807   6.009476 # intra_layer_ca
    16      3  -2.085531   5.765600  21.979144 # intra_layer_ca
    17      3   3.317668   2.660807  20.003226 # intra_layer_ca
    18      3   1.282069   5.765600   7.985393 # intra_layer_ca
    19      2   0.543068   3.071261  13.942813 # inter_layer_ca
    20      6   2.982689   3.183033   3.494799 # tetra_o
    21      6 -19.408898  37.335750  24.496619 # tetra_o
    22      6  -0.384911   3.183033  17.488549 # tetra_o
    23      6 -22.776498  37.335750  10.502869 # tetra_o
    24      6 -20.075619  38.434846   4.317632 # tetra_o
    25      6   2.315969   4.282130  23.673787 # tetra_o
    26      6 -23.443219  38.434846  18.311382 # tetra_o
    27      6  -1.051631   4.282130   9.680037 # tetra_o
    28      6   4.292769   3.443836   5.795372 # tetra_o
    29      6 -18.098818  37.596552  22.196047 # tetra_o
    30      6   0.925169   3.443836  19.789122 # tetra_o
    31      6 -21.466418  37.596552   8.202297 # tetra_o
    32      6   2.265001   1.872811   5.781378 # tetra_o
    33      6   0.229403   4.977603  22.210040 # tetra_o
    34      6  -1.102599   1.872811  19.775128 # tetra_o
    35      6  -3.138197   4.977603   8.216290 # tetra_o
    36      6   1.590995   1.556122  12.646712 # tetra_o
    37      6  -0.444604   4.660914  15.344707 # tetra_o
    38      6   1.612652   5.344590   3.506274 # tetra_o
    39      6   3.648250   2.239797  24.485704 # tetra_o
    40      6  -1.754948   5.344590  17.500024 # tetra_o
    41      6   0.280650   2.239797  10.491954 # tetra_o
    42      6   0.021940   5.120424   5.786975 # tetra_o
    43      6   2.057539   2.015631  22.204443 # tetra_o
    44      6  -3.345660   5.120424  19.780725 # tetra_o
    45      6  -1.310061   2.015631   8.210693 # tetra_o
    46      6 -17.945705  37.466772   5.793133 # tetra_o
    47      6   4.445883   3.314055  22.199405 # tetra_o
    48      6 -21.313305  37.466772  19.786883 # tetra_o
    49      6   1.078283   3.314055   8.205655 # tetra_o
    50      6   0.979781   5.517837  17.284800 # tetra_o
    51      7   1.362345   4.692146  16.870217 # H   
    52      6   3.015380   2.413045  10.707738 # tetra_o
    53      7   2.970736   1.587039  10.145847 # H   
    54      8   0.157267   2.766991   3.629699 # O   
    55      7   0.737970   2.766991   4.443814 # H   
    56      7   0.737970   2.766991   2.815583 # H   
    57      8  -1.878332   5.871783  24.362839 # O   
    58      7  -1.297629   5.871783  25.176954 # H   
    59      7  -1.297629   5.871783  23.548723 # H   
    60      8   3.524867   2.766991  17.623449 # O   
    61      7   4.105570   2.766991  18.437564 # H   
    62      7   4.105570   2.766991  16.809333 # H   
    63      8   1.489268   5.871783  10.369089 # O   
    64      7   2.069971   5.871783  11.183204 # H   
    65      7   2.069971   5.871783   9.554973 # H   
    66      8  -0.097780   4.780138  12.426730 # O   
    67      7   0.482923   4.780138  13.240845 # H   
    68      7   0.482923   4.780138  11.612614 # H   
    69      8   1.937819   1.675346  15.561330 # O   
    70      7   2.518522   1.675346  16.375445 # H   
    71      7   2.518522   1.675346  14.747214 # H   
    72      8   3.269545   4.892532  13.915385 # O   
    73      7  37.526248   4.892532  14.729501 # H   
    74      7  37.526248   4.892532  13.101269 # H   
    75      8   4.509842   1.317053  14.083310 # O   
    76      7   5.090544   1.317053  14.897426 # H   
    77      7   5.090544   1.317053  13.269194 # H   
    78      8  -2.210443   5.774293  13.999348 # O   
    79      7  -1.629741   5.774293  14.813463 # H   
    80      7  -1.629741   5.774293  13.185232 # H   
    81      5  -0.589275   8.609589   4.904530 # PT_si
    82      5  -2.624873  11.714382  23.085210 # PT_si
    83      5  -3.956875   8.609589  18.898280 # PT_si
    84      5  -5.992473  11.714382   9.091459 # PT_si
    85      4  -4.462187  10.869878  16.908368 # BT_si
    86      4  -2.426588   7.765086  11.081371 # BT_si
    87      5  -2.977360  12.180101   4.901731 # PT_si
    88      5  -0.941761   9.075308  23.088008 # PT_si
    89      5  -6.344960  12.180101  18.895481 # PT_si
    90      5  -4.309361   9.075308   9.094258 # PT_si
    91      3  -0.835609   8.851763   7.982595 # intra_layer_ca
    92      3  -2.871208  11.956556  20.006025 # intra_layer_ca
    93      3  -4.203209   8.851763  21.976345 # intra_layer_ca
    94      3  -6.238808  11.956556   6.012275 # intra_layer_ca
    95      3  -4.121130   8.870392   6.009476 # intra_layer_ca
    96      3  -6.156728  11.975184  21.979144 # intra_layer_ca
    97      3  -0.753530   8.870392  20.003226 # intra_layer_ca
    98      3  -2.789128  11.975184   7.985393 # intra_layer_ca
    99      2  -3.528130   9.280846  13.942813 # inter_layer_ca
   100      6  -1.088509   9.392618   3.494799 # tetra_o
   101      6   0.947090   6.287826  24.496619 # tetra_o
   102      6  -4.456109   9.392618  17.488549 # tetra_o
   103      6  -2.420510   6.287826  10.502869 # tetra_o
   104      6   0.280370   7.386922   4.317632 # tetra_o
   105      6  -1.755229  10.491715  23.673787 # tetra_o
   106      6  -3.087230   7.386922  18.311382 # tetra_o
   107      6  -5.122829  10.491715   9.680037 # tetra_o
   108      6   0.221572   9.653421   5.795372 # tetra_o
   109      6   2.257170   6.548628  22.196047 # tetra_o
   110      6  -3.146028   9.653421  19.789122 # tetra_o
   111      6  -1.110430   6.548628   8.202297 # tetra_o
   112      6  -1.806196   8.082396   5.781378 # tetra_o
   113      6  -3.841795  11.187188  22.210040 # tetra_o
   114      6  -5.173796   8.082396  19.775128 # tetra_o
   115      6  -7.209395  11.187188   8.216290 # tetra_o
   116      6  -2.480203   7.765707  12.646712 # tetra_o
   117      6  -4.515802  10.870499  15.344707 # tetra_o
   118      6  -2.458546  11.554175   3.506274 # tetra_o
   119      6  -0.422947   8.449382  24.485704 # tetra_o
   120      6  -5.826146  11.554175  17.500024 # tetra_o
   121      6  -3.790547   8.449382  10.491954 # tetra_o
   122      6  -4.049258  11.330009   5.786975 # tetra_o
   123      6  -2.013659   8.225216  22.204443 # tetra_o
   124      6  -7.416858  11.330009  19.780725 # tetra_o
   125      6  -5.381259   8.225216   8.210693 # tetra_o
   126      6   2.410284   6.418848   5.793133 # tetra_o
   127      6   0.374685   9.523640  22.199405 # tetra_o
   128      6  -0.957316   6.418848  19.786883 # tetra_o
   129      6  -2.992915   9.523640   8.205655 # tetra_o
   130      6  -3.091417  11.727422  17.284800 # tetra_o
   131      7  -2.708853  10.901731  16.870217 # H   
   132      6  -1.055818   8.622630  10.707738 # tetra_o
   133      7  -1.100462   7.796624  10.145847 # H   
   134      8  -3.913930   8.976576   3.629699 # O   
   135      7  -3.333227   8.976576   4.443814 # H   
   136      7  -3.333227   8.976576   2.815583 # H   
   137      8  -5.949529  12.081368  24.362839 # O   
   138      7  -5.368826  12.081368  25.176954 # H   
   139      7  -5.368826  12.081368  23.548723 # H   
   140      8  -0.546330   8.976576  17.623449 # O   
   141      7   0.034373   8.976576  18.437564 # H   
   142      7   0.034373   8.976576  16.809333 # H   
   143      8  -2.581929  12.081368  10.369089 # O   
   144      7  -2.001226  12.081368  11.183204 # H   
   145      7  -2.001226  12.081368   9.554973 # H   
   146      8  -4.168978  10.989723  12.426730 # O   
   147      7  -3.588275  10.989723  13.240845 # H   
   148      7  -3.588275  10.989723  11.612614 # H   
   149      8  -2.133379   7.884931  15.561330 # O   
   150      7  -1.552676   7.884931  16.375445 # H   
   151      7  -1.552676   7.884931  14.747214 # H   
   152      8  -0.801653  11.102117  13.915385 # O   
   153      7  33.455050  11.102117  14.729501 # H   
   154      7  33.455050  11.102117  13.101269 # H   
   155      8   0.438644   7.526638  14.083310 # O   
   156      7   1.019347   7.526638  14.897426 # H   
   157      7   1.019347   7.526638  13.269194 # H   
   158      8  -6.281641  11.983878  13.999348 # O   
   159      7  -5.700938  11.983878  14.813463 # H   
   160      7  -5.700938  11.983878  13.185232 # H   
   161      5  -4.660472  14.819174   4.904530 # PT_si
   162      5  -6.696071  17.923967  23.085210 # PT_si
   163      5  -8.028072  14.819174  18.898280 # PT_si
   164      5 -10.063671  17.923967   9.091459 # PT_si
   165      4  -8.533384  17.079463  16.908368 # BT_si
   166      4  -6.497785  13.974671  11.081371 # BT_si
   167      5  -7.048557  18.389686   4.901731 # PT_si
   168      5  -5.012958  15.284893  23.088008 # PT_si
   169      5 -10.416157  18.389686  18.895481 # PT_si
   170      5  -8.380558  15.284893   9.094258 # PT_si
   171      3  -4.906807  15.061348   7.982595 # intra_layer_ca
   172      3  -6.942405  18.166141  20.006025 # intra_layer_ca
   173      3  -8.274407  15.061348  21.976345 # intra_layer_ca
   174      3 -10.310005  18.166141   6.012275 # intra_layer_ca
   175      3  -8.192327  15.079977   6.009476 # intra_layer_ca
   176      3 -10.227926  18.184769  21.979144 # intra_layer_ca
   177      3  -4.824727  15.079977  20.003226 # intra_layer_ca
   178      3  -6.860326  18.184769   7.985393 # intra_layer_ca
   179      2  -7.599328  15.490430  13.942813 # inter_layer_ca
   180      6  -5.159706  15.602203   3.494799 # tetra_o
   181      6  -3.124108  12.497410  24.496619 # tetra_o
   182      6  -8.527306  15.602203  17.488549 # tetra_o
   183      6  -6.491708  12.497410  10.502869 # tetra_o
   184      6  -3.790828  13.596507   4.317632 # tetra_o
   185      6  -5.826427  16.701299  23.673787 # tetra_o
   186      6  -7.158428  13.596507  18.311382 # tetra_o
   187      6  -9.194027  16.701299   9.680037 # tetra_o
   188      6  -3.849626  15.863005   5.795372 # tetra_o
   189      6  -1.814027  12.758213  22.196047 # tetra_o
   190      6  -7.217226  15.863005  19.789122 # tetra_o
   191      6  -5.181627  12.758213   8.202297 # tetra_o
   192      6  -5.877394  14.291981   5.781378 # tetra_o
   193      6  -7.912993  17.396773  22.210040 # tetra_o
   194      6  -9.244994  14.291981  19.775128 # tetra_o
   195      6 -11.280593  17.396773   8.216290 # tetra_o
   196      6  -6.551401  13.975292  12.646712 # tetra_o
   197      6  -8.586999  17.080084  15.344707 # tetra_o
   198      6  -6.529744  17.763759   3.506274 # tetra_o
   199      6  -4.494145  14.658967  24.485704 # tetra_o
   200      6  -9.897344  17.763759  17.500024 # tetra_o
   201      6  -7.861745  14.658967  10.491954 # tetra_o
   202      6  -8.120455  17.539593   5.786975 # tetra_o
   203      6  -6.084856  14.434801  22.204443 # tetra_o
   204      6 -11.488055  17.539593  19.780725 # tetra_o
   205      6  -9.452456  14.434801   8.210693 # tetra_o
   206      6  -1.660914  12.628433   5.793133 # tetra_o
   207      6  -3.696513  15.733225  22.199405 # tetra_o
   208      6  -5.028514  12.628433  19.786883 # tetra_o
   209      6  -7.064113  15.733225   8.205655 # tetra_o
   210      6  -7.162614  17.937007  17.284800 # tetra_o
   211      7  -6.780051  17.111316  16.870217 # H   
   212      6  -5.127015  14.832214  10.707738 # tetra_o
   213      7  -5.171660  14.006208  10.145847 # H   
   214      8  -7.985128  15.186161   3.629699 # O   
   215      7  -7.404425  15.186161   4.443814 # H   
   216      7  -7.404425  15.186161   2.815583 # H   
   217      8 -10.020727  18.290953  24.362839 # O   
   218      7  -9.440024  18.290953  25.176954 # H   
   219      7  -9.440024  18.290953  23.548723 # H   
   220      8  -4.617528  15.186161  17.623449 # O   
   221      7  -4.036825  15.186161  18.437564 # H   
   222      7  -4.036825  15.186161  16.809333 # H   
   223      8  -6.653127  18.290953  10.369089 # O   
   224      7  -6.072424  18.290953  11.183204 # H   
   225      7  -6.072424  18.290953   9.554973 # H   
   226      8  -8.240175  17.199308  12.426730 # O   
   227      7  -7.659472  17.199308  13.240845 # H   
   228      7  -7.659472  17.199308  11.612614 # H   
   229      8  -6.204576  14.094516  15.561330 # O   
   230      7  -5.623873  14.094516  16.375445 # H   
   231      7  -5.623873  14.094516  14.747214 # H   
   232      8  -4.872850  17.311702  13.915385 # O   
   233      7  29.383853  17.311702  14.729501 # H   
   234      7  29.383853  17.311702  13.101269 # H   
   235      8  -3.632554  13.736223  14.083310 # O   
   236      7  -3.051851  13.736223  14.897426 # H   
   237      7  -3.051851  13.736223  13.269194 # H   
   238      8 -10.352839  18.193463  13.999348 # O   
   239      7  -9.772136  18.193463  14.813463 # H   
   240      7  -9.772136  18.193463  13.185232 # H   
   241      5  -8.731670  21.028759   4.904530 # PT_si
   242      5 -10.767269  24.133552  23.085210 # PT_si
   243      5 -12.099270  21.028759  18.898280 # PT_si
   244      5 -14.134869  24.133552   9.091459 # PT_si
   245      4 -12.604582  23.289048  16.908368 # BT_si
   246      4 -10.568983  20.184256  11.081371 # BT_si
   247      5 -11.119755  24.599270   4.901731 # PT_si
   248      5  -9.084156  21.494478  23.088008 # PT_si
   249      5 -14.487355  24.599270  18.895481 # PT_si
   250      5 -12.451756  21.494478   9.094258 # PT_si
   251      3  -8.978004  21.270933   7.982595 # intra_layer_ca
   252      3 -11.013603  24.375725  20.006025 # intra_layer_ca
   253      3 -12.345604  21.270933  21.976345 # intra_layer_ca
   254      3 -14.381203  24.375725   6.012275 # intra_layer_ca
   255      3 -12.263525  21.289562   6.009476 # intra_layer_ca
   256      3 -14.299124  24.394354  21.979144 # intra_layer_ca
   257      3  -8.895925  21.289562  20.003226 # intra_layer_ca
   258      3 -10.931524  24.394354   7.985393 # intra_layer_ca
   259      2 -11.670526  21.700015  13.942813 # inter_layer_ca
   260      6  -9.230904  21.811788   3.494799 # tetra_o
   261      6  -7.195305  18.706995  24.496619 # tetra_o
   262      6 -12.598504  21.811788  17.488549 # tetra_o
   263      6 -10.562905  18.706995  10.502869 # tetra_o
   264      6  -7.862026  19.806092   4.317632 # tetra_o
   265      6  -9.897624  22.910884  23.673787 # tetra_o
   266      6 -11.229626  19.806092  18.311382 # tetra_o
   267      6 -13.265224  22.910884   9.680037 # tetra_o
   268      6  -7.920824  22.072590   5.795372 # tetra_o
   269      6  -5.885225  18.967798  22.196047 # tetra_o
   270      6 -11.288424  22.072590  19.789122 # tetra_o
   271      6  -9.252825  18.967798   8.202297 # tetra_o
   272      6  -9.948592  20.501565   5.781378 # tetra_o
   273      6 -11.984191  23.606358  22.210040 # tetra_o
   274      6 -13.316192  20.501565  19.775128 # tetra_o
   275      6 -15.351791  23.606358   8.216290 # tetra_o
   276      6 -10.622598  20.184877  12.646712 # tetra_o
   277      6 -12.658197  23.289669  15.344707 # tetra_o
   278      6 -10.600942  23.973344   3.506274 # tetra_o
   279      6  -8.565343  20.868552  24.485704 # tetra_o
   280      6 -13.968542  23.973344  17.500024 # tetra_o
   281      6 -11.932943  20.868552  10.491954 # tetra_o
   282      6 -12.191653  23.749178   5.786975 # tetra_o
   283      6 -10.156054  20.644386  22.204443 # tetra_o
   284      6 -15.559253  23.749178  19.780725 # tetra_o
   285      6 -13.523654  20.644386   8.210693 # tetra_o
   286      6  -5.732112  18.838018   5.793133 # tetra_o
   287      6  -7.767710  21.942810  22.199405 # tetra_o
   288      6  -9.099712  18.838018  19.786883 # tetra_o
   289      6 -11.135310  21.942810   8.205655 # tetra_o
   290      6 -11.233812  24.146592  17.284800 # tetra_o
   291      7 -10.851248  23.320900  16.870217 # H   
   292      6  -9.198213  21.041799  10.707738 # tetra_o
   293      7  -9.242857  20.215793  10.145847 # H   
   294      8 -12.056326  21.395746   3.629699 # O   
   295      7 -11.475623  21.395746   4.443814 # H   
   296      7 -11.475623  21.395746   2.815583 # H   
   297      8 -14.091925  24.500538  24.362839 # O   
   298      7 -13.511222  24.500538  25.176954 # H   
   299      7 -13.511222  24.500538  23.548723 # H   
   300      8  -8.688726  21.395746  17.623449 # O   
   301      7  -8.108023  21.395746  18.437564 # H   
   302      7  -8.108023  21.395746  16.809333 # H   
   303      8 -10.724325  24.500538  10.369089 # O   
   304      7 -10.143622  24.500538  11.183204 # H   
   305      7 -10.143622  24.500538   9.554973 # H   
   306      8 -12.311373  23.408893  12.426730 # O   
   307      7 -11.730670  23.408893  13.240845 # H   
   308      7 -11.730670  23.408893  11.612614 # H   
   309      8 -10.275774  20.304101  15.561330 # O   
   310      7  -9.695071  20.304101  16.375445 # H   
   311      7  -9.695071  20.304101  14.747214 # H   
   312      8  -8.944048  23.521286  13.915385 # O   
   313      7  25.312655  23.521286  14.729501 # H   
   314      7  25.312655  23.521286  13.101269 # H   
   315      8  -7.703752  19.945808  14.083310 # O   
   316      7  -7.123049  19.945808  14.897426 # H   
   317      7  -7.123049  19.945808  13.269194 # H   
   318      8 -14.424037  24.403048  13.999348 # O   
   319      7 -13.843334  24.403048  14.813463 # H   
   320      7 -13.843334  24.403048  13.185232 # H   
   321      5 -12.802868  27.238344   4.904530 # PT_si
   322      5 -14.838467  30.343136  23.085210 # PT_si
   323      5 -16.170468  27.238344  18.898280 # PT_si
   324      5 -18.206067  30.343136   9.091459 # PT_si
   325      4 -16.675780  29.498633  16.908368 # BT_si
   326      4 -14.640181  26.393840  11.081371 # BT_si
   327      5 -15.190953  30.808855   4.901731 # PT_si
   328      5 -13.155354  27.704063  23.088008 # PT_si
   329      5 -18.558553  30.808855  18.895481 # PT_si
   330      5 -16.522954  27.704063   9.094258 # PT_si
   331      3 -13.049202  27.480518   7.982595 # intra_layer_ca
   332      3 -15.084801  30.585310  20.006025 # intra_layer_ca
   333      3 -16.416802  27.480518  21.976345 # intra_layer_ca
   334      3 -18.452401  30.585310   6.012275 # intra_layer_ca
   335      3 -16.334723  27.499147   6.009476 # intra_layer_ca
   336      3 -18.370322  30.603939  21.979144 # intra_layer_ca
   337      3 -12.967123  27.499147  20.003226 # intra_layer_ca
   338      3 -15.002722  30.603939   7.985393 # intra_layer_ca
   339      2 -15.741723  27.909600  13.942813 # inter_layer_ca
   340      6 -13.302102  28.021373   3.494799 # tetra_o
   341      6 -11.266503  24.916580  24.496619 # tetra_o
   342      6 -16.669702  28.021373  17.488549 # tetra_o
   343      6 -14.634103  24.916580  10.502869 # tetra_o
   344      6 -11.933223  26.015677   4.317632 # tetra_o
   345      6 -13.968822  29.120469  23.673787 # tetra_o
   346      6 -15.300823  26.015677  18.311382 # tetra_o
   347      6 -17.336422  29.120469   9.680037 # tetra_o
   348      6 -11.992022  28.282175   5.795372 # tetra_o
   349      6  -9.956423  25.177383  22.196047 # tetra_o
   350      6 -15.359622  28.282175  19.789122 # tetra_o
   351      6 -13.324023  25.177383   8.202297 # tetra_o
   352      6 -14.019789  26.711150   5.781378 # tetra_o
   353      6 -16.055388  29.815943  22.210040 # tetra_o
   354      6 -17.387389  26.711150  19.775128 # tetra_o
   355      6 -19.422988  29.815943   8.216290 # tetra_o
   356      6 -14.693796  26.394461  12.646712 # tetra_o
   357      6 -16.729395  29.499254  15.344707 # tetra_o
   358      6 -14.672139  30.182929   3.506274 # tetra_o
   359      6 -12.636540  27.078137  24.485704 # tetra_o
   360      6 -18.039739  30.182929  17.500024 # tetra_o
   361      6 -16.004140  27.078137  10.491954 # tetra_o
   362      6 -16.262851  29.958763   5.786975 # tetra_o
   363      6 -14.227252  26.853971  22.204443 # tetra_o
   364      6 -19.630451  29.958763  19.780725 # tetra_o
   365      6 -17.594852  26.853971   8.210693 # tetra_o
   366      6  -9.803309  25.047602   5.793133 # tetra_o
   367      6 -11.838908  28.152395  22.199405 # tetra_o
   368      6 -13.170909  25.047602  19.786883 # tetra_o
   369      6 -15.206508  28.152395   8.205655 # tetra_o
   370      6 -15.305010  30.356177  17.284800 # tetra_o
   371      7 -14.922446  29.530485  16.870217 # H   
   372      6 -13.269411  27.251384  10.707738 # tetra_o
   373      7 -13.314055  26.425378  10.145847 # H   
   374      8 -16.127524  27.605330   3.629699 # O   
   375      7 -15.546821  27.605330   4.443814 # H   
   376      7 -15.546821  27.605330   2.815583 # H   
   377      8 -18.163122  30.710123  24.362839 # O   
   378      7 -17.582419  30.710123  25.176954 # H   
   379      7 -17.582419  30.710123  23.548723 # H   
   380      8 -12.759924  27.605330  17.623449 # O   
   381      7 -12.179221  27.605330  18.437564 # H   
   382      7 -12.179221  27.605330  16.809333 # H   
   383      8 -14.795522  30.710123  10.369089 # O   
   384      7 -14.214819  30.710123  11.183204 # H   
   385      7 -14.214819  30.710123   9.554973 # H   
   386      8 -16.382571  29.618478  12.426730 # O   
   387      7 -15.801868  29.618478  13.240845 # H   
   388      7 -15.801868  29.618478  11.612614 # H   
   389      8 -14.346972  26.513685  15.561330 # O   
   390      7 -13.766269  26.513685  16.375445 # H   
   391      7 -13.766269  26.513685  14.747214 # H   
   392      8 -13.015246  29.730871  13.915385 # O   
   393      7  21.241457  29.730871  14.729501 # H   
   394      7  21.241457  29.730871  13.101269 # H   
   395      8 -11.774949  26.155392  14.083310 # O   
   396      7 -11.194246  26.155392  14.897426 # H   
   397      7 -11.194246  26.155392  13.269194 # H   
   398      8 -18.495234  30.612632  13.999348 # O   
   399      7 -17.914531  30.612632  14.813463 # H   
   400      7 -17.914531  30.612632  13.185232 # H   
   401      5 -16.874065  33.447929   4.904530 # PT_si
   402      5 -18.909664  36.552721  23.085210 # PT_si
   403      5 -20.241665  33.447929  18.898280 # PT_si
   404      5 -22.277264  36.552721   9.091459 # PT_si
   405      4 -20.746977  35.708218  16.908368 # BT_si
   406      4 -18.711379  32.603425  11.081371 # BT_si
   407      5 -19.262151  37.018440   4.901731 # PT_si
   408      5 -17.226552  33.913648  23.088008 # PT_si
   409      5 -22.629751  37.018440  18.895481 # PT_si
   410      5 -20.594152  33.913648   9.094258 # PT_si
   411      3 -17.120400  33.690103   7.982595 # intra_layer_ca
   412      3 -19.155999  36.794895  20.006025 # intra_layer_ca
   413      3 -20.488000  33.690103  21.976345 # intra_layer_ca
   414      3 -22.523599  36.794895   6.012275 # intra_layer_ca
   415      3 -20.405921  33.708731   6.009476 # intra_layer_ca
   416      3 -22.441519  36.813524  21.979144 # intra_layer_ca
   417      3 -17.038321  33.708731  20.003226 # intra_layer_ca
   418      3 -19.073919  36.813524   7.985393 # intra_layer_ca
   419      2 -19.812921  34.119185  13.942813 # inter_layer_ca
   420      6 -17.373300  34.230957   3.494799 # tetra_o
   421      6 -15.337701  31.126165  24.496619 # tetra_o
   422      6 -20.740900  34.230957  17.488549 # tetra_o
   423      6 -18.705301  31.126165  10.502869 # tetra_o
   424      6 -16.004421  32.225262   4.317632 # tetra_o
   425      6 -18.040020  35.330054  23.673787 # tetra_o
   426      6 -19.372021  32.225262  18.311382 # tetra_o
   427      6 -21.407620  35.330054   9.680037 # tetra_o
   428      6 -16.063219  34.491760   5.795372 # tetra_o
   429      6 -14.027621  31.386968  22.196047 # tetra_o
   430      6 -19.430819  34.491760  19.789122 # tetra_o
   431      6 -17.395221  31.386968   8.202297 # tetra_o
   432      6 -18.090987  32.920735   5.781378 # tetra_o
   433      6 -20.126586  36.025528  22.210040 # tetra_o
   434      6 -21.458587  32.920735  19.775128 # tetra_o
   435      6 -23.494186  36.025528   8.216290 # tetra_o
   436      6 -18.764994  32.604046  12.646712 # tetra_o
   437      6 -20.800593  35.708839  15.344707 # tetra_o
   438      6 -18.743337  36.392514   3.506274 # tetra_o
   439      6 -16.707738  33.287722  24.485704 # tetra_o
   440      6 -22.110937  36.392514  17.500024 # tetra_o
   441      6 -20.075338  33.287722  10.491954 # tetra_o
   442      6 -20.334048  36.168348   5.786975 # tetra_o
   443      6 -18.298450  33.063556  22.204443 # tetra_o
   444      6 -23.701648  36.168348  19.780725 # tetra_o
   445      6 -21.666050  33.063556   8.210693 # tetra_o
   446      6 -13.874507  31.257187   5.793133 # tetra_o
   447      6 -15.910106  34.361980  22.199405 # tetra_o
   448      6 -17.242107  31.257187  19.786883 # tetra_o
   449      6 -19.277706  34.361980   8.205655 # tetra_o
   450      6 -19.376207  36.565761  17.284800 # tetra_o
   451      7 -18.993644  35.740070  16.870217 # H   
   452      6 -17.340609  33.460969  10.707738 # tetra_o
   453      7 -17.385253  32.634963  10.145847 # H   
   454      8 -20.198721  33.814915   3.629699 # O   
   455      7 -19.618018  33.814915   4.443814 # H   
   456      7 -19.618018  33.814915   2.815583 # H   
   457      8 -22.234320  36.919708  24.362839 # O   
   458      7 -21.653617  36.919708  25.176954 # H   
   459      7 -21.653617  36.919708  23.548723 # H   
   460      8 -16.831121  33.814915  17.623449 # O   
   461      7 -16.250418  33.814915  18.437564 # H   
   462      7 -16.250418  33.814915  16.809333 # H   
   463      8 -18.866720  36.919708  10.369089 # O   
   464      7 -18.286017  36.919708  11.183204 # H   
   465      7 -18.286017  36.919708   9.554973 # H   
   466      8 -20.453768  35.828063  12.426730 # O   
   467      7 -19.873066  35.828063  13.240845 # H   
   468      7 -19.873066  35.828063  11.612614 # H   
   469      8 -18.418170  32.723270  15.561330 # O   
   470      7 -17.837467  32.723270  16.375445 # H   
   471      7 -17.837467  32.723270  14.747214 # H   
   472      8 -17.086443  35.940456  13.915385 # O   
   473      7  17.170259  35.940456  14.729501 # H   
   474      7  17.170259  35.940456  13.101269 # H   
   475      8 -15.846147  32.364977  14.083310 # O   
   476      7 -15.265444  32.364977  14.897426 # H   
   477      7 -15.265444  32.364977  13.269194 # H   
   478      8 -22.566432  36.822217  13.999348 # O   
   479      7 -21.985729  36.822217  14.813463 # H   
   480      7 -21.985729  36.822217  13.185232 # H   
   481      5  10.217123   2.400005   4.904530 # PT_si
   482      5   8.181524   5.504797  23.085210 # PT_si
   483      5   6.849523   2.400005  18.898280 # PT_si
   484      5   4.813924   5.504797   9.091459 # PT_si
   485      4   6.344211   4.660293  16.908368 # BT_si
   486      4   8.379810   1.555501  11.081371 # BT_si
   487      5   7.829038   5.970516   4.901731 # PT_si
   488      5   9.864637   2.865723  23.088008 # PT_si
   489      5   4.461438   5.970516  18.895481 # PT_si
   490      5   6.497037   2.865723   9.094258 # PT_si
   491      3   9.970789   2.642178   7.982595 # intra_layer_ca
   492      3   7.935190   5.746971  20.006025 # intra_layer_ca
   493      3   6.603189   2.642178  21.976345 # intra_layer_ca
   494      3   4.567590   5.746971   6.012275 # intra_layer_ca
   495      3   6.685268   2.660807   6.009476 # intra_layer_ca
   496      3   4.649669   5.765600  21.979144 # intra_layer_ca
   497      3  10.052868   2.660807  20.003226 # intra_layer_ca
   498      3   8.017269   5.765600   7.985393 # intra_layer_ca
   499      2   7.278268   3.071261  13.942813 # inter_layer_ca
   500      6   9.717889   3.183033   3.494799 # tetra_o
   501      6 -12.673698  37.335750  24.496619 # tetra_o
   502      6   6.350289   3.183033  17.488549 # tetra_o
   503      6 -16.041298  37.335750  10.502869 # tetra_o
   504      6 -13.340419  38.434846   4.317632 # tetra_o
   505      6   9.051169   4.282130  23.673787 # tetra_o
   506      6 -16.708019  38.434846  18.311382 # tetra_o
   507      6   5.683569   4.282130   9.680037 # tetra_o
   508      6  11.027969   3.443836   5.795372 # tetra_o
   509      6 -11.363618  37.596552  22.196047 # tetra_o
   510      6   7.660369   3.443836  19.789122 # tetra_o
   511      6 -14.731218  37.596552   8.202297 # tetra_o
   512      6   9.000201   1.872811   5.781378 # tetra_o
   513      6   6.964603   4.977603  22.210040 # tetra_o
   514      6   5.632601   1.872811  19.775128 # tetra_o
   515      6   3.597003   4.977603   8.216290 # tetra_o
   516      6   8.326195   1.556122  12.646712 # tetra_o
   517      6   6.290596   4.660914  15.344707 # tetra_o
   518      6   8.347852   5.344590   3.506274 # tetra_o
   519      6  10.383450   2.239797  24.485704 # tetra_o
   520      6   4.980252   5.344590  17.500024 # tetra_o
   521      6   7.015850   2.239797  10.491954 # tetra_o
   522      6   6.757140   5.120424   5.786975 # tetra_o
   523      6   8.792739   2.015631  22.204443 # tetra_o
   524      6   3.389540   5.120424  19.780725 # tetra_o
   525      6   5.425139   2.015631   8.210693 # tetra_o
   526      6 -11.210505  37.466772   5.793133 # tetra_o
   527      6  11.181083   3.314055  22.199405 # tetra_o
   528      6 -14.578105  37.466772  19.786883 # tetra_o
   529      6   7.813483   3.314055   8.205655 # tetra_o
   530      6   7.714981   5.517837  17.284800 # tetra_o
   531      7   8.097545   4.692146  16.870217 # H   
   532      6   9.750580   2.413045  10.707738 # tetra_o
   533      7   9.705936   1.587039  10.145847 # H   
   534      8   6.892467   2.766991   3.629699 # O   
   535      7   7.473170   2.766991   4.443814 # H   
   536      7   7.473170   2.766991   2.815583 # H   
   537      8   4.856868   5.871783  24.362839 # O   
   538      7   5.437571   5.871783  25.176954 # H   
   539      7   5.437571   5.871783  23.548723 # H   
   540      8  10.260067   2.766991  17.623449 # O   
   541      7  10.840770   2.766991  18.437564 # H   
   542      7  10.840770   2.766991  16.809333 # H   
   543      8   8.224468   5.871783  10.369089 # O   
   544      7   8.805171   5.871783  11.183204 # H   
   545      7   8.805171   5.871783   9.554973 # H   
   546      8   6.637420   4.780138  12.426730 # O   
   547      7   7.218123   4.780138  13.240845 # H   
   548      7   7.218123   4.780138  11.612614 # H   
   549      8   8.673019   1.675346  15.561330 # O   
   550      7   9.253722   1.675346  16.375445 # H   
   551      7   9.253722   1.675346  14.747214 # H   
   552      8  10.004745   4.892532  13.915385 # O   
   553      7   3.850248   4.892532  14.729501 # H   
   554      7   3.850248   4.892532  13.101269 # H   
   555      8  11.245042   1.317053  14.083310 # O   
   556      7  11.825744   1.317053  14.897426 # H   
   557      7  11.825744   1.317053  13.269194 # H   
   558      8   4.524757   5.774293  13.999348 # O   
   559      7   5.105459   5.774293  14.813463 # H   
   560      7   5.105459   5.774293  13.185232 # H   
   561      5   6.145925   8.609589   4.904530 # PT_si
   562      5   4.110327  11.714382  23.085210 # PT_si
   563      5   2.778325   8.609589  18.898280 # PT_si
   564      5   0.742727  11.714382   9.091459 # PT_si
   565      4   2.273014  10.869878  16.908368 # BT_si
   566      4   4.308612   7.765086  11.081371 # BT_si
   567      5   3.757840  12.180101   4.901731 # PT_si
   568      5   5.793439   9.075308  23.088008 # PT_si
   569      5   0.390240  12.180101  18.895481 # PT_si
   570      5   2.425839   9.075308   9.094258 # PT_si
   571      3   5.899591   8.851763   7.982595 # intra_layer_ca
   572      3   3.863992  11.956556  20.006025 # intra_layer_ca
   573      3   2.531991   8.851763  21.976345 # intra_layer_ca
   574      3   0.496392  11.956556   6.012275 # intra_layer_ca
   575      3   2.614070   8.870392   6.009476 # intra_layer_ca
   576      3   0.578472  11.975184  21.979144 # intra_layer_ca
   577      3   5.981670   8.870392  20.003226 # intra_layer_ca
   578      3   3.946072  11.975184   7.985393 # intra_layer_ca
   579      2   3.207070   9.280846  13.942813 # inter_layer_ca
   580      6   5.646691   9.392618   3.494799 # tetra_o
   581      6   7.682290   6.287826  24.496619 # tetra_o
   582      6   2.279091   9.392618  17.488549 # tetra_o
   583      6   4.314690   6.287826  10.502869 # tetra_o
   584      6   7.015570   7.386922   4.317632 # tetra_o
   585      6   4.979971  10.491715  23.673787 # tetra_o
   586      6   3.647970   7.386922  18.311382 # tetra_o
   587      6   1.612371  10.491715   9.680037 # tetra_o
   588      6   6.956772   9.653421   5.795372 # tetra_o
   589      6   8.992370   6.548628  22.196047 # tetra_o
   590      6   3.589172   9.653421  19.789122 # tetra_o
   591      6   5.624770   6.548628   8.202297 # tetra_o
   592      6   4.929004   8.082396   5.781378 # tetra_o
   593      6   2.893405  11.187188  22.210040 # tetra_o
   594      6   1.561404   8.082396  19.775128 # tetra_o
   595      6  -0.474195  11.187188   8.216290 # tetra_o
   596      6   4.254997   7.765707  12.646712 # tetra_o
   597      6   2.219398  10.870499  15.344707 # tetra_o
   598      6   4.276654  11.554175   3.506274 # tetra_o
   599      6   6.312253   8.449382  24.485704 # tetra_o
   600      6   0.909054  11.554175  17.500024 # tetra_o
   601      6   2.944653   8.449382  10.491954 # tetra_o
   602      6   2.685942  11.330009   5.786975 # tetra_o
   603      6   4.721541   8.225216  22.204443 # tetra_o
   604      6  -0.681658  11.330009  19.780725 # tetra_o
   605      6   1.353941   8.225216   8.210693 # tetra_o
   606      6   9.145484   6.418848   5.793133 # tetra_o
   607      6   7.109885   9.523640  22.199405 # tetra_o
   608      6   5.777884   6.418848  19.786883 # tetra_o
   609      6   3.742285   9.523640   8.205655 # tetra_o
   610      6   3.643783  11.727422  17.284800 # tetra_o
   611      7   4.026347  10.901731  16.870217 # H   
   612      6   5.679382   8.622630  10.707738 # tetra_o
   613      7   5.634738   7.796624  10.145847 # H   
   614      8   2.821270   8.976576   3.629699 # O   
   615      7   3.401973   8.976576   4.443814 # H   
   616      7   3.401973   8.976576   2.815583 # H   
   617      8   0.785671  12.081368  24.362839 # O   
   618      7   1.366374  12.081368  25.176954 # H   
   619      7   1.366374  12.081368  23.548723 # H   
   620      8   6.188870   8.976576  17.623449 # O   
   621      7   6.769573   8.976576  18.437564 # H   
   622      7   6.769573   8.976576  16.809333 # H   
   623      8   4.153271  12.081368  10.369089 # O   
   624      7   4.733974  12.081368  11.183204 # H   
   625      7   4.733974  12.081368   9.554973 # H   
   626      8   2.566222  10.989723  12.426730 # O   
   627      7   3.146925  10.989723  13.240845 # H   
   628      7   3.146925  10.989723  11.612614 # H   
   629      8   4.601821   7.884931  15.561330 # O   
   630      7   5.182524   7.884931  16.375445 # H   
   631      7   5.182524   7.884931  14.747214 # H   
   632      8   5.933547  11.102117  13.915385 # O   
   633      7  -0.220950  11.102117  14.729501 # H   
   634      7  -0.220950  11.102117  13.101269 # H   
   635      8   7.173844   7.526638  14.083310 # O   
   636      7   7.754547   7.526638  14.897426 # H   
   637      7   7.754547   7.526638  13.269194 # H   
   638      8   0.453559  11.983878  13.999348 # O   
   639      7   1.034262  11.983878  14.813463 # H   
   640      7   1.034262  11.983878  13.185232 # H   
   641      5   2.074728  14.819174   4.904530 # PT_si
   642      5   0.039129  17.923967  23.085210 # PT_si
   643      5  -1.292872  14.819174  18.898280 # PT_si
   644      5  -3.328471  17.923967   9.091459 # PT_si
   645      4  -1.798184  17.079463  16.908368 # BT_si
   646      4   0.237415  13.974671  11.081371 # BT_si
   647      5  -0.313357  18.389686   4.901731 # PT_si
   648      5   1.722242  15.284893  23.088008 # PT_si
   649      5  -3.680957  18.389686  18.895481 # PT_si
   650      5  -1.645358  15.284893   9.094258 # PT_si
   651      3   1.828393  15.061348   7.982595 # intra_layer_ca
   652      3  -0.207205  18.166141  20.006025 # intra_layer_ca
   653      3  -1.539207  15.061348  21.976345 # intra_layer_ca
   654      3  -3.574805  18.166141   6.012275 # intra_layer_ca
   655      3  -1.457127  15.079977   6.009476 # intra_layer_ca
   656      3  -3.492726  18.184769  21.979144 # intra_layer_ca
   657      3   1.910473  15.079977  20.003226 # intra_layer_ca
   658      3  -0.125126  18.184769   7.985393 # intra_layer_ca
   659      2  -0.864128  15.490430  13.942813 # inter_layer_ca
   660      6   1.575494  15.602203   3.494799 # tetra_o
   661      6   3.611092  12.497410  24.496619 # tetra_o
   662      6  -1.792106  15.602203  17.488549 # tetra_o
   663      6   0.243492  12.497410  10.502869 # tetra_o
   664      6   2.944372  13.596507   4.317632 # tetra_o
   665      6   0.908773  16.701299  23.673787 # tetra_o
   666      6  -0.423228  13.596507  18.311382 # tetra_o
   667      6  -2.458827  16.701299   9.680037 # tetra_o
   668      6   2.885574  15.863005   5.795372 # tetra_o
   669      6   4.921173  12.758213  22.196047 # tetra_o
   670      6  -0.482026  15.863005  19.789122 # tetra_o
   671      6   1.553573  12.758213   8.202297 # tetra_o
   672      6   0.857806  14.291981   5.781378 # tetra_o
   673      6  -1.177793  17.396773  22.210040 # tetra_o
   674      6  -2.509794  14.291981  19.775128 # tetra_o
   675      6  -4.545393  17.396773   8.216290 # tetra_o
   676      6   0.183799  13.975292  12.646712 # tetra_o
   677      6  -1.851799  17.080084  15.344707 # tetra_o
   678      6   0.205456  17.763759   3.506274 # tetra_o
   679      6   2.241055  14.658967  24.485704 # tetra_o
   680      6  -3.162144  17.763759  17.500024 # tetra_o
   681      6  -1.126545  14.658967  10.491954 # tetra_o
   682      6  -1.385255  17.539593   5.786975 # tetra_o
   683      6   0.650344  14.434801  22.204443 # tetra_o
   684      6  -4.752855  17.539593  19.780725 # tetra_o
   685      6  -2.717256  14.434801   8.210693 # tetra_o
   686      6   5.074286  12.628433   5.793133 # tetra_o
   687      6   3.038687  15.733225  22.199405 # tetra_o
   688      6   1.706686  12.628433  19.786883 # tetra_o
   689      6  -0.328913  15.733225   8.205655 # tetra_o
   690      6  -0.427414  17.937007  17.284800 # tetra_o
   691      7  -0.044851  17.111316  16.870217 # H   
   692      6   1.608185  14.832214  10.707738 # tetra_o
   693      7   1.563540  14.006208  10.145847 # H   
   694      8  -1.249928  15.186161   3.629699 # O   
   695      7  -0.669225  15.186161   4.443814 # H   
   696      7  -0.669225  15.186161   2.815583 # H   
   697      8  -3.285527  18.290953  24.362839 # O   
   698      7  -2.704824  18.290953  25.176954 # H   
   699      7  -2.704824  18.290953  23.548723 # H   
   700      8   2.117672  15.186161  17.623449 # O   
   701      7   2.698375  15.186161  18.437564 # H   
   702      7   2.698375  15.186161  16.809333 # H   
   703      8   0.082073  18.290953  10.369089 # O   
   704      7   0.662776  18.290953  11.183204 # H   
   705      7   0.662776  18.290953   9.554973 # H   
   706      8  -1.504975  17.199308  12.426730 # O   
   707      7  -0.924272  17.199308  13.240845 # H   
   708      7  -0.924272  17.199308  11.612614 # H   
   709      8   0.530624  14.094516  15.561330 # O   
   710      7   1.111327  14.094516  16.375445 # H   
   711      7   1.111327  14.094516  14.747214 # H   
   712      8   1.862350  17.311702  13.915385 # O   
   713      7  -4.292147  17.311702  14.729501 # H   
   714      7  -4.292147  17.311702  13.101269 # H   
   715      8   3.102646  13.736223  14.083310 # O   
   716      7   3.683349  13.736223  14.897426 # H   
   717      7   3.683349  13.736223  13.269194 # H   
   718      8  -3.617639  18.193463  13.999348 # O   
   719      7  -3.036936  18.193463  14.813463 # H   
   720      7  -3.036936  18.193463  13.185232 # H   
   721      5  -1.996470  21.028759   4.904530 # PT_si
   722      5  -4.032069  24.133552  23.085210 # PT_si
   723      5  -5.364070  21.028759  18.898280 # PT_si
   724      5  -7.399669  24.133552   9.091459 # PT_si
   725      4  -5.869382  23.289048  16.908368 # BT_si
   726      4  -3.833783  20.184256  11.081371 # BT_si
   727      5  -4.384555  24.599270   4.901731 # PT_si
   728      5  -2.348956  21.494478  23.088008 # PT_si
   729      5  -7.752155  24.599270  18.895481 # PT_si
   730      5  -5.716556  21.494478   9.094258 # PT_si
   731      3  -2.242804  21.270933   7.982595 # intra_layer_ca
   732      3  -4.278403  24.375725  20.006025 # intra_layer_ca
   733      3  -5.610404  21.270933  21.976345 # intra_layer_ca
   734      3  -7.646003  24.375725   6.012275 # intra_layer_ca
   735      3  -5.528325  21.289562   6.009476 # intra_layer_ca
   736      3  -7.563924  24.394354  21.979144 # intra_layer_ca
   737      3  -2.160725  21.289562  20.003226 # intra_layer_ca
   738      3  -4.196324  24.394354   7.985393 # intra_layer_ca
   739      2  -4.935326  21.700015  13.942813 # inter_layer_ca
   740      6  -2.495704  21.811788   3.494799 # tetra_o
   741      6  -0.460105  18.706995  24.496619 # tetra_o
   742      6  -5.863304  21.811788  17.488549 # tetra_o
   743      6  -3.827705  18.706995  10.502869 # tetra_o
   744      6  -1.126826  19.806092   4.317632 # tetra_o
   745      6  -3.162424  22.910884  23.673787 # tetra_o
   746      6  -4.494426  19.806092  18.311382 # tetra_o
   747      6  -6.530024  22.910884   9.680037 # tetra_o
   748      6  -1.185624  22.072590   5.795372 # tetra_o
   749      6   0.849975  18.967798  22.196047 # tetra_o
   750      6  -4.553224  22.072590  19.789122 # tetra_o
   751      6  -2.517625  18.967798   8.202297 # tetra_o
   752      6  -3.213392  20.501565   5.781378 # tetra_o
   753      6  -5.248991  23.606358  22.210040 # tetra_o
   754      6  -6.580992  20.501565  19.775128 # tetra_o
   755      6  -8.616591  23.606358   8.216290 # tetra_o
   756      6  -3.887398  20.184877  12.646712 # tetra_o
   757      6  -5.922997  23.289669  15.344707 # tetra_o
   758      6  -3.865742  23.973344   3.506274 # tetra_o
   759      6  -1.830143  20.868552  24.485704 # tetra_o
   760      6  -7.233342  23.973344  17.500024 # tetra_o
   761      6  -5.197743  20.868552  10.491954 # tetra_o
   762      6  -5.456453  23.749178   5.786975 # tetra_o
   763      6  -3.420854  20.644386  22.204443 # tetra_o
   764      6  -8.824053  23.749178  19.780725 # tetra_o
   765      6  -6.788454  20.644386   8.210693 # tetra_o
   766      6   1.003088  18.838018   5.793133 # tetra_o
   767      6  -1.032510  21.942810  22.199405 # tetra_o
   768      6  -2.364511  18.838018  19.786883 # tetra_o
   769      6  -4.400110  21.942810   8.205655 # tetra_o
   770      6  -4.498612  24.146592  17.284800 # tetra_o
   771      7  -4.116048  23.320900  16.870217 # H   
   772      6  -2.463013  21.041799  10.707738 # tetra_o
   773      7  -2.507657  20.215793  10.145847 # H   
   774      8  -5.321126  21.395746   3.629699 # O   
   775      7  -4.740423  21.395746   4.443814 # H   
   776      7  -4.740423  21.395746   2.815583 # H   
   777      8  -7.356725  24.500538  24.362839 # O   
   778      7  -6.776022  24.500538  25.176954 # H   
   779      7  -6.776022  24.500538  23.548723 # H   
   780      8  -1.953526  21.395746  17.623449 # O   
   781      7  -1.372823  21.395746  18.437564 # H   
   782      7  -1.372823  21.395746  16.809333 # H   
   783      8  -3.989125  24.500538  10.369089 # O   
   784      7  -3.408422  24.500538  11.183204 # H   
   785      7  -3.408422  24.500538   9.554973 # H   
   786      8  -5.576173  23.408893  12.426730 # O   
   787      7  -4.995470  23.408893  13.240845 # H   
   788      7  -4.995470  23.408893  11.612614 # H   
   789      8  -3.540574  20.304101  15.561330 # O   
   790      7  -2.959871  20.304101  16.375445 # H   
   791      7  -2.959871  20.304101  14.747214 # H   
   792      8  -2.208848  23.521286  13.915385 # O   
   793      7  -8.363345  23.521286  14.729501 # H   
   794      7  -8.363345  23.521286  13.101269 # H   
   795      8  -0.968552  19.945808  14.083310 # O   
   796      7  -0.387849  19.945808  14.897426 # H   
   797      7  -0.387849  19.945808  13.269194 # H   
   798      8  -7.688837  24.403048  13.999348 # O   
   799      7  -7.108134  24.403048  14.813463 # H   
   800      7  -7.108134  24.403048  13.185232 # H   
   801      5  -6.067668  27.238344   4.904530 # PT_si
   802      5  -8.103267  30.343136  23.085210 # PT_si
   803      5  -9.435268  27.238344  18.898280 # PT_si
   804      5 -11.470867  30.343136   9.091459 # PT_si
   805      4  -9.940580  29.498633  16.908368 # BT_si
   806      4  -7.904981  26.393840  11.081371 # BT_si
   807      5  -8.455753  30.808855   4.901731 # PT_si
   808      5  -6.420154  27.704063  23.088008 # PT_si
   809      5 -11.823353  30.808855  18.895481 # PT_si
   810      5  -9.787754  27.704063   9.094258 # PT_si
   811      3  -6.314002  27.480518   7.982595 # intra_layer_ca
   812      3  -8.349601  30.585310  20.006025 # intra_layer_ca
   813      3  -9.681602  27.480518  21.976345 # intra_layer_ca
   814      3 -11.717201  30.585310   6.012275 # intra_layer_ca
   815      3  -9.599523  27.499147   6.009476 # intra_layer_ca
   816      3 -11.635122  30.603939  21.979144 # intra_layer_ca
   817      3  -6.231923  27.499147  20.003226 # intra_layer_ca
   818      3  -8.267522  30.603939   7.985393 # intra_layer_ca
   819      2  -9.006523  27.909600  13.942813 # inter_layer_ca
   820      6  -6.566902  28.021373   3.494799 # tetra_o
   821      6  -4.531303  24.916580  24.496619 # tetra_o
   822      6  -9.934502  28.021373  17.488549 # tetra_o
   823      6  -7.898903  24.916580  10.502869 # tetra_o
   824      6  -5.198023  26.015677   4.317632 # tetra_o
   825      6  -7.233622  29.120469  23.673787 # tetra_o
   826      6  -8.565623  26.015677  18.311382 # tetra_o
   827      6 -10.601222  29.120469   9.680037 # tetra_o
   828      6  -5.256822  28.282175   5.795372 # tetra_o
   829      6  -3.221223  25.177383  22.196047 # tetra_o
   830      6  -8.624422  28.282175  19.789122 # tetra_o
   831      6  -6.588823  25.177383   8.202297 # tetra_o
   832      6  -7.284589  26.711150   5.781378 # tetra_o
   833      6  -9.320188  29.815943  22.210040 # tetra_o
   834      6 -10.652189  26.711150  19.775128 # tetra_o
   835      6 -12.687788  29.815943   8.216290 # tetra_o
   836      6  -7.958596  26.394461  12.646712 # tetra_o
   837      6  -9.994195  29.499254  15.344707 # tetra_o
   838      6  -7.936939  30.182929   3.506274 # tetra_o
   839      6  -5.901340  27.078137  24.485704 # tetra_o
   840      6 -11.304539  30.182929  17.500024 # tetra_o
   841      6  -9.268940  27.078137  10.491954 # tetra_o
   842      6  -9.527651  29.958763   5.786975 # tetra_o
   843      6  -7.492052  26.853971  22.204443 # tetra_o
   844      6 -12.895251  29.958763  19.780725 # tetra_o
   845      6 -10.859652  26.853971   8.210693 # tetra_o
   846      6  -3.068109  25.047602   5.793133 # tetra_o
   847      6  -5.103708  28.152395  22.199405 # tetra_o
   848      6  -6.435709  25.047602  19.786883 # tetra_o
   849      6  -8.471308  28.152395   8.205655 # tetra_o
   850      6  -8.569810  30.356177  17.284800 # tetra_o
   851      7  -8.187246  29.530485  16.870217 # H   
   852      6  -6.534211  27.251384  10.707738 # tetra_o
   853      7  -6.578855  26.425378  10.145847 # H   
   854      8  -9.392324  27.605330   3.629699 # O   
   855      7  -8.811621  27.605330   4.443814 # H   
   856      7  -8.811621  27.605330   2.815583 # H   
   857      8 -11.427922  30.710123  24.362839 # O   
   858      7 -10.847219  30.710123  25.176954 # H   
   859      7 -10.847219  30.710123  23.548723 # H   
   860      8  -6.024724  27.605330  17.623449 # O   
   861      7  -5.444021  27.605330  18.437564 # H   
   862      7  -5.444021  27.605330  16.809333 # H   
   863      8  -8.060322  30.710123  10.369089 # O   
   864      7  -7.479619  30.710123  11.183204 # H   
   865      7  -7.479619  30.710123   9.554973 # H   
   866      8  -9.647371  29.618478  12.426730 # O   
   867      7  -9.066668  29.618478  13.240845 # H   
   868      7  -9.066668  29.618478  11.612614 # H   
   869      8  -7.611772  26.513685  15.561330 # O   
   870      7  -7.031069  26.513685  16.375445 # H   
   871      7  -7.031069  26.513685  14.747214 # H   
   872      8  -6.280046  29.730871  13.915385 # O   
   873      7 -12.434543  29.730871  14.729501 # H   
   874      7 -12.434543  29.730871  13.101269 # H   
   875      8  -5.039749  26.155392  14.083310 # O   
   876      7  -4.459046  26.155392  14.897426 # H   
   877      7  -4.459046  26.155392  13.269194 # H   
   878      8 -11.760034  30.612632  13.999348 # O   
   879      7 -11.179331  30.612632  14.813463 # H   
   880      7 -11.179331  30.612632  13.185232 # H   
   881      5 -10.138865  33.447929   4.904530 # PT_si
   882      5 -12.174464  36.552721  23.085210 # PT_si
   883      5 -13.506465  33.447929  18.898280 # PT_si
   884      5 -15.542064  36.552721   9.091459 # PT_si
   885      4 -14.011777  35.708218  16.908368 # BT_si
   886      4 -11.976179  32.603425  11.081371 # BT_si
   887      5 -12.526951  37.018440   4.901731 # PT_si
   888      5 -10.491352  33.913648  23.088008 # PT_si
   889      5 -15.894551  37.018440  18.895481 # PT_si
   890      5 -13.858952  33.913648   9.094258 # PT_si
   891      3 -10.385200  33.690103   7.982595 # intra_layer_ca
   892      3 -12.420799  36.794895  20.006025 # intra_layer_ca
   893      3 -13.752800  33.690103  21.976345 # intra_layer_ca
   894      3 -15.788399  36.794895   6.012275 # intra_layer_ca
   895      3 -13.670721  33.708731   6.009476 # intra_layer_ca
   896      3 -15.706319  36.813524  21.979144 # intra_layer_ca
   897      3 -10.303121  33.708731  20.003226 # intra_layer_ca
   898      3 -12.338719  36.813524   7.985393 # intra_layer_ca
   899      2 -13.077721  34.119185  13.942813 # inter_layer_ca
   900      6 -10.638100  34.230957   3.494799 # tetra_o
   901      6  -8.602501  31.126165  24.496619 # tetra_o
   902      6 -14.005700  34.230957  17.488549 # tetra_o
   903      6 -11.970101  31.126165  10.502869 # tetra_o
   904      6  -9.269221  32.225262   4.317632 # tetra_o
   905      6 -11.304820  35.330054  23.673787 # tetra_o
   906      6 -12.636821  32.225262  18.311382 # tetra_o
   907      6 -14.672420  35.330054   9.680037 # tetra_o
   908      6  -9.328019  34.491760   5.795372 # tetra_o
   909      6  -7.292421  31.386968  22.196047 # tetra_o
   910      6 -12.695619  34.491760  19.789122 # tetra_o
   911      6 -10.660021  31.386968   8.202297 # tetra_o
   912      6 -11.355787  32.920735   5.781378 # tetra_o
   913      6 -13.391386  36.025528  22.210040 # tetra_o
   914      6 -14.723387  32.920735  19.775128 # tetra_o
   915      6 -16.758986  36.025528   8.216290 # tetra_o
   916      6 -12.029794  32.604046  12.646712 # tetra_o
   917      6 -14.065393  35.708839  15.344707 # tetra_o
   918      6 -12.008137  36.392514   3.506274 # tetra_o
   919      6  -9.972538  33.287722  24.485704 # tetra_o
   920      6 -15.375737  36.392514  17.500024 # tetra_o
   921      6 -13.340138  33.287722  10.491954 # tetra_o
   922      6 -13.598848  36.168348   5.786975 # tetra_o
   923      6 -11.563250  33.063556  22.204443 # tetra_o
   924      6 -16.966448  36.168348  19.780725 # tetra_o
   925      6 -14.930850  33.063556   8.210693 # tetra_o
   926      6  -7.139307  31.257187   5.793133 # tetra_o
   927      6  -9.174906  34.361980  22.199405 # tetra_o
   928      6 -10.506907  31.257187  19.786883 # tetra_o
   929      6 -12.542506  34.361980   8.205655 # tetra_o
   930      6 -12.641007  36.565761  17.284800 # tetra_o
   931      7 -12.258444  35.740070  16.870217 # H   
   932      6 -10.605409  33.460969  10.707738 # tetra_o
   933      7 -10.650053  32.634963  10.145847 # H   
   934      8 -13.463521  33.814915   3.629699 # O   
   935      7 -12.882818  33.814915   4.443814 # H   
   936      7 -12.882818  33.814915   2.815583 # H   
   937      8 -15.499120  36.919708  24.362839 # O   
   938      7 -14.918417  36.919708  25.176954 # H   
   939      7 -14.918417  36.919708  23.548723 # H   
   940      8 -10.095921  33.814915  17.623449 # O   
   941      7  -9.515218  33.814915  18.437564 # H   
   942      7  -9.515218  33.814915  16.809333 # H   
   943      8 -12.131520  36.919708  10.369089 # O   
   944      7 -11.550817  36.919708  11.183204 # H   
   945      7 -11.550817  36.919708   9.554973 # H   
   946      8 -13.718568  35.828063  12.426730 # O   
   947      7 -13.137866  35.828063  13.240845 # H   
   948      7 -13.137866  35.828063  11.612614 # H   
   949      8 -11.682970  32.723270  15.561330 # O   
   950      7 -11.102267  32.723270  16.375445 # H   
   951      7 -11.102267  32.723270  14.747214 # H   
   952      8 -10.351243  35.940456  13.915385 # O   
   953      7 -16.505741  35.940456  14.729501 # H   
   954      7 -16.505741  35.940456  13.101269 # H   
   955      8  -9.110947  32.364977  14.083310 # O   
   956      7  -8.530244  32.364977  14.897426 # H   
   957      7  -8.530244  32.364977  13.269194 # H   
   958      8 -15.831232  36.822217  13.999348 # O   
   959      7 -15.250529  36.822217  14.813463 # H   
   960      7 -15.250529  36.822217  13.185232 # H   
   961      5  16.952323   2.400005   4.904530 # PT_si
   962      5  14.916724   5.504797  23.085210 # PT_si
   963      5  13.584723   2.400005  18.898280 # PT_si
   964      5  11.549124   5.504797   9.091459 # PT_si
   965      4  13.079411   4.660293  16.908368 # BT_si
   966      4  15.115010   1.555501  11.081371 # BT_si
   967      5  14.564238   5.970516   4.901731 # PT_si
   968      5  16.599837   2.865723  23.088008 # PT_si
   969      5  11.196638   5.970516  18.895481 # PT_si
   970      5  13.232237   2.865723   9.094258 # PT_si
   971      3  16.705989   2.642178   7.982595 # intra_layer_ca
   972      3  14.670390   5.746971  20.006025 # intra_layer_ca
   973      3  13.338389   2.642178  21.976345 # intra_layer_ca
   974      3  11.302790   5.746971   6.012275 # intra_layer_ca
   975      3  13.420468   2.660807   6.009476 # intra_layer_ca
   976      3  11.384869   5.765600  21.979144 # intra_layer_ca
   977      3  16.788068   2.660807  20.003226 # intra_layer_ca
   978      3  14.752469   5.765600   7.985393 # intra_layer_ca
   979      2  14.013468   3.071261  13.942813 # inter_layer_ca
   980      6  16.453089   3.183033   3.494799 # tetra_o
   981      6  -5.938498  37.335750  24.496619 # tetra_o
   982      6  13.085489   3.183033  17.488549 # tetra_o
   983      6  -9.306098  37.335750  10.502869 # tetra_o
   984      6  -6.605219  38.434846   4.317632 # tetra_o
   985      6  15.786369   4.282130  23.673787 # tetra_o
   986      6  -9.972819  38.434846  18.311382 # tetra_o
   987      6  12.418769   4.282130   9.680037 # tetra_o
   988      6  17.763169   3.443836   5.795372 # tetra_o
   989      6  -4.628418  37.596552  22.196047 # tetra_o
   990      6  14.395569   3.443836  19.789122 # tetra_o
   991      6  -7.996018  37.596552   8.202297 # tetra_o
   992      6  15.735401   1.872811   5.781378 # tetra_o
   993      6  13.699803   4.977603  22.210040 # tetra_o
   994      6  12.367801   1.872811  19.775128 # tetra_o
   995      6  10.332203   4.977603   8.216290 # tetra_o
   996      6  15.061395   1.556122  12.646712 # tetra_o
   997      6  13.025796   4.660914  15.344707 # tetra_o
   998      6  15.083052   5.344590   3.506274 # tetra_o
   999      6  17.118650   2.239797  24.485704 # tetra_o
  1000      6  11.715452   5.344590  17.500024 # tetra_o
  1001      6  13.751050   2.239797  10.491954 # tetra_o
  1002      6  13.492340   5.120424   5.786975 # tetra_o
  1003      6  15.527939   2.015631  22.204443 # tetra_o
  1004      6  10.124740   5.120424  19.780725 # tetra_o
  1005      6  12.160339   2.015631   8.210693 # tetra_o
  1006      6  -4.475305  37.466772   5.793133 # tetra_o
  1007      6  17.916283   3.314055  22.199405 # tetra_o
  1008      6  -7.842905  37.466772  19.786883 # tetra_o
  1009      6  14.548683   3.314055   8.205655 # tetra_o
  1010      6  14.450181   5.517837  17.284800 # tetra_o
  1011      7  14.832745   4.692146  16.870217 # H   
  1012      6  16.485780   2.413045  10.707738 # tetra_o
  1013      7  16.441136   1.587039  10.145847 # H   
  1014      8  13.627667   2.766991   3.629699 # O   
  1015      7  14.208370   2.766991   4.443814 # H   
  1016      7  14.208370   2.766991   2.815583 # H   
  1017      8  11.592068   5.871783  24.362839 # O   
  1018      7  12.172771   5.871783  25.176954 # H   
  1019      7  12.172771   5.871783  23.548723 # H   
  1020      8  16.995267   2.766991  17.623449 # O   
  1021      7  17.575970   2.766991  18.437564 # H   
  1022      7  17.575970   2.766991  16.809333 # H   
  1023      8  14.959668   5.871783  10.369089 # O   
  1024      7  15.540371   5.871783  11.183204 # H   
  1025      7  15.540371   5.871783   9.554973 # H   
  1026      8  13.372620   4.780138  12.426730 # O   
  1027      7  13.953323   4.780138  13.240845 # H   
  1028      7  13.953323   4.780138  11.612614 # H   
  1029      8  15.408219   1.675346  15.561330 # O   
  1030      7  15.988922   1.675346  16.375445 # H   
  1031      7  15.988922   1.675346  14.747214 # H   
  1032      8  16.739945   4.892532  13.915385 # O   
  1033      7  10.585448   4.892532  14.729501 # H   
  1034      7  10.585448   4.892532  13.101269 # H   
  1035      8  17.980242   1.317053  14.083310 # O   
  1036      7  18.560944   1.317053  14.897426 # H   
  1037      7  18.560944   1.317053  13.269194 # H   
  1038      8  11.259957   5.774293  13.999348 # O   
  1039      7  11.840659   5.774293  14.813463 # H   
  1040      7  11.840659   5.774293  13.185232 # H   
  1041      5  12.881125   8.609589   4.904530 # PT_si
  1042      5  10.845527  11.714382  23.085210 # PT_si
  1043      5   9.513525   8.609589  18.898280 # PT_si
  1044      5   7.477927  11.714382   9.091459 # PT_si
  1045      4   9.008214  10.869878  16.908368 # BT_si
  1046      4  11.043812   7.765086  11.081371 # BT_si
  1047      5  10.493040  12.180101   4.901731 # PT_si
  1048      5  12.528639   9.075308  23.088008 # PT_si
  1049      5   7.125440  12.180101  18.895481 # PT_si
  1050      5   9.161039   9.075308   9.094258 # PT_si
  1051      3  12.634791   8.851763   7.982595 # intra_layer_ca
  1052      3  10.599192  11.956556  20.006025 # intra_layer_ca
  1053      3   9.267191   8.851763  21.976345 # intra_layer_ca
  1054      3   7.231592  11.956556   6.012275 # intra_layer_ca
  1055      3   9.349270   8.870392   6.009476 # intra_layer_ca
  1056      3   7.313672  11.975184  21.979144 # intra_layer_ca
  1057      3  12.716870   8.870392  20.003226 # intra_layer_ca
  1058      3  10.681272  11.975184   7.985393 # intra_layer_ca
  1059      2   9.942270   9.280846  13.942813 # inter_layer_ca
  1060      6  12.381891   9.392618   3.494799 # tetra_o
  1061      6  14.417490   6.287826  24.496619 # tetra_o
  1062      6   9.014291   9.392618  17.488549 # tetra_o
  1063      6  11.049890   6.287826  10.502869 # tetra_o
  1064      6  13.750770   7.386922   4.317632 # tetra_o
  1065      6  11.715171  10.491715  23.673787 # tetra_o
  1066      6  10.383170   7.386922  18.311382 # tetra_o
  1067      6   8.347571  10.491715   9.680037 # tetra_o
  1068      6  13.691972   9.653421   5.795372 # tetra_o
  1069      6  15.727570   6.548628  22.196047 # tetra_o
  1070      6  10.324372   9.653421  19.789122 # tetra_o
  1071      6  12.359970   6.548628   8.202297 # tetra_o
  1072      6  11.664204   8.082396   5.781378 # tetra_o
  1073      6   9.628605  11.187188  22.210040 # tetra_o
  1074      6   8.296604   8.082396  19.775128 # tetra_o
  1075      6   6.261005  11.187188   8.216290 # tetra_o
  1076      6  10.990197   7.765707  12.646712 # tetra_o
  1077      6   8.954598  10.870499  15.344707 # tetra_o
  1078      6  11.011854  11.554175   3.506274 # tetra_o
  1079      6  13.047453   8.449382  24.485704 # tetra_o
  1080      6   7.644254  11.554175  17.500024 # tetra_o
  1081      6   9.679853   8.449382  10.491954 # tetra_o
  1082      6   9.421142  11.330009   5.786975 # tetra_o
  1083      6  11.456741   8.225216  22.204443 # tetra_o
  1084      6   6.053542  11.330009  19.780725 # tetra_o
  1085      6   8.089141   8.225216   8.210693 # tetra_o
  1086      6  15.880684   6.418848   5.793133 # tetra_o
  1087      6  13.845085   9.523640  22.199405 # tetra_o
  1088      6  12.513084   6.418848  19.786883 # tetra_o
  1089      6  10.477485   9.523640   8.205655 # tetra_o
  1090      6  10.378983  11.727422  17.284800 # tetra_o
  1091      7  10.761547  10.901731  16.870217 # H   
  1092      6  12.414582   8.622630  10.707738 # tetra_o
  1093      7  12.369938   7.796624  10.145847 # H   
  1094      8   9.556470   8.976576   3.629699 # O   
  1095      7  10.137173   8.976576   4.443814 # H   
  1096      7  10.137173   8.976576   2.815583 # H   
  1097      8   7.520871  12.081368  24.362839 # O   
  1098      7   8.101574  12.081368  25.176954 # H   
  1099      7   8.101574  12.081368  23.548723 # H   
  1100      8  12.924070   8.976576  17.623449 # O   
  1101      7  13.504773   8.976576  18.437564 # H   
  1102      7  13.504773   8.976576  16.809333 # H   
  1103      8  10.888471  12.081368  10.369089 # O   
  1104      7  11.469174  12.081368  11.183204 # H   
  1105      7  11.469174  12.081368   9.554973 # H   
  1106      8   9.301422  10.989723  12.426730 # O   
  1107      7   9.882125  10.989723  13.240845 # H   
  1108      7   9.882125  10.989723  11.612614 # H   
  1109      8  11.337021   7.884931  15.561330 # O   
  1110      7  11.917724   7.884931  16.375445 # H   
  1111      7  11.917724   7.884931  14.747214 # H   
  1112      8  12.668747  11.102117  13.915385 # O   
  1113      7   6.514250  11.102117  14.729501 # H   
  1114      7   6.514250  11.102117  13.101269 # H   
  1115      8  13.909044   7.526638  14.083310 # O   
  1116      7  14.489747   7.526638  14.897426 # H   
  1117      7  14.489747   7.526638  13.269194 # H   
  1118      8   7.188759  11.983878  13.999348 # O   
  1119      7   7.769462  11.983878  14.813463 # H   
  1120      7   7.769462  11.983878  13.185232 # H   
  1121      5   8.809928  14.819174   4.904530 # PT_si
  1122      5   6.774329  17.923967  23.085210 # PT_si
  1123      5   5.442328  14.819174  18.898280 # PT_si
  1124      5   3.406729  17.923967   9.091459 # PT_si
  1125      4   4.937016  17.079463  16.908368 # BT_si
  1126      4   6.972615  13.974671  11.081371 # BT_si
  1127      5   6.421843  18.389686   4.901731 # PT_si
  1128      5   8.457442  15.284893  23.088008 # PT_si
  1129      5   3.054243  18.389686  18.895481 # PT_si
  1130      5   5.089842  15.284893   9.094258 # PT_si
  1131      3   8.563593  15.061348   7.982595 # intra_layer_ca
  1132      3   6.527995  18.166141  20.006025 # intra_layer_ca
  1133      3   5.195993  15.061348  21.976345 # intra_layer_ca
  1134      3   3.160395  18.166141   6.012275 # intra_layer_ca
  1135      3   5.278073  15.079977   6.009476 # intra_layer_ca
  1136      3   3.242474  18.184769  21.979144 # intra_layer_ca
  1137      3   8.645673  15.079977  20.003226 # intra_layer_ca
  1138      3   6.610074  18.184769   7.985393 # intra_layer_ca
  1139      2   5.871072  15.490430  13.942813 # inter_layer_ca
  1140      6   8.310694  15.602203   3.494799 # tetra_o
  1141      6  10.346292  12.497410  24.496619 # tetra_o
  1142      6   4.943094  15.602203  17.488549 # tetra_o
  1143      6   6.978692  12.497410  10.502869 # tetra_o
  1144      6   9.679572  13.596507   4.317632 # tetra_o
  1145      6   7.643973  16.701299  23.673787 # tetra_o
  1146      6   6.311972  13.596507  18.311382 # tetra_o
  1147      6   4.276373  16.701299   9.680037 # tetra_o
  1148      6   9.620774  15.863005   5.795372 # tetra_o
  1149      6  11.656373  12.758213  22.196047 # tetra_o
  1150      6   6.253174  15.863005  19.789122 # tetra_o
  1151      6   8.288773  12.758213   8.202297 # tetra_o
  1152      6   7.593006  14.291981   5.781378 # tetra_o
  1153      6   5.557407  17.396773  22.210040 # tetra_o
  1154      6   4.225406  14.291981  19.775128 # tetra_o
  1155      6   2.189807  17.396773   8.216290 # tetra_o
  1156      6   6.918999  13.975292  12.646712 # tetra_o
  1157      6   4.883401  17.080084  15.344707 # tetra_o
  1158      6   6.940656  17.763759   3.506274 # tetra_o
  1159      6   8.976255  14.658967  24.485704 # tetra_o
  1160      6   3.573056  17.763759  17.500024 # tetra_o
  1161      6   5.608655  14.658967  10.491954 # tetra_o
  1162      6   5.349945  17.539593   5.786975 # tetra_o
  1163      6   7.385544  14.434801  22.204443 # tetra_o
  1164      6   1.982345  17.539593  19.780725 # tetra_o
  1165      6   4.017944  14.434801   8.210693 # tetra_o
  1166      6  11.809486  12.628433   5.793133 # tetra_o
  1167      6   9.773887  15.733225  22.199405 # tetra_o
  1168      6   8.441886  12.628433  19.786883 # tetra_o
  1169      6   6.406287  15.733225   8.205655 # tetra_o
  1170      6   6.307786  17.937007  17.284800 # tetra_o
  1171      7   6.690349  17.111316  16.870217 # H   
  1172      6   8.343385  14.832214  10.707738 # tetra_o
  1173      7   8.298740  14.006208  10.145847 # H   
  1174      8   5.485272  15.186161   3.629699 # O   
  1175      7   6.065975  15.186161   4.443814 # H   
  1176      7   6.065975  15.186161   2.815583 # H   
  1177      8   3.449673  18.290953  24.362839 # O   
  1178      7   4.030376  18.290953  25.176954 # H   
  1179      7   4.030376  18.290953  23.548723 # H   
  1180      8   8.852872  15.186161  17.623449 # O   
  1181      7   9.433575  15.186161  18.437564 # H   
  1182      7   9.433575  15.186161  16.809333 # H   
  1183      8   6.817273  18.290953  10.369089 # O   
  1184      7   7.397976  18.290953  11.183204 # H   
  1185      7   7.397976  18.290953   9.554973 # H   
  1186      8   5.230225  17.199308  12.426730 # O   
  1187      7   5.810928  17.199308  13.240845 # H   
  1188      7   5.810928  17.199308  11.612614 # H   
  1189      8   7.265824  14.094516  15.561330 # O   
  1190      7   7.846527  14.094516  16.375445 # H   
  1191      7   7.846527  14.094516  14.747214 # H   
  1192      8   8.597550  17.311702  13.915385 # O   
  1193      7   2.443053  17.311702  14.729501 # H   
  1194      7   2.443053  17.311702  13.101269 # H   
  1195      8   9.837846  13.736223  14.083310 # O   
  1196      7  10.418549  13.736223  14.897426 # H   
  1197      7  10.418549  13.736223  13.269194 # H   
  1198      8   3.117561  18.193463  13.999348 # O   
  1199      7   3.698264  18.193463  14.813463 # H   
  1200      7   3.698264  18.193463  13.185232 # H   
  1201      5   4.738730  21.028759   4.904530 # PT_si
  1202      5   2.703131  24.133552  23.085210 # PT_si
  1203      5   1.371130  21.028759  18.898280 # PT_si
  1204      5  -0.664469  24.133552   9.091459 # PT_si
  1205      4   0.865818  23.289048  16.908368 # BT_si
  1206      4   2.901417  20.184256  11.081371 # BT_si
  1207      5   2.350645  24.599270   4.901731 # PT_si
  1208      5   4.386244  21.494478  23.088008 # PT_si
  1209      5  -1.016955  24.599270  18.895481 # PT_si
  1210      5   1.018644  21.494478   9.094258 # PT_si
  1211      3   4.492396  21.270933   7.982595 # intra_layer_ca
  1212      3   2.456797  24.375725  20.006025 # intra_layer_ca
  1213      3   1.124796  21.270933  21.976345 # intra_layer_ca
  1214      3  -0.910803  24.375725   6.012275 # intra_layer_ca
  1215      3   1.206875  21.289562   6.009476 # intra_layer_ca
  1216      3  -0.828724  24.394354  21.979144 # intra_layer_ca
  1217      3   4.574475  21.289562  20.003226 # intra_layer_ca
  1218      3   2.538876  24.394354   7.985393 # intra_layer_ca
  1219      2   1.799874  21.700015  13.942813 # inter_layer_ca
  1220      6   4.239496  21.811788   3.494799 # tetra_o
  1221      6   6.275095  18.706995  24.496619 # tetra_o
  1222      6   0.871896  21.811788  17.488549 # tetra_o
  1223      6   2.907495  18.706995  10.502869 # tetra_o
  1224      6   5.608374  19.806092   4.317632 # tetra_o
  1225      6   3.572776  22.910884  23.673787 # tetra_o
  1226      6   2.240774  19.806092  18.311382 # tetra_o
  1227      6   0.205176  22.910884   9.680037 # tetra_o
  1228      6   5.549576  22.072590   5.795372 # tetra_o
  1229      6   7.585175  18.967798  22.196047 # tetra_o
  1230      6   2.181976  22.072590  19.789122 # tetra_o
  1231      6   4.217575  18.967798   8.202297 # tetra_o
  1232      6   3.521808  20.501565   5.781378 # tetra_o
  1233      6   1.486209  23.606358  22.210040 # tetra_o
  1234      6   0.154208  20.501565  19.775128 # tetra_o
  1235      6  -1.881391  23.606358   8.216290 # tetra_o
  1236      6   2.847802  20.184877  12.646712 # tetra_o
  1237      6   0.812203  23.289669  15.344707 # tetra_o
  1238      6   2.869458  23.973344   3.506274 # tetra_o
  1239      6   4.905057  20.868552  24.485704 # tetra_o
  1240      6  -0.498142  23.973344  17.500024 # tetra_o
  1241      6   1.537457  20.868552  10.491954 # tetra_o
  1242      6   1.278747  23.749178   5.786975 # tetra_o
  1243      6   3.314346  20.644386  22.204443 # tetra_o
  1244      6  -2.088853  23.749178  19.780725 # tetra_o
  1245      6  -0.053254  20.644386   8.210693 # tetra_o
  1246      6   7.738289  18.838018   5.793133 # tetra_o
  1247      6   5.702690  21.942810  22.199405 # tetra_o
  1248      6   4.370688  18.838018  19.786883 # tetra_o
  1249      6   2.335090  21.942810   8.205655 # tetra_o
  1250      6   2.236588  24.146592  17.284800 # tetra_o
  1251      7   2.619152  23.320900  16.870217 # H   
  1252      6   4.272187  21.041799  10.707738 # tetra_o
  1253      7   4.227543  20.215793  10.145847 # H   
  1254      8   1.414074  21.395746   3.629699 # O   
  1255      7   1.994777  21.395746   4.443814 # H   
  1256      7   1.994777  21.395746   2.815583 # H   
  1257      8  -0.621525  24.500538  24.362839 # O   
  1258      7  -0.040822  24.500538  25.176954 # H   
  1259      7  -0.040822  24.500538  23.548723 # H   
  1260      8   4.781674  21.395746  17.623449 # O   
  1261      7   5.362377  21.395746  18.437564 # H   
  1262      7   5.362377  21.395746  16.809333 # H   
  1263      8   2.746075  24.500538  10.369089 # O   
  1264      7   3.326778  24.500538  11.183204 # H   
  1265      7   3.326778  24.500538   9.554973 # H   
  1266      8   1.159027  23.408893  12.426730 # O   
  1267      7   1.739730  23.408893  13.240845 # H   
  1268      7   1.739730  23.408893  11.612614 # H   
  1269      8   3.194626  20.304101  15.561330 # O   
  1270      7   3.775329  20.304101  16.375445 # H   
  1271      7   3.775329  20.304101  14.747214 # H   
  1272      8   4.526352  23.521286  13.915385 # O   
  1273      7  -1.628145  23.521286  14.729501 # H   
  1274      7  -1.628145  23.521286  13.101269 # H   
  1275      8   5.766648  19.945808  14.083310 # O   
  1276      7   6.347351  19.945808  14.897426 # H   
  1277      7   6.347351  19.945808  13.269194 # H   
  1278      8  -0.953637  24.403048  13.999348 # O   
  1279      7  -0.372934  24.403048  14.813463 # H   
  1280      7  -0.372934  24.403048  13.185232 # H   
  1281      5   0.667532  27.238344   4.904530 # PT_si
  1282      5  -1.368067  30.343136  23.085210 # PT_si
  1283      5  -2.700068  27.238344  18.898280 # PT_si
  1284      5  -4.735667  30.343136   9.091459 # PT_si
  1285      4  -3.205380  29.498633  16.908368 # BT_si
  1286      4  -1.169781  26.393840  11.081371 # BT_si
  1287      5  -1.720553  30.808855   4.901731 # PT_si
  1288      5   0.315046  27.704063  23.088008 # PT_si
  1289      5  -5.088153  30.808855  18.895481 # PT_si
  1290      5  -3.052554  27.704063   9.094258 # PT_si
  1291      3   0.421198  27.480518   7.982595 # intra_layer_ca
  1292      3  -1.614401  30.585310  20.006025 # intra_layer_ca
  1293      3  -2.946402  27.480518  21.976345 # intra_layer_ca
  1294      3  -4.982001  30.585310   6.012275 # intra_layer_ca
  1295      3  -2.864323  27.499147   6.009476 # intra_layer_ca
  1296      3  -4.899922  30.603939  21.979144 # intra_layer_ca
  1297      3   0.503277  27.499147  20.003226 # intra_layer_ca
  1298      3  -1.532322  30.603939   7.985393 # intra_layer_ca
  1299      2  -2.271323  27.909600  13.942813 # inter_layer_ca
  1300      6   0.168298  28.021373   3.494799 # tetra_o
  1301      6   2.203897  24.916580  24.496619 # tetra_o
  1302      6  -3.199302  28.021373  17.488549 # tetra_o
  1303      6  -1.163703  24.916580  10.502869 # tetra_o
  1304      6   1.537177  26.015677   4.317632 # tetra_o
  1305      6  -0.498422  29.120469  23.673787 # tetra_o
  1306      6  -1.830423  26.015677  18.311382 # tetra_o
  1307      6  -3.866022  29.120469   9.680037 # tetra_o
  1308      6   1.478378  28.282175   5.795372 # tetra_o
  1309      6   3.513977  25.177383  22.196047 # tetra_o
  1310      6  -1.889222  28.282175  19.789122 # tetra_o
  1311      6   0.146377  25.177383   8.202297 # tetra_o
  1312      6  -0.549389  26.711150   5.781378 # tetra_o
  1313      6  -2.584988  29.815943  22.210040 # tetra_o
  1314      6  -3.916989  26.711150  19.775128 # tetra_o
  1315      6  -5.952588  29.815943   8.216290 # tetra_o
  1316      6  -1.223396  26.394461  12.646712 # tetra_o
  1317      6  -3.258995  29.499254  15.344707 # tetra_o
  1318      6  -1.201739  30.182929   3.506274 # tetra_o
  1319      6   0.833860  27.078137  24.485704 # tetra_o
  1320      6  -4.569339  30.182929  17.500024 # tetra_o
  1321      6  -2.533740  27.078137  10.491954 # tetra_o
  1322      6  -2.792451  29.958763   5.786975 # tetra_o
  1323      6  -0.756852  26.853971  22.204443 # tetra_o
  1324      6  -6.160051  29.958763  19.780725 # tetra_o
  1325      6  -4.124452  26.853971   8.210693 # tetra_o
  1326      6   3.667091  25.047602   5.793133 # tetra_o
  1327      6   1.631492  28.152395  22.199405 # tetra_o
  1328      6   0.299491  25.047602  19.786883 # tetra_o
  1329      6  -1.736108  28.152395   8.205655 # tetra_o
  1330      6  -1.834610  30.356177  17.284800 # tetra_o
  1331      7  -1.452046  29.530485  16.870217 # H   
  1332      6   0.200989  27.251384  10.707738 # tetra_o
  1333      7   0.156345  26.425378  10.145847 # H   
  1334      8  -2.657124  27.605330   3.629699 # O   
  1335      7  -2.076421  27.605330   4.443814 # H   
  1336      7  -2.076421  27.605330   2.815583 # H   
  1337      8  -4.692722  30.710123  24.362839 # O   
  1338      7  -4.112019  30.710123  25.176954 # H   
  1339      7  -4.112019  30.710123  23.548723 # H   
  1340      8   0.710476  27.605330  17.623449 # O   
  1341      7   1.291179  27.605330  18.437564 # H   
  1342      7   1.291179  27.605330  16.809333 # H   
  1343      8  -1.325122  30.710123  10.369089 # O   
  1344      7  -0.744419  30.710123  11.183204 # H   
  1345      7  -0.744419  30.710123   9.554973 # H   
  1346      8  -2.912171  29.618478  12.426730 # O   
  1347      7  -2.331468  29.618478  13.240845 # H   
  1348      7  -2.331468  29.618478  11.612614 # H   
  1349      8  -0.876572  26.513685  15.561330 # O   
  1350      7  -0.295869  26.513685  16.375445 # H   
  1351      7  -0.295869  26.513685  14.747214 # H   
  1352      8   0.455154  29.730871  13.915385 # O   
  1353      7  -5.699343  29.730871  14.729501 # H   
  1354      7  -5.699343  29.730871  13.101269 # H   
  1355      8   1.695451  26.155392  14.083310 # O   
  1356      7   2.276154  26.155392  14.897426 # H   
  1357      7   2.276154  26.155392  13.269194 # H   
  1358      8  -5.024834  30.612632  13.999348 # O   
  1359      7  -4.444131  30.612632  14.813463 # H   
  1360      7  -4.444131  30.612632  13.185232 # H   
  1361      5  -3.403665  33.447929   4.904530 # PT_si
  1362      5  -5.439264  36.552721  23.085210 # PT_si
  1363      5  -6.771265  33.447929  18.898280 # PT_si
  1364      5  -8.806864  36.552721   9.091459 # PT_si
  1365      4  -7.276577  35.708218  16.908368 # BT_si
  1366      4  -5.240979  32.603425  11.081371 # BT_si
  1367      5  -5.791751  37.018440   4.901731 # PT_si
  1368      5  -3.756152  33.913648  23.088008 # PT_si
  1369      5  -9.159351  37.018440  18.895481 # PT_si
  1370      5  -7.123752  33.913648   9.094258 # PT_si
  1371      3  -3.650000  33.690103   7.982595 # intra_layer_ca
  1372      3  -5.685599  36.794895  20.006025 # intra_layer_ca
  1373      3  -7.017600  33.690103  21.976345 # intra_layer_ca
  1374      3  -9.053199  36.794895   6.012275 # intra_layer_ca
  1375      3  -6.935521  33.708731   6.009476 # intra_layer_ca
  1376      3  -8.971119  36.813524  21.979144 # intra_layer_ca
  1377      3  -3.567921  33.708731  20.003226 # intra_layer_ca
  1378      3  -5.603519  36.813524   7.985393 # intra_layer_ca
  1379      2  -6.342521  34.119185  13.942813 # inter_layer_ca
  1380      6  -3.902900  34.230957   3.494799 # tetra_o
  1381      6  -1.867301  31.126165  24.496619 # tetra_o
  1382      6  -7.270500  34.230957  17.488549 # tetra_o
  1383      6  -5.234901  31.126165  10.502869 # tetra_o
  1384      6  -2.534021  32.225262   4.317632 # tetra_o
  1385      6  -4.569620  35.330054  23.673787 # tetra_o
  1386      6  -5.901621  32.225262  18.311382 # tetra_o
  1387      6  -7.937220  35.330054   9.680037 # tetra_o
  1388      6  -2.592819  34.491760   5.795372 # tetra_o
  1389      6  -0.557221  31.386968  22.196047 # tetra_o
  1390      6  -5.960419  34.491760  19.789122 # tetra_o
  1391      6  -3.924821  31.386968   8.202297 # tetra_o
  1392      6  -4.620587  32.920735   5.781378 # tetra_o
  1393      6  -6.656186  36.025528  22.210040 # tetra_o
  1394      6  -7.988187  32.920735  19.775128 # tetra_o
  1395      6 -10.023786  36.025528   8.216290 # tetra_o
  1396      6  -5.294594  32.604046  12.646712 # tetra_o
  1397      6  -7.330193  35.708839  15.344707 # tetra_o
  1398      6  -5.272937  36.392514   3.506274 # tetra_o
  1399      6  -3.237338  33.287722  24.485704 # tetra_o
  1400      6  -8.640537  36.392514  17.500024 # tetra_o
  1401      6  -6.604938  33.287722  10.491954 # tetra_o
  1402      6  -6.863648  36.168348   5.786975 # tetra_o
  1403      6  -4.828050  33.063556  22.204443 # tetra_o
  1404      6 -10.231248  36.168348  19.780725 # tetra_o
  1405      6  -8.195650  33.063556   8.210693 # tetra_o
  1406      6  -0.404107  31.257187   5.793133 # tetra_o
  1407      6  -2.439706  34.361980  22.199405 # tetra_o
  1408      6  -3.771707  31.257187  19.786883 # tetra_o
  1409      6  -5.807306  34.361980   8.205655 # tetra_o
  1410      6  -5.905807  36.565761  17.284800 # tetra_o
  1411      7  -5.523244  35.740070  16.870217 # H   
  1412      6  -3.870209  33.460969  10.707738 # tetra_o
  1413      7  -3.914853  32.634963  10.145847 # H   
  1414      8  -6.728321  33.814915   3.629699 # O   
  1415      7  -6.147618  33.814915   4.443814 # H   
  1416      7  -6.147618  33.814915   2.815583 # H   
  1417      8  -8.763920  36.919708  24.362839 # O   
  1418      7  -8.183217  36.919708  25.176954 # H   
  1419      7  -8.183217  36.919708  23.548723 # H   
  1420      8  -3.360721  33.814915  17.623449 # O   
  1421      7  -2.780018  33.814915  18.437564 # H   
  1422      7  -2.780018  33.814915  16.809333 # H   
  1423      8  -5.396320  36.919708  10.369089 # O   
  1424      7  -4.815617  36.919708  11.183204 # H   
  1425      7  -4.815617  36.919708   9.554973 # H   
  1426      8  -6.983368  35.828063  12.426730 # O   
  1427      7  -6.402666  35.828063  13.240845 # H   
  1428      7  -6.402666  35.828063  11.612614 # H   
  1429      8  -4.947770  32.723270  15.561330 # O   
  1430      7  -4.367067  32.723270  16.375445 # H   
  1431      7  -4.367067  32.723270  14.747214 # H   
  1432      8  -3.616043  35.940456  13.915385 # O   
  1433      7  -9.770541  35.940456  14.729501 # H   
  1434      7  -9.770541  35.940456  13.101269 # H   
  1435      8  -2.375747  32.364977  14.083310 # O   
  1436      7  -1.795044  32.364977  14.897426 # H   
  1437      7  -1.795044  32.364977  13.269194 # H   
  1438      8  -9.096032  36.822217  13.999348 # O   
  1439      7  -8.515329  36.822217  14.813463 # H   
  1440      7  -8.515329  36.822217  13.185232 # H   
  1441      5  23.687523   2.400005   4.904530 # PT_si
  1442      5  21.651924   5.504797  23.085210 # PT_si
  1443      5  20.319923   2.400005  18.898280 # PT_si
  1444      5  18.284324   5.504797   9.091459 # PT_si
  1445      4  19.814611   4.660293  16.908368 # BT_si
  1446      4  21.850210   1.555501  11.081371 # BT_si
  1447      5  21.299438   5.970516   4.901731 # PT_si
  1448      5  23.335037   2.865723  23.088008 # PT_si
  1449      5  17.931838   5.970516  18.895481 # PT_si
  1450      5  19.967437   2.865723   9.094258 # PT_si
  1451      3  23.441189   2.642178   7.982595 # intra_layer_ca
  1452      3  21.405590   5.746971  20.006025 # intra_layer_ca
  1453      3  20.073589   2.642178  21.976345 # intra_layer_ca
  1454      3  18.037990   5.746971   6.012275 # intra_layer_ca
  1455      3  20.155668   2.660807   6.009476 # intra_layer_ca
  1456      3  18.120069   5.765600  21.979144 # intra_layer_ca
  1457      3  23.523268   2.660807  20.003226 # intra_layer_ca
  1458      3  21.487669   5.765600   7.985393 # intra_layer_ca
  1459      2  20.748668   3.071261  13.942813 # inter_layer_ca
  1460      6  23.188289   3.183033   3.494799 # tetra_o
  1461      6   0.796702  37.335750  24.496619 # tetra_o
  1462      6  19.820689   3.183033  17.488549 # tetra_o
  1463      6  -2.570898  37.335750  10.502869 # tetra_o
  1464      6   0.129981  38.434846   4.317632 # tetra_o
  1465      6  22.521569   4.282130  23.673787 # tetra_o
  1466      6  -3.237619  38.434846  18.311382 # tetra_o
  1467      6  19.153969   4.282130   9.680037 # tetra_o
  1468      6  24.498369   3.443836   5.795372 # tetra_o
  1469      6   2.106782  37.596552  22.196047 # tetra_o
  1470      6  21.130769   3.443836  19.789122 # tetra_o
  1471      6  -1.260818  37.596552   8.202297 # tetra_o
  1472      6  22.470601   1.872811   5.781378 # tetra_o
  1473      6  20.435003   4.977603  22.210040 # tetra_o
  1474      6  19.103001   1.872811  19.775128 # tetra_o
  1475      6  17.067403   4.977603   8.216290 # tetra_o
  1476      6  21.796595   1.556122  12.646712 # tetra_o
  1477      6  19.760996   4.660914  15.344707 # tetra_o
  1478      6  21.818252   5.344590   3.506274 # tetra_o
  1479      6  23.853850   2.239797  24.485704 # tetra_o
  1480      6  18.450652   5.344590  17.500024 # tetra_o
  1481      6  20.486250   2.239797  10.491954 # tetra_o
  1482      6  20.227540   5.120424   5.786975 # tetra_o
  1483      6  22.263139   2.015631  22.204443 # tetra_o
  1484      6  16.859940   5.120424  19.780725 # tetra_o
  1485      6  18.895539   2.015631   8.210693 # tetra_o
  1486      6   2.259895  37.466772   5.793133 # tetra_o
  1487      6  24.651483   3.314055  22.199405 # tetra_o
  1488      6  -1.107705  37.466772  19.786883 # tetra_o
  1489      6  21.283883   3.314055   8.205655 # tetra_o
  1490      6  21.185381   5.517837  17.284800 # tetra_o
  1491      7  21.567945   4.692146  16.870217 # H   
  1492      6  23.220980   2.413045  10.707738 # tetra_o
  1493      7  23.176336   1.587039  10.145847 # H   
  1494      8  20.362867   2.766991   3.629699 # O   
  1495      7  20.943570   2.766991   4.443814 # H   
  1496      7  20.943570   2.766991   2.815583 # H   
  1497      8  18.327268   5.871783  24.362839 # O   
  1498      7  18.907971   5.871783  25.176954 # H   
  1499      7  18.907971   5.871783  23.548723 # H   
  1500      8  23.730467   2.766991  17.623449 # O   
  1501      7  24.311170   2.766991  18.437564 # H   
  1502      7  24.311170   2.766991  16.809333 # H   
  1503      8  21.694868   5.871783  10.369089 # O   
  1504      7  22.275571   5.871783  11.183204 # H   
  1505      7  22.275571   5.871783   9.554973 # H   
  1506      8  20.107820   4.780138  12.426730 # O   
  1507      7  20.688523   4.780138  13.240845 # H   
  1508      7  20.688523   4.780138  11.612614 # H   
  1509      8  22.143419   1.675346  15.561330 # O   
  1510      7  22.724122   1.675346  16.375445 # H   
  1511      7  22.724122   1.675346  14.747214 # H   
  1512      8  23.475145   4.892532  13.915385 # O   
  1513      7  17.320648   4.892532  14.729501 # H   
  1514      7  17.320648   4.892532  13.101269 # H   
  1515      8  24.715442   1.317053  14.083310 # O   
  1516      7  25.296144   1.317053  14.897426 # H   
  1517      7  25.296144   1.317053  13.269194 # H   
  1518      8  17.995157   5.774293  13.999348 # O   
  1519      7  18.575859   5.774293  14.813463 # H   
  1520      7  18.575859   5.774293  13.185232 # H   
  1521      5  19.616325   8.609589   4.904530 # PT_si
  1522      5  17.580727  11.714382  23.085210 # PT_si
  1523      5  16.248725   8.609589  18.898280 # PT_si
  1524      5  14.213127  11.714382   9.091459 # PT_si
  1525      4  15.743413  10.869878  16.908368 # BT_si
  1526      4  17.779012   7.765086  11.081371 # BT_si
  1527      5  17.228240  12.180101   4.901731 # PT_si
  1528      5  19.263839   9.075308  23.088008 # PT_si
  1529      5  13.860640  12.180101  18.895481 # PT_si
  1530      5  15.896239   9.075308   9.094258 # PT_si
  1531      3  19.369991   8.851763   7.982595 # intra_layer_ca
  1532      3  17.334392  11.956556  20.006025 # intra_layer_ca
  1533      3  16.002391   8.851763  21.976345 # intra_layer_ca
  1534      3  13.966792  11.956556   6.012275 # intra_layer_ca
  1535      3  16.084470   8.870392   6.009476 # intra_layer_ca
  1536      3  14.048872  11.975184  21.979144 # intra_layer_ca
  1537      3  19.452070   8.870392  20.003226 # intra_layer_ca
  1538      3  17.416472  11.975184   7.985393 # intra_layer_ca
  1539      2  16.677470   9.280846  13.942813 # inter_layer_ca
  1540      6  19.117091   9.392618   3.494799 # tetra_o
  1541      6  21.152690   6.287826  24.496619 # tetra_o
  1542      6  15.749491   9.392618  17.488549 # tetra_o
  1543      6  17.785090   6.287826  10.502869 # tetra_o
  1544      6  20.485970   7.386922   4.317632 # tetra_o
  1545      6  18.450371  10.491715  23.673787 # tetra_o
  1546      6  17.118370   7.386922  18.311382 # tetra_o
  1547      6  15.082771  10.491715   9.680037 # tetra_o
  1548      6  20.427172   9.653421   5.795372 # tetra_o
  1549      6  22.462770   6.548628  22.196047 # tetra_o
  1550      6  17.059572   9.653421  19.789122 # tetra_o
  1551      6  19.095170   6.548628   8.202297 # tetra_o
  1552      6  18.399404   8.082396   5.781378 # tetra_o
  1553      6  16.363805  11.187188  22.210040 # tetra_o
  1554      6  15.031804   8.082396  19.775128 # tetra_o
  1555      6  12.996205  11.187188   8.216290 # tetra_o
  1556      6  17.725397   7.765707  12.646712 # tetra_o
  1557      6  15.689798  10.870499  15.344707 # tetra_o
  1558      6  17.747054  11.554175   3.506274 # tetra_o
  1559      6  19.782653   8.449382  24.485704 # tetra_o
  1560      6  14.379454  11.554175  17.500024 # tetra_o
  1561      6  16.415053   8.449382  10.491954 # tetra_o
  1562      6  16.156342  11.330009   5.786975 # tetra_o
  1563      6  18.191941   8.225216  22.204443 # tetra_o
  1564      6  12.788742  11.330009  19.780725 # tetra_o
  1565      6  14.824341   8.225216   8.210693 # tetra_o
  1566      6  22.615884   6.418848   5.793133 # tetra_o
  1567      6  20.580285   9.523640  22.199405 # tetra_o
  1568      6  19.248284   6.418848  19.786883 # tetra_o
  1569      6  17.212685   9.523640   8.205655 # tetra_o
  1570      6  17.114183  11.727422  17.284800 # tetra_o
  1571      7  17.496747  10.901731  16.870217 # H   
  1572      6  19.149782   8.622630  10.707738 # tetra_o
  1573      7  19.105138   7.796624  10.145847 # H   
  1574      8  16.291670   8.976576   3.629699 # O   
  1575      7  16.872373   8.976576   4.443814 # H   
  1576      7  16.872373   8.976576   2.815583 # H   
  1577      8  14.256071  12.081368  24.362839 # O   
  1578      7  14.836774  12.081368  25.176954 # H   
  1579      7  14.836774  12.081368  23.548723 # H   
  1580      8  19.659270   8.976576  17.623449 # O   
  1581      7  20.239973   8.976576  18.437564 # H   
  1582      7  20.239973   8.976576  16.809333 # H   
  1583      8  17.623671  12.081368  10.369089 # O   
  1584      7  18.204374  12.081368  11.183204 # H   
  1585      7  18.204374  12.081368   9.554973 # H   
  1586      8  16.036622  10.989723  12.426730 # O   
  1587      7  16.617325  10.989723  13.240845 # H   
  1588      7  16.617325  10.989723  11.612614 # H   
  1589      8  18.072221   7.884931  15.561330 # O   
  1590      7  18.652924   7.884931  16.375445 # H   
  1591      7  18.652924   7.884931  14.747214 # H   
  1592      8  19.403947  11.102117  13.915385 # O   
  1593      7  13.249450  11.102117  14.729501 # H   
  1594      7  13.249450  11.102117  13.101269 # H   
  1595      8  20.644244   7.526638  14.083310 # O   
  1596      7  21.224947   7.526638  14.897426 # H   
  1597      7  21.224947   7.526638  13.269194 # H   
  1598      8  13.923959  11.983878  13.999348 # O   
  1599      7  14.504662  11.983878  14.813463 # H   
  1600      7  14.504662  11.983878  13.185232 # H   
  1601      5  15.545128  14.819174   4.904530 # PT_si
  1602      5  13.509529  17.923967  23.085210 # PT_si
  1603      5  12.177528  14.819174  18.898280 # PT_si
  1604      5  10.141929  17.923967   9.091459 # PT_si
  1605      4  11.672216  17.079463  16.908368 # BT_si
  1606      4  13.707815  13.974671  11.081371 # BT_si
  1607      5  13.157043  18.389686   4.901731 # PT_si
  1608      5  15.192642  15.284893  23.088008 # PT_si
  1609      5   9.789443  18.389686  18.895481 # PT_si
  1610      5  11.825042  15.284893   9.094258 # PT_si
  1611      3  15.298793  15.061348   7.982595 # intra_layer_ca
  1612      3  13.263195  18.166141  20.006025 # intra_layer_ca
  1613      3  11.931193  15.061348  21.976345 # intra_layer_ca
  1614      3   9.895595  18.166141   6.012275 # intra_layer_ca
  1615      3  12.013273  15.079977   6.009476 # intra_layer_ca
  1616      3   9.977674  18.184769  21.979144 # intra_layer_ca
  1617      3  15.380873  15.079977  20.003226 # intra_layer_ca
  1618      3  13.345274  18.184769   7.985393 # intra_layer_ca
  1619      2  12.606272  15.490430  13.942813 # inter_layer_ca
  1620      6  15.045894  15.602203   3.494799 # tetra_o
  1621      6  17.081492  12.497410  24.496619 # tetra_o
  1622      6  11.678294  15.602203  17.488549 # tetra_o
  1623      6  13.713892  12.497410  10.502869 # tetra_o
  1624      6  16.414772  13.596507   4.317632 # tetra_o
  1625      6  14.379173  16.701299  23.673787 # tetra_o
  1626      6  13.047172  13.596507  18.311382 # tetra_o
  1627      6  11.011573  16.701299   9.680037 # tetra_o
  1628      6  16.355974  15.863005   5.795372 # tetra_o
  1629      6  18.391573  12.758213  22.196047 # tetra_o
  1630      6  12.988374  15.863005  19.789122 # tetra_o
  1631      6  15.023973  12.758213   8.202297 # tetra_o
  1632      6  14.328206  14.291981   5.781378 # tetra_o
  1633      6  12.292607  17.396773  22.210040 # tetra_o
  1634      6  10.960606  14.291981  19.775128 # tetra_o
  1635      6   8.925007  17.396773   8.216290 # tetra_o
  1636      6  13.654199  13.975292  12.646712 # tetra_o
  1637      6  11.618601  17.080084  15.344707 # tetra_o
  1638      6  13.675856  17.763759   3.506274 # tetra_o
  1639      6  15.711455  14.658967  24.485704 # tetra_o
  1640      6  10.308256  17.763759  17.500024 # tetra_o
  1641      6  12.343855  14.658967  10.491954 # tetra_o
  1642      6  12.085145  17.539593   5.786975 # tetra_o
  1643      6  14.120744  14.434801  22.204443 # tetra_o
  1644      6   8.717545  17.539593  19.780725 # tetra_o
  1645      6  10.753144  14.434801   8.210693 # tetra_o
  1646      6  18.544686  12.628433   5.793133 # tetra_o
  1647      6  16.509087  15.733225  22.199405 # tetra_o
  1648      6  15.177086  12.628433  19.786883 # tetra_o
  1649      6  13.141487  15.733225   8.205655 # tetra_o
  1650      6  13.042986  17.937007  17.284800 # tetra_o
  1651      7  13.425549  17.111316  16.870217 # H   
  1652      6  15.078585  14.832214  10.707738 # tetra_o
  1653      7  15.033940  14.006208  10.145847 # H   
  1654      8  12.220472  15.186161   3.629699 # O   
  1655      7  12.801175  15.186161   4.443814 # H   
  1656      7  12.801175  15.186161   2.815583 # H   
  1657      8  10.184873  18.290953  24.362839 # O   
  1658      7  10.765576  18.290953  25.176954 # H   
  1659      7  10.765576  18.290953  23.548723 # H   
  1660      8  15.588072  15.186161  17.623449 # O   
  1661      7  16.168775  15.186161  18.437564 # H   
  1662      7  16.168775  15.186161  16.809333 # H   
  1663      8  13.552473  18.290953  10.369089 # O   
  1664      7  14.133176  18.290953  11.183204 # H   
  1665      7  14.133176  18.290953   9.554973 # H   
  1666      8  11.965425  17.199308  12.426730 # O   
  1667      7  12.546128  17.199308  13.240845 # H   
  1668      7  12.546128  17.199308  11.612614 # H   
  1669      8  14.001024  14.094516  15.561330 # O   
  1670      7  14.581727  14.094516  16.375445 # H   
  1671      7  14.581727  14.094516  14.747214 # H   
  1672      8  15.332750  17.311702  13.915385 # O   
  1673      7   9.178253  17.311702  14.729501 # H   
  1674      7   9.178253  17.311702  13.101269 # H   
  1675      8  16.573046  13.736223  14.083310 # O   
  1676      7  17.153749  13.736223  14.897426 # H   
  1677      7  17.153749  13.736223  13.269194 # H   
  1678      8   9.852761  18.193463  13.999348 # O   
  1679      7  10.433464  18.193463  14.813463 # H   
  1680      7  10.433464  18.193463  13.185232 # H   
  1681      5  11.473930  21.028759   4.904530 # PT_si
  1682      5   9.438331  24.133552  23.085210 # PT_si
  1683      5   8.106330  21.028759  18.898280 # PT_si
  1684      5   6.070731  24.133552   9.091459 # PT_si
  1685      4   7.601018  23.289048  16.908368 # BT_si
  1686      4   9.636617  20.184256  11.081371 # BT_si
  1687      5   9.085845  24.599270   4.901731 # PT_si
  1688      5  11.121444  21.494478  23.088008 # PT_si
  1689      5   5.718245  24.599270  18.895481 # PT_si
  1690      5   7.753844  21.494478   9.094258 # PT_si
  1691      3  11.227596  21.270933   7.982595 # intra_layer_ca
  1692      3   9.191997  24.375725  20.006025 # intra_layer_ca
  1693      3   7.859996  21.270933  21.976345 # intra_layer_ca
  1694      3   5.824397  24.375725   6.012275 # intra_layer_ca
  1695      3   7.942075  21.289562   6.009476 # intra_layer_ca
  1696      3   5.906476  24.394354  21.979144 # intra_layer_ca
  1697      3  11.309675  21.289562  20.003226 # intra_layer_ca
  1698      3   9.274076  24.394354   7.985393 # intra_layer_ca
  1699      2   8.535074  21.700015  13.942813 # inter_layer_ca
  1700      6  10.974696  21.811788   3.494799 # tetra_o
  1701      6  13.010295  18.706995  24.496619 # tetra_o
  1702      6   7.607096  21.811788  17.488549 # tetra_o
  1703      6   9.642695  18.706995  10.502869 # tetra_o
  1704      6  12.343574  19.806092   4.317632 # tetra_o
  1705      6  10.307976  22.910884  23.673787 # tetra_o
  1706      6   8.975974  19.806092  18.311382 # tetra_o
  1707      6   6.940376  22.910884   9.680037 # tetra_o
  1708      6  12.284776  22.072590   5.795372 # tetra_o
  1709      6  14.320375  18.967798  22.196047 # tetra_o
  1710      6   8.917176  22.072590  19.789122 # tetra_o
  1711      6  10.952775  18.967798   8.202297 # tetra_o
  1712      6  10.257008  20.501565   5.781378 # tetra_o
  1713      6   8.221409  23.606358  22.210040 # tetra_o
  1714      6   6.889408  20.501565  19.775128 # tetra_o
  1715      6   4.853809  23.606358   8.216290 # tetra_o
  1716      6   9.583002  20.184877  12.646712 # tetra_o
  1717      6   7.547403  23.289669  15.344707 # tetra_o
  1718      6   9.604658  23.973344   3.506274 # tetra_o
  1719      6  11.640257  20.868552  24.485704 # tetra_o
  1720      6   6.237058  23.973344  17.500024 # tetra_o
  1721      6   8.272657  20.868552  10.491954 # tetra_o
  1722      6   8.013947  23.749178   5.786975 # tetra_o
  1723      6  10.049546  20.644386  22.204443 # tetra_o
  1724      6   4.646347  23.749178  19.780725 # tetra_o
  1725      6   6.681946  20.644386   8.210693 # tetra_o
  1726      6  14.473488  18.838018   5.793133 # tetra_o
  1727      6  12.437890  21.942810  22.199405 # tetra_o
  1728      6  11.105888  18.838018  19.786883 # tetra_o
  1729      6   9.070290  21.942810   8.205655 # tetra_o
  1730      6   8.971788  24.146592  17.284800 # tetra_o
  1731      7   9.354352  23.320900  16.870217 # H   
  1732      6  11.007387  21.041799  10.707738 # tetra_o
  1733      7  10.962743  20.215793  10.145847 # H   
  1734      8   8.149274  21.395746   3.629699 # O   
  1735      7   8.729977  21.395746   4.443814 # H   
  1736      7   8.729977  21.395746   2.815583 # H   
  1737      8   6.113675  24.500538  24.362839 # O   
  1738      7   6.694378  24.500538  25.176954 # H   
  1739      7   6.694378  24.500538  23.548723 # H   
  1740      8  11.516874  21.395746  17.623449 # O   
  1741      7  12.097577  21.395746  18.437564 # H   
  1742      7  12.097577  21.395746  16.809333 # H   
  1743      8   9.481275  24.500538  10.369089 # O   
  1744      7  10.061978  24.500538  11.183204 # H   
  1745      7  10.061978  24.500538   9.554973 # H   
  1746      8   7.894227  23.408893  12.426730 # O   
  1747      7   8.474930  23.408893  13.240845 # H   
  1748      7   8.474930  23.408893  11.612614 # H   
  1749      8   9.929826  20.304101  15.561330 # O   
  1750      7  10.510529  20.304101  16.375445 # H   
  1751      7  10.510529  20.304101  14.747214 # H   
  1752      8  11.261552  23.521286  13.915385 # O   
  1753      7   5.107055  23.521286  14.729501 # H   
  1754      7   5.107055  23.521286  13.101269 # H   
  1755      8  12.501848  19.945808  14.083310 # O   
  1756      7  13.082551  19.945808  14.897426 # H   
  1757      7  13.082551  19.945808  13.269194 # H   
  1758      8   5.781563  24.403048  13.999348 # O   
  1759      7   6.362266  24.403048  14.813463 # H   
  1760      7   6.362266  24.403048  13.185232 # H   
  1761      5   7.402732  27.238344   4.904530 # PT_si
  1762      5   5.367133  30.343136  23.085210 # PT_si
  1763      5   4.035132  27.238344  18.898280 # PT_si
  1764      5   1.999533  30.343136   9.091459 # PT_si
  1765      4   3.529820  29.498633  16.908368 # BT_si
  1766      4   5.565419  26.393840  11.081371 # BT_si
  1767      5   5.014647  30.808855   4.901731 # PT_si
  1768      5   7.050246  27.704063  23.088008 # PT_si
  1769      5   1.647047  30.808855  18.895481 # PT_si
  1770      5   3.682646  27.704063   9.094258 # PT_si
  1771      3   7.156398  27.480518   7.982595 # intra_layer_ca
  1772      3   5.120799  30.585310  20.006025 # intra_layer_ca
  1773      3   3.788798  27.480518  21.976345 # intra_layer_ca
  1774      3   1.753199  30.585310   6.012275 # intra_layer_ca
  1775      3   3.870877  27.499147   6.009476 # intra_layer_ca
  1776      3   1.835278  30.603939  21.979144 # intra_layer_ca
  1777      3   7.238477  27.499147  20.003226 # intra_layer_ca
  1778      3   5.202878  30.603939   7.985393 # intra_layer_ca
  1779      2   4.463877  27.909600  13.942813 # inter_layer_ca
  1780      6   6.903498  28.021373   3.494799 # tetra_o
  1781      6   8.939097  24.916580  24.496619 # tetra_o
  1782      6   3.535898  28.021373  17.488549 # tetra_o
  1783      6   5.571497  24.916580  10.502869 # tetra_o
  1784      6   8.272377  26.015677   4.317632 # tetra_o
  1785      6   6.236778  29.120469  23.673787 # tetra_o
  1786      6   4.904777  26.015677  18.311382 # tetra_o
  1787      6   2.869178  29.120469   9.680037 # tetra_o
  1788      6   8.213578  28.282175   5.795372 # tetra_o
  1789      6  10.249177  25.177383  22.196047 # tetra_o
  1790      6   4.845978  28.282175  19.789122 # tetra_o
  1791      6   6.881577  25.177383   8.202297 # tetra_o
  1792      6   6.185811  26.711150   5.781378 # tetra_o
  1793      6   4.150212  29.815943  22.210040 # tetra_o
  1794      6   2.818211  26.711150  19.775128 # tetra_o
  1795      6   0.782612  29.815943   8.216290 # tetra_o
  1796      6   5.511804  26.394461  12.646712 # tetra_o
  1797      6   3.476205  29.499254  15.344707 # tetra_o
  1798      6   5.533461  30.182929   3.506274 # tetra_o
  1799      6   7.569060  27.078137  24.485704 # tetra_o
  1800      6   2.165861  30.182929  17.500024 # tetra_o
  1801      6   4.201460  27.078137  10.491954 # tetra_o
  1802      6   3.942749  29.958763   5.786975 # tetra_o
  1803      6   5.978348  26.853971  22.204443 # tetra_o
  1804      6   0.575149  29.958763  19.780725 # tetra_o
  1805      6   2.610748  26.853971   8.210693 # tetra_o
  1806      6  10.402291  25.047602   5.793133 # tetra_o
  1807      6   8.366692  28.152395  22.199405 # tetra_o
  1808      6   7.034691  25.047602  19.786883 # tetra_o
  1809      6   4.999092  28.152395   8.205655 # tetra_o
  1810      6   4.900590  30.356177  17.284800 # tetra_o
  1811      7   5.283154  29.530485  16.870217 # H   
  1812      6   6.936189  27.251384  10.707738 # tetra_o
  1813      7   6.891545  26.425378  10.145847 # H   
  1814      8   4.078076  27.605330   3.629699 # O   
  1815      7   4.658779  27.605330   4.443814 # H   
  1816      7   4.658779  27.605330   2.815583 # H   
  1817      8   2.042478  30.710123  24.362839 # O   
  1818      7   2.623181  30.710123  25.176954 # H   
  1819      7   2.623181  30.710123  23.548723 # H   
  1820      8   7.445676  27.605330  17.623449 # O   
  1821      7   8.026379  27.605330  18.437564 # H   
  1822      7   8.026379  27.605330  16.809333 # H   
  1823      8   5.410078  30.710123  10.369089 # O   
  1824      7   5.990781  30.710123  11.183204 # H   
  1825      7   5.990781  30.710123   9.554973 # H   
  1826      8   3.823029  29.618478  12.426730 # O   
  1827      7   4.403732  29.618478  13.240845 # H   
  1828      7   4.403732  29.618478  11.612614 # H   
  1829      8   5.858628  26.513685  15.561330 # O   
  1830      7   6.439331  26.513685  16.375445 # H   
  1831      7   6.439331  26.513685  14.747214 # H   
  1832      8   7.190354  29.730871  13.915385 # O   
  1833      7   1.035857  29.730871  14.729501 # H   
  1834      7   1.035857  29.730871  13.101269 # H   
  1835      8   8.430651  26.155392  14.083310 # O   
  1836      7   9.011354  26.155392  14.897426 # H   
  1837      7   9.011354  26.155392  13.269194 # H   
  1838      8   1.710366  30.612632  13.999348 # O   
  1839      7   2.291069  30.612632  14.813463 # H   
  1840      7   2.291069  30.612632  13.185232 # H   
  1841      5   3.331535  33.447929   4.904530 # PT_si
  1842      5   1.295936  36.552721  23.085210 # PT_si
  1843      5  -0.036065  33.447929  18.898280 # PT_si
  1844      5  -2.071664  36.552721   9.091459 # PT_si
  1845      4  -0.541377  35.708218  16.908368 # BT_si
  1846      4   1.494221  32.603425  11.081371 # BT_si
  1847      5   0.943449  37.018440   4.901731 # PT_si
  1848      5   2.979048  33.913648  23.088008 # PT_si
  1849      5  -2.424151  37.018440  18.895481 # PT_si
  1850      5  -0.388552  33.913648   9.094258 # PT_si
  1851      3   3.085200  33.690103   7.982595 # intra_layer_ca
  1852      3   1.049601  36.794895  20.006025 # intra_layer_ca
  1853      3  -0.282400  33.690103  21.976345 # intra_layer_ca
  1854      3  -2.317999  36.794895   6.012275 # intra_layer_ca
  1855      3  -0.200321  33.708731   6.009476 # intra_layer_ca
  1856      3  -2.235919  36.813524  21.979144 # intra_layer_ca
  1857      3   3.167279  33.708731  20.003226 # intra_layer_ca
  1858      3   1.131681  36.813524   7.985393 # intra_layer_ca
  1859      2   0.392679  34.119185  13.942813 # inter_layer_ca
  1860      6   2.832300  34.230957   3.494799 # tetra_o
  1861      6   4.867899  31.126165  24.496619 # tetra_o
  1862      6  -0.535300  34.230957  17.488549 # tetra_o
  1863      6   1.500299  31.126165  10.502869 # tetra_o
  1864      6   4.201179  32.225262   4.317632 # tetra_o
  1865      6   2.165580  35.330054  23.673787 # tetra_o
  1866      6   0.833579  32.225262  18.311382 # tetra_o
  1867      6  -1.202020  35.330054   9.680037 # tetra_o
  1868      6   4.142381  34.491760   5.795372 # tetra_o
  1869      6   6.177979  31.386968  22.196047 # tetra_o
  1870      6   0.774781  34.491760  19.789122 # tetra_o
  1871      6   2.810379  31.386968   8.202297 # tetra_o
  1872      6   2.114613  32.920735   5.781378 # tetra_o
  1873      6   0.079014  36.025528  22.210040 # tetra_o
  1874      6  -1.252987  32.920735  19.775128 # tetra_o
  1875      6  -3.288586  36.025528   8.216290 # tetra_o
  1876      6   1.440606  32.604046  12.646712 # tetra_o
  1877      6  -0.594993  35.708839  15.344707 # tetra_o
  1878      6   1.462263  36.392514   3.506274 # tetra_o
  1879      6   3.497862  33.287722  24.485704 # tetra_o
  1880      6  -1.905337  36.392514  17.500024 # tetra_o
  1881      6   0.130262  33.287722  10.491954 # tetra_o
  1882      6  -0.128448  36.168348   5.786975 # tetra_o
  1883      6   1.907150  33.063556  22.204443 # tetra_o
  1884      6  -3.496048  36.168348  19.780725 # tetra_o
  1885      6  -1.460450  33.063556   8.210693 # tetra_o
  1886      6   6.331093  31.257187   5.793133 # tetra_o
  1887      6   4.295494  34.361980  22.199405 # tetra_o
  1888      6   2.963493  31.257187  19.786883 # tetra_o
  1889      6   0.927894  34.361980   8.205655 # tetra_o
  1890      6   0.829393  36.565761  17.284800 # tetra_o
  1891      7   1.211956  35.740070  16.870217 # H   
  1892      6   2.864991  33.460969  10.707738 # tetra_o
  1893      7   2.820347  32.634963  10.145847 # H   
  1894      8   0.006879  33.814915   3.629699 # O   
  1895      7   0.587582  33.814915   4.443814 # H   
  1896      7   0.587582  33.814915   2.815583 # H   
  1897      8  -2.028720  36.919708  24.362839 # O   
  1898      7  -1.448017  36.919708  25.176954 # H   
  1899      7  -1.448017  36.919708  23.548723 # H   
  1900      8   3.374479  33.814915  17.623449 # O   
  1901      7   3.955182  33.814915  18.437564 # H   
  1902      7   3.955182  33.814915  16.809333 # H   
  1903      8   1.338880  36.919708  10.369089 # O   
  1904      7   1.919583  36.919708  11.183204 # H   
  1905      7   1.919583  36.919708   9.554973 # H   
  1906      8  -0.248168  35.828063  12.426730 # O   
  1907      7   0.332534  35.828063  13.240845 # H   
  1908      7   0.332534  35.828063  11.612614 # H   
  1909      8   1.787430  32.723270  15.561330 # O   
  1910      7   2.368133  32.723270  16.375445 # H   
  1911      7   2.368133  32.723270  14.747214 # H   
  1912      8   3.119157  35.940456  13.915385 # O   
  1913      7  -3.035341  35.940456  14.729501 # H   
  1914      7  -3.035341  35.940456  13.101269 # H   
  1915      8   4.359453  32.364977  14.083310 # O   
  1916      7   4.940156  32.364977  14.897426 # H   
  1917      7   4.940156  32.364977  13.269194 # H   
  1918      8  -2.360832  36.822217  13.999348 # O   
  1919      7  -1.780129  36.822217  14.813463 # H   
  1920      7  -1.780129  36.822217  13.185232 # H   
  1921      5  30.422723   2.400005   4.904530 # PT_si
  1922      5  28.387124   5.504797  23.085210 # PT_si
  1923      5  27.055123   2.400005  18.898280 # PT_si
  1924      5  25.019524   5.504797   9.091459 # PT_si
  1925      4  26.549811   4.660293  16.908368 # BT_si
  1926      4  28.585410   1.555501  11.081371 # BT_si
  1927      5  28.034638   5.970516   4.901731 # PT_si
  1928      5  30.070237   2.865723  23.088008 # PT_si
  1929      5  24.667038   5.970516  18.895481 # PT_si
  1930      5  26.702637   2.865723   9.094258 # PT_si
  1931      3  30.176389   2.642178   7.982595 # intra_layer_ca
  1932      3  28.140790   5.746971  20.006025 # intra_layer_ca
  1933      3  26.808789   2.642178  21.976345 # intra_layer_ca
  1934      3  24.773190   5.746971   6.012275 # intra_layer_ca
  1935      3  26.890868   2.660807   6.009476 # intra_layer_ca
  1936      3  24.855269   5.765600  21.979144 # intra_layer_ca
  1937      3  30.258468   2.660807  20.003226 # intra_layer_ca
  1938      3  28.222869   5.765600   7.985393 # intra_layer_ca
  1939      2  27.483868   3.071261  13.942813 # inter_layer_ca
  1940      6  29.923489   3.183033   3.494799 # tetra_o
  1941      6   7.531902  37.335750  24.496619 # tetra_o
  1942      6  26.555889   3.183033  17.488549 # tetra_o
  1943      6   4.164302  37.335750  10.502869 # tetra_o
  1944      6   6.865181  38.434846   4.317632 # tetra_o
  1945      6  29.256769   4.282130  23.673787 # tetra_o
  1946      6   3.497581  38.434846  18.311382 # tetra_o
  1947      6  25.889169   4.282130   9.680037 # tetra_o
  1948      6  31.233569   3.443836   5.795372 # tetra_o
  1949      6   8.841982  37.596552  22.196047 # tetra_o
  1950      6  27.865969   3.443836  19.789122 # tetra_o
  1951      6   5.474382  37.596552   8.202297 # tetra_o
  1952      6  29.205801   1.872811   5.781378 # tetra_o
  1953      6  27.170203   4.977603  22.210040 # tetra_o
  1954      6  25.838201   1.872811  19.775128 # tetra_o
  1955      6  23.802603   4.977603   8.216290 # tetra_o
  1956      6  28.531795   1.556122  12.646712 # tetra_o
  1957      6  26.496196   4.660914  15.344707 # tetra_o
  1958      6  28.553452   5.344590   3.506274 # tetra_o
  1959      6  30.589050   2.239797  24.485704 # tetra_o
  1960      6  25.185852   5.344590  17.500024 # tetra_o
  1961      6  27.221450   2.239797  10.491954 # tetra_o
  1962      6  26.962740   5.120424   5.786975 # tetra_o
  1963      6  28.998339   2.015631  22.204443 # tetra_o
  1964      6  23.595140   5.120424  19.780725 # tetra_o
  1965      6  25.630739   2.015631   8.210693 # tetra_o
  1966      6   8.995095  37.466772   5.793133 # tetra_o
  1967      6  31.386683   3.314055  22.199405 # tetra_o
  1968      6   5.627495  37.466772  19.786883 # tetra_o
  1969      6  28.019083   3.314055   8.205655 # tetra_o
  1970      6  27.920581   5.517837  17.284800 # tetra_o
  1971      7  28.303145   4.692146  16.870217 # H   
  1972      6  29.956180   2.413045  10.707738 # tetra_o
  1973      7  29.911536   1.587039  10.145847 # H   
  1974      8  27.098067   2.766991   3.629699 # O   
  1975      7  27.678770   2.766991   4.443814 # H   
  1976      7  27.678770   2.766991   2.815583 # H   
  1977      8  25.062468   5.871783  24.362839 # O   
  1978      7  25.643171   5.871783  25.176954 # H   
  1979      7  25.643171   5.871783  23.548723 # H   
  1980      8  30.465667   2.766991  17.623449 # O   
  1981      7  31.046370   2.766991  18.437564 # H   
  1982      7  31.046370   2.766991  16.809333 # H   
  1983      8  28.430068   5.871783  10.369089 # O   
  1984      7  29.010771   5.871783  11.183204 # H   
  1985      7  29.010771   5.871783   9.554973 # H   
  1986      8  26.843020   4.780138  12.426730 # O   
  1987      7  27.423723   4.780138  13.240845 # H   
  1988      7  27.423723   4.780138  11.612614 # H   
  1989      8  28.878619   1.675346  15.561330 # O   
  1990      7  29.459322   1.675346  16.375445 # H   
  1991      7  29.459322   1.675346  14.747214 # H   
  1992      8  30.210345   4.892532  13.915385 # O   
  1993      7  24.055848   4.892532  14.729501 # H   
  1994      7  24.055848   4.892532  13.101269 # H   
  1995      8  31.450642   1.317053  14.083310 # O   
  1996      7  32.031344   1.317053  14.897426 # H   
  1997      7  32.031344   1.317053  13.269194 # H   
  1998      8  24.730357   5.774293  13.999348 # O   
  1999      7  25.311059   5.774293  14.813463 # H   
  2000      7  25.311059   5.774293  13.185232 # H   
  2001      5  26.351525   8.609589   4.904530 # PT_si
  2002      5  24.315927  11.714382  23.085210 # PT_si
  2003      5  22.983925   8.609589  18.898280 # PT_si
  2004      5  20.948327  11.714382   9.091459 # PT_si
  2005      4  22.478614  10.869878  16.908368 # BT_si
  2006      4  24.514212   7.765086  11.081371 # BT_si
  2007      5  23.963440  12.180101   4.901731 # PT_si
  2008      5  25.999039   9.075308  23.088008 # PT_si
  2009      5  20.595840  12.180101  18.895481 # PT_si
  2010      5  22.631439   9.075308   9.094258 # PT_si
  2011      3  26.105191   8.851763   7.982595 # intra_layer_ca
  2012      3  24.069592  11.956556  20.006025 # intra_layer_ca
  2013      3  22.737591   8.851763  21.976345 # intra_layer_ca
  2014      3  20.701992  11.956556   6.012275 # intra_layer_ca
  2015      3  22.819670   8.870392   6.009476 # intra_layer_ca
  2016      3  20.784072  11.975184  21.979144 # intra_layer_ca
  2017      3  26.187270   8.870392  20.003226 # intra_layer_ca
  2018      3  24.151672  11.975184   7.985393 # intra_layer_ca
  2019      2  23.412670   9.280846  13.942813 # inter_layer_ca
  2020      6  25.852291   9.392618   3.494799 # tetra_o
  2021      6  27.887890   6.287826  24.496619 # tetra_o
  2022      6  22.484691   9.392618  17.488549 # tetra_o
  2023      6  24.520290   6.287826  10.502869 # tetra_o
  2024      6  27.221170   7.386922   4.317632 # tetra_o
  2025      6  25.185571  10.491715  23.673787 # tetra_o
  2026      6  23.853570   7.386922  18.311382 # tetra_o
  2027      6  21.817971  10.491715   9.680037 # tetra_o
  2028      6  27.162372   9.653421   5.795372 # tetra_o
  2029      6  29.197970   6.548628  22.196047 # tetra_o
  2030      6  23.794772   9.653421  19.789122 # tetra_o
  2031      6  25.830370   6.548628   8.202297 # tetra_o
  2032      6  25.134604   8.082396   5.781378 # tetra_o
  2033      6  23.099005  11.187188  22.210040 # tetra_o
  2034      6  21.767004   8.082396  19.775128 # tetra_o
  2035      6  19.731405  11.187188   8.216290 # tetra_o
  2036      6  24.460597   7.765707  12.646712 # tetra_o
  2037      6  22.424998  10.870499  15.344707 # tetra_o
  2038      6  24.482254  11.554175   3.506274 # tetra_o
  2039      6  26.517853   8.449382  24.485704 # tetra_o
  2040      6  21.114654  11.554175  17.500024 # tetra_o
  2041      6  23.150253   8.449382  10.491954 # tetra_o
  2042      6  22.891542  11.330009   5.786975 # tetra_o
  2043      6  24.927141   8.225216  22.204443 # tetra_o
  2044      6  19.523942  11.330009  19.780725 # tetra_o
  2045      6  21.559541   8.225216   8.210693 # tetra_o
  2046      6  29.351084   6.418848   5.793133 # tetra_o
  2047      6  27.315485   9.523640  22.199405 # tetra_o
  2048      6  25.983484   6.418848  19.786883 # tetra_o
  2049      6  23.947885   9.523640   8.205655 # tetra_o
  2050      6  23.849383  11.727422  17.284800 # tetra_o
  2051      7  24.231947  10.901731  16.870217 # H   
  2052      6  25.884982   8.622630  10.707738 # tetra_o
  2053      7  25.840338   7.796624  10.145847 # H   
  2054      8  23.026870   8.976576   3.629699 # O   
  2055      7  23.607573   8.976576   4.443814 # H   
  2056      7  23.607573   8.976576   2.815583 # H   
  2057      8  20.991271  12.081368  24.362839 # O   
  2058      7  21.571974  12.081368  25.176954 # H   
  2059      7  21.571974  12.081368  23.548723 # H   
  2060      8  26.394470   8.976576  17.623449 # O   
  2061      7  26.975173   8.976576  18.437564 # H   
  2062      7  26.975173   8.976576  16.809333 # H   
  2063      8  24.358871  12.081368  10.369089 # O   
  2064      7  24.939574  12.081368  11.183204 # H   
  2065      7  24.939574  12.081368   9.554973 # H   
  2066      8  22.771822  10.989723  12.426730 # O   
  2067      7  23.352525  10.989723  13.240845 # H   
  2068      7  23.352525  10.989723  11.612614 # H   
  2069      8  24.807421   7.884931  15.561330 # O   
  2070      7  25.388124   7.884931  16.375445 # H   
  2071      7  25.388124   7.884931  14.747214 # H   
  2072      8  26.139147  11.102117  13.915385 # O   
  2073      7  19.984650  11.102117  14.729501 # H   
  2074      7  19.984650  11.102117  13.101269 # H   
  2075      8  27.379444   7.526638  14.083310 # O   
  2076      7  27.960147   7.526638  14.897426 # H   
  2077      7  27.960147   7.526638  13.269194 # H   
  2078      8  20.659159  11.983878  13.999348 # O   
  2079      7  21.239862  11.983878  14.813463 # H   
  2080      7  21.239862  11.983878  13.185232 # H   
  2081      5  22.280328  14.819174   4.904530 # PT_si
  2082      5  20.244729  17.923967  23.085210 # PT_si
  2083      5  18.912728  14.819174  18.898280 # PT_si
  2084      5  16.877129  17.923967   9.091459 # PT_si
  2085      4  18.407416  17.079463  16.908368 # BT_si
  2086      4  20.443015  13.974671  11.081371 # BT_si
  2087      5  19.892243  18.389686   4.901731 # PT_si
  2088      5  21.927842  15.284893  23.088008 # PT_si
  2089      5  16.524643  18.389686  18.895481 # PT_si
  2090      5  18.560242  15.284893   9.094258 # PT_si
  2091      3  22.033993  15.061348   7.982595 # intra_layer_ca
  2092      3  19.998395  18.166141  20.006025 # intra_layer_ca
  2093      3  18.666393  15.061348  21.976345 # intra_layer_ca
  2094      3  16.630795  18.166141   6.012275 # intra_layer_ca
  2095      3  18.748473  15.079977   6.009476 # intra_layer_ca
  2096      3  16.712874  18.184769  21.979144 # intra_layer_ca
  2097      3  22.116073  15.079977  20.003226 # intra_layer_ca
  2098      3  20.080474  18.184769   7.985393 # intra_layer_ca
  2099      2  19.341472  15.490430  13.942813 # inter_layer_ca
  2100      6  21.781094  15.602203   3.494799 # tetra_o
  2101      6  23.816692  12.497410  24.496619 # tetra_o
  2102      6  18.413494  15.602203  17.488549 # tetra_o
  2103      6  20.449092  12.497410  10.502869 # tetra_o
  2104      6  23.149972  13.596507   4.317632 # tetra_o
  2105      6  21.114373  16.701299  23.673787 # tetra_o
  2106      6  19.782372  13.596507  18.311382 # tetra_o
  2107      6  17.746773  16.701299   9.680037 # tetra_o
  2108      6  23.091174  15.863005   5.795372 # tetra_o
  2109      6  25.126773  12.758213  22.196047 # tetra_o
  2110      6  19.723574  15.863005  19.789122 # tetra_o
  2111      6  21.759173  12.758213   8.202297 # tetra_o
  2112      6  21.063406  14.291981   5.781378 # tetra_o
  2113      6  19.027807  17.396773  22.210040 # tetra_o
  2114      6  17.695806  14.291981  19.775128 # tetra_o
  2115      6  15.660207  17.396773   8.216290 # tetra_o
  2116      6  20.389399  13.975292  12.646712 # tetra_o
  2117      6  18.353801  17.080084  15.344707 # tetra_o
  2118      6  20.411056  17.763759   3.506274 # tetra_o
  2119      6  22.446655  14.658967  24.485704 # tetra_o
  2120      6  17.043456  17.763759  17.500024 # tetra_o
  2121      6  19.079055  14.658967  10.491954 # tetra_o
  2122      6  18.820345  17.539593   5.786975 # tetra_o
  2123      6  20.855944  14.434801  22.204443 # tetra_o
  2124      6  15.452745  17.539593  19.780725 # tetra_o
  2125      6  17.488344  14.434801   8.210693 # tetra_o
  2126      6  25.279886  12.628433   5.793133 # tetra_o
  2127      6  23.244287  15.733225  22.199405 # tetra_o
  2128      6  21.912286  12.628433  19.786883 # tetra_o
  2129      6  19.876687  15.733225   8.205655 # tetra_o
  2130      6  19.778186  17.937007  17.284800 # tetra_o
  2131      7  20.160749  17.111316  16.870217 # H   
  2132      6  21.813785  14.832214  10.707738 # tetra_o
  2133      7  21.769140  14.006208  10.145847 # H   
  2134      8  18.955672  15.186161   3.629699 # O   
  2135      7  19.536375  15.186161   4.443814 # H   
  2136      7  19.536375  15.186161   2.815583 # H   
  2137      8  16.920073  18.290953  24.362839 # O   
  2138      7  17.500776  18.290953  25.176954 # H   
  2139      7  17.500776  18.290953  23.548723 # H   
  2140      8  22.323272  15.186161  17.623449 # O   
  2141      7  22.903975  15.186161  18.437564 # H   
  2142      7  22.903975  15.186161  16.809333 # H   
  2143      8  20.287673  18.290953  10.369089 # O   
  2144      7  20.868376  18.290953  11.183204 # H   
  2145      7  20.868376  18.290953   9.554973 # H   
  2146      8  18.700625  17.199308  12.426730 # O   
  2147      7  19.281328  17.199308  13.240845 # H   
  2148      7  19.281328  17.199308  11.612614 # H   
  2149      8  20.736224  14.094516  15.561330 # O   
  2150      7  21.316927  14.094516  16.375445 # H   
  2151      7  21.316927  14.094516  14.747214 # H   
  2152      8  22.067950  17.311702  13.915385 # O   
  2153      7  15.913453  17.311702  14.729501 # H   
  2154      7  15.913453  17.311702  13.101269 # H   
  2155      8  23.308246  13.736223  14.083310 # O   
  2156      7  23.888949  13.736223  14.897426 # H   
  2157      7  23.888949  13.736223  13.269194 # H   
  2158      8  16.587961  18.193463  13.999348 # O   
  2159      7  17.168664  18.193463  14.813463 # H   
  2160      7  17.168664  18.193463  13.185232 # H   
  2161      5  18.209130  21.028759   4.904530 # PT_si
  2162      5  16.173531  24.133552  23.085210 # PT_si
  2163      5  14.841530  21.028759  18.898280 # PT_si
  2164      5  12.805931  24.133552   9.091459 # PT_si
  2165      4  14.336218  23.289048  16.908368 # BT_si
  2166      4  16.371817  20.184256  11.081371 # BT_si
  2167      5  15.821045  24.599270   4.901731 # PT_si
  2168      5  17.856644  21.494478  23.088008 # PT_si
  2169      5  12.453445  24.599270  18.895481 # PT_si
  2170      5  14.489044  21.494478   9.094258 # PT_si
  2171      3  17.962796  21.270933   7.982595 # intra_layer_ca
  2172      3  15.927197  24.375725  20.006025 # intra_layer_ca
  2173      3  14.595196  21.270933  21.976345 # intra_layer_ca
  2174      3  12.559597  24.375725   6.012275 # intra_layer_ca
  2175      3  14.677275  21.289562   6.009476 # intra_layer_ca
  2176      3  12.641676  24.394354  21.979144 # intra_layer_ca
  2177      3  18.044875  21.289562  20.003226 # intra_layer_ca
  2178      3  16.009276  24.394354   7.985393 # intra_layer_ca
  2179      2  15.270274  21.700015  13.942813 # inter_layer_ca
  2180      6  17.709896  21.811788   3.494799 # tetra_o
  2181      6  19.745495  18.706995  24.496619 # tetra_o
  2182      6  14.342296  21.811788  17.488549 # tetra_o
  2183      6  16.377895  18.706995  10.502869 # tetra_o
  2184      6  19.078774  19.806092   4.317632 # tetra_o
  2185      6  17.043176  22.910884  23.673787 # tetra_o
  2186      6  15.711174  19.806092  18.311382 # tetra_o
  2187      6  13.675576  22.910884   9.680037 # tetra_o
  2188      6  19.019976  22.072590   5.795372 # tetra_o
  2189      6  21.055575  18.967798  22.196047 # tetra_o
  2190      6  15.652376  22.072590  19.789122 # tetra_o
  2191      6  17.687975  18.967798   8.202297 # tetra_o
  2192      6  16.992208  20.501565   5.781378 # tetra_o
  2193      6  14.956609  23.606358  22.210040 # tetra_o
  2194      6  13.624608  20.501565  19.775128 # tetra_o
  2195      6  11.589009  23.606358   8.216290 # tetra_o
  2196      6  16.318202  20.184877  12.646712 # tetra_o
  2197      6  14.282603  23.289669  15.344707 # tetra_o
  2198      6  16.339858  23.973344   3.506274 # tetra_o
  2199      6  18.375457  20.868552  24.485704 # tetra_o
  2200      6  12.972258  23.973344  17.500024 # tetra_o
  2201      6  15.007857  20.868552  10.491954 # tetra_o
  2202      6  14.749147  23.749178   5.786975 # tetra_o
  2203      6  16.784746  20.644386  22.204443 # tetra_o
  2204      6  11.381547  23.749178  19.780725 # tetra_o
  2205      6  13.417146  20.644386   8.210693 # tetra_o
  2206      6  21.208688  18.838018   5.793133 # tetra_o
  2207      6  19.173090  21.942810  22.199405 # tetra_o
  2208      6  17.841089  18.838018  19.786883 # tetra_o
  2209      6  15.805490  21.942810   8.205655 # tetra_o
  2210      6  15.706988  24.146592  17.284800 # tetra_o
  2211      7  16.089552  23.320900  16.870217 # H   
  2212      6  17.742587  21.041799  10.707738 # tetra_o
  2213      7  17.697943  20.215793  10.145847 # H   
  2214      8  14.884474  21.395746   3.629699 # O   
  2215      7  15.465177  21.395746   4.443814 # H   
  2216      7  15.465177  21.395746   2.815583 # H   
  2217      8  12.848875  24.500538  24.362839 # O   
  2218      7  13.429578  24.500538  25.176954 # H   
  2219      7  13.429578  24.500538  23.548723 # H   
  2220      8  18.252074  21.395746  17.623449 # O   
  2221      7  18.832777  21.395746  18.437564 # H   
  2222      7  18.832777  21.395746  16.809333 # H   
  2223      8  16.216475  24.500538  10.369089 # O   
  2224      7  16.797178  24.500538  11.183204 # H   
  2225      7  16.797178  24.500538   9.554973 # H   
  2226      8  14.629427  23.408893  12.426730 # O   
  2227      7  15.210130  23.408893  13.240845 # H   
  2228      7  15.210130  23.408893  11.612614 # H   
  2229      8  16.665026  20.304101  15.561330 # O   
  2230      7  17.245729  20.304101  16.375445 # H   
  2231      7  17.245729  20.304101  14.747214 # H   
  2232      8  17.996752  23.521286  13.915385 # O   
  2233      7  11.842255  23.521286  14.729501 # H   
  2234      7  11.842255  23.521286  13.101269 # H   
  2235      8  19.237048  19.945808  14.083310 # O   
  2236      7  19.817751  19.945808  14.897426 # H   
  2237      7  19.817751  19.945808  13.269194 # H   
  2238      8  12.516763  24.403048  13.999348 # O   
  2239      7  13.097466  24.403048  14.813463 # H   
  2240      7  13.097466  24.403048  13.185232 # H   
  2241      5  14.137932  27.238344   4.904530 # PT_si
  2242      5  12.102333  30.343136  23.085210 # PT_si
  2243      5  10.770332  27.238344  18.898280 # PT_si
  2244      5   8.734733  30.343136   9.091459 # PT_si
  2245      4  10.265020  29.498633  16.908368 # BT_si
  2246      4  12.300619  26.393840  11.081371 # BT_si
  2247      5  11.749847  30.808855   4.901731 # PT_si
  2248      5  13.785446  27.704063  23.088008 # PT_si
  2249      5   8.382247  30.808855  18.895481 # PT_si
  2250      5  10.417846  27.704063   9.094258 # PT_si
  2251      3  13.891598  27.480518   7.982595 # intra_layer_ca
  2252      3  11.855999  30.585310  20.006025 # intra_layer_ca
  2253      3  10.523998  27.480518  21.976345 # intra_layer_ca
  2254      3   8.488399  30.585310   6.012275 # intra_layer_ca
  2255      3  10.606077  27.499147   6.009476 # intra_layer_ca
  2256      3   8.570478  30.603939  21.979144 # intra_layer_ca
  2257      3  13.973677  27.499147  20.003226 # intra_layer_ca
  2258      3  11.938078  30.603939   7.985393 # intra_layer_ca
  2259      2  11.199077  27.909600  13.942813 # inter_layer_ca
  2260      6  13.638698  28.021373   3.494799 # tetra_o
  2261      6  15.674297  24.916580  24.496619 # tetra_o
  2262      6  10.271098  28.021373  17.488549 # tetra_o
  2263      6  12.306697  24.916580  10.502869 # tetra_o
  2264      6  15.007577  26.015677   4.317632 # tetra_o
  2265      6  12.971978  29.120469  23.673787 # tetra_o
  2266      6  11.639977  26.015677  18.311382 # tetra_o
  2267      6   9.604378  29.120469   9.680037 # tetra_o
  2268      6  14.948778  28.282175   5.795372 # tetra_o
  2269      6  16.984377  25.177383  22.196047 # tetra_o
  2270      6  11.581178  28.282175  19.789122 # tetra_o
  2271      6  13.616777  25.177383   8.202297 # tetra_o
  2272      6  12.921011  26.711150   5.781378 # tetra_o
  2273      6  10.885412  29.815943  22.210040 # tetra_o
  2274      6   9.553411  26.711150  19.775128 # tetra_o
  2275      6   7.517812  29.815943   8.216290 # tetra_o
  2276      6  12.247004  26.394461  12.646712 # tetra_o
  2277      6  10.211405  29.499254  15.344707 # tetra_o
  2278      6  12.268661  30.182929   3.506274 # tetra_o
  2279      6  14.304260  27.078137  24.485704 # tetra_o
  2280      6   8.901061  30.182929  17.500024 # tetra_o
  2281      6  10.936660  27.078137  10.491954 # tetra_o
  2282      6  10.677949  29.958763   5.786975 # tetra_o
  2283      6  12.713548  26.853971  22.204443 # tetra_o
  2284      6   7.310349  29.958763  19.780725 # tetra_o
  2285      6   9.345948  26.853971   8.210693 # tetra_o
  2286      6  17.137491  25.047602   5.793133 # tetra_o
  2287      6  15.101892  28.152395  22.199405 # tetra_o
  2288      6  13.769891  25.047602  19.786883 # tetra_o
  2289      6  11.734292  28.152395   8.205655 # tetra_o
  2290      6  11.635790  30.356177  17.284800 # tetra_o
  2291      7  12.018354  29.530485  16.870217 # H   
  2292      6  13.671389  27.251384  10.707738 # tetra_o
  2293      7  13.626745  26.425378  10.145847 # H   
  2294      8  10.813276  27.605330   3.629699 # O   
  2295      7  11.393979  27.605330   4.443814 # H   
  2296      7  11.393979  27.605330   2.815583 # H   
  2297      8   8.777678  30.710123  24.362839 # O   
  2298      7   9.358381  30.710123  25.176954 # H   
  2299      7   9.358381  30.710123  23.548723 # H   
  2300      8  14.180876  27.605330  17.623449 # O   
  2301      7  14.761579  27.605330  18.437564 # H   
  2302      7  14.761579  27.605330  16.809333 # H   
  2303      8  12.145278  30.710123  10.369089 # O   
  2304      7  12.725981  30.710123  11.183204 # H   
  2305      7  12.725981  30.710123   9.554973 # H   
  2306      8  10.558229  29.618478  12.426730 # O   
  2307      7  11.138932  29.618478  13.240845 # H   
  2308      7  11.138932  29.618478  11.612614 # H   
  2309      8  12.593828  26.513685  15.561330 # O   
  2310      7  13.174531  26.513685  16.375445 # H   
  2311      7  13.174531  26.513685  14.747214 # H   
  2312      8  13.925554  29.730871  13.915385 # O   
  2313      7   7.771057  29.730871  14.729501 # H   
  2314      7   7.771057  29.730871  13.101269 # H   
  2315      8  15.165851  26.155392  14.083310 # O   
  2316      7  15.746554  26.155392  14.897426 # H   
  2317      7  15.746554  26.155392  13.269194 # H   
  2318      8   8.445566  30.612632  13.999348 # O   
  2319      7   9.026269  30.612632  14.813463 # H   
  2320      7   9.026269  30.612632  13.185232 # H   
  2321      5  10.066735  33.447929   4.904530 # PT_si
  2322      5   8.031136  36.552721  23.085210 # PT_si
  2323      5   6.699135  33.447929  18.898280 # PT_si
  2324      5   4.663536  36.552721   9.091459 # PT_si
  2325      4   6.193823  35.708218  16.908368 # BT_si
  2326      4   8.229421  32.603425  11.081371 # BT_si
  2327      5   7.678649  37.018440   4.901731 # PT_si
  2328      5   9.714248  33.913648  23.088008 # PT_si
  2329      5   4.311049  37.018440  18.895481 # PT_si
  2330      5   6.346648  33.913648   9.094258 # PT_si
  2331      3   9.820400  33.690103   7.982595 # intra_layer_ca
  2332      3   7.784801  36.794895  20.006025 # intra_layer_ca
  2333      3   6.452800  33.690103  21.976345 # intra_layer_ca
  2334      3   4.417201  36.794895   6.012275 # intra_layer_ca
  2335      3   6.534879  33.708731   6.009476 # intra_layer_ca
  2336      3   4.499281  36.813524  21.979144 # intra_layer_ca
  2337      3   9.902479  33.708731  20.003226 # intra_layer_ca
  2338      3   7.866881  36.813524   7.985393 # intra_layer_ca
  2339      2   7.127879  34.119185  13.942813 # inter_layer_ca
  2340      6   9.567500  34.230957   3.494799 # tetra_o
  2341      6  11.603099  31.126165  24.496619 # tetra_o
  2342      6   6.199900  34.230957  17.488549 # tetra_o
  2343      6   8.235499  31.126165  10.502869 # tetra_o
  2344      6  10.936379  32.225262   4.317632 # tetra_o
  2345      6   8.900780  35.330054  23.673787 # tetra_o
  2346      6   7.568779  32.225262  18.311382 # tetra_o
  2347      6   5.533180  35.330054   9.680037 # tetra_o
  2348      6  10.877581  34.491760   5.795372 # tetra_o
  2349      6  12.913179  31.386968  22.196047 # tetra_o
  2350      6   7.509981  34.491760  19.789122 # tetra_o
  2351      6   9.545579  31.386968   8.202297 # tetra_o
  2352      6   8.849813  32.920735   5.781378 # tetra_o
  2353      6   6.814214  36.025528  22.210040 # tetra_o
  2354      6   5.482213  32.920735  19.775128 # tetra_o
  2355      6   3.446614  36.025528   8.216290 # tetra_o
  2356      6   8.175806  32.604046  12.646712 # tetra_o
  2357      6   6.140207  35.708839  15.344707 # tetra_o
  2358      6   8.197463  36.392514   3.506274 # tetra_o
  2359      6  10.233062  33.287722  24.485704 # tetra_o
  2360      6   4.829863  36.392514  17.500024 # tetra_o
  2361      6   6.865462  33.287722  10.491954 # tetra_o
  2362      6   6.606752  36.168348   5.786975 # tetra_o
  2363      6   8.642350  33.063556  22.204443 # tetra_o
  2364      6   3.239152  36.168348  19.780725 # tetra_o
  2365      6   5.274750  33.063556   8.210693 # tetra_o
  2366      6  13.066293  31.257187   5.793133 # tetra_o
  2367      6  11.030694  34.361980  22.199405 # tetra_o
  2368      6   9.698693  31.257187  19.786883 # tetra_o
  2369      6   7.663094  34.361980   8.205655 # tetra_o
  2370      6   7.564593  36.565761  17.284800 # tetra_o
  2371      7   7.947156  35.740070  16.870217 # H   
  2372      6   9.600191  33.460969  10.707738 # tetra_o
  2373      7   9.555547  32.634963  10.145847 # H   
  2374      8   6.742079  33.814915   3.629699 # O   
  2375      7   7.322782  33.814915   4.443814 # H   
  2376      7   7.322782  33.814915   2.815583 # H   
  2377      8   4.706480  36.919708  24.362839 # O   
  2378      7   5.287183  36.919708  25.176954 # H   
  2379      7   5.287183  36.919708  23.548723 # H   
  2380      8  10.109679  33.814915  17.623449 # O   
  2381      7  10.690382  33.814915  18.437564 # H   
  2382      7  10.690382  33.814915  16.809333 # H   
  2383      8   8.074080  36.919708  10.369089 # O   
  2384      7   8.654783  36.919708  11.183204 # H   
  2385      7   8.654783  36.919708   9.554973 # H   
  2386      8   6.487032  35.828063  12.426730 # O   
  2387      7   7.067734  35.828063  13.240845 # H   
  2388      7   7.067734  35.828063  11.612614 # H   
  2389      8   8.522630  32.723270  15.561330 # O   
  2390      7   9.103333  32.723270  16.375445 # H   
  2391      7   9.103333  32.723270  14.747214 # H   
  2392      8   9.854357  35.940456  13.915385 # O   
  2393      7   3.699859  35.940456  14.729501 # H   
  2394      7   3.699859  35.940456  13.101269 # H   
  2395      8  11.094653  32.364977  14.083310 # O   
  2396      7  11.675356  32.364977  14.897426 # H   
  2397      7  11.675356  32.364977  13.269194 # H   
  2398      8   4.374368  36.822217  13.999348 # O   
  2399      7   4.955071  36.822217  14.813463 # H   
  2400      7   4.955071  36.822217  13.185232 # H   
  2401      5  37.157923   2.400005   4.904530 # PT_si
  2402      5  35.122324   5.504797  23.085210 # PT_si
  2403      5  33.790323   2.400005  18.898280 # PT_si
  2404      5  31.754724   5.504797   9.091459 # PT_si
  2405      4  33.285011   4.660293  16.908368 # BT_si
  2406      4  35.320610   1.555501  11.081371 # BT_si
  2407      5  34.769838   5.970516   4.901731 # PT_si
  2408      5  36.805437   2.865723  23.088008 # PT_si
  2409      5  31.402238   5.970516  18.895481 # PT_si
  2410      5  33.437837   2.865723   9.094258 # PT_si
  2411      3  36.911589   2.642178   7.982595 # intra_layer_ca
  2412      3  34.875990   5.746971  20.006025 # intra_layer_ca
  2413      3  33.543989   2.642178  21.976345 # intra_layer_ca
  2414      3  31.508390   5.746971   6.012275 # intra_layer_ca
  2415      3  33.626068   2.660807   6.009476 # intra_layer_ca
  2416      3  31.590469   5.765600  21.979144 # intra_layer_ca
  2417      3  36.993668   2.660807  20.003226 # intra_layer_ca
  2418      3  34.958069   5.765600   7.985393 # intra_layer_ca
  2419      2  34.219068   3.071261  13.942813 # inter_layer_ca
  2420      6  36.658689   3.183033   3.494799 # tetra_o
  2421      6  14.267102  37.335750  24.496619 # tetra_o
  2422      6  33.291089   3.183033  17.488549 # tetra_o
  2423      6  10.899502  37.335750  10.502869 # tetra_o
  2424      6  13.600381  38.434846   4.317632 # tetra_o
  2425      6  35.991969   4.282130  23.673787 # tetra_o
  2426      6  10.232781  38.434846  18.311382 # tetra_o
  2427      6  32.624369   4.282130   9.680037 # tetra_o
  2428      6  37.968769   3.443836   5.795372 # tetra_o
  2429      6  15.577182  37.596552  22.196047 # tetra_o
  2430      6  34.601169   3.443836  19.789122 # tetra_o
  2431      6  12.209582  37.596552   8.202297 # tetra_o
  2432      6  35.941001   1.872811   5.781378 # tetra_o
  2433      6  33.905403   4.977603  22.210040 # tetra_o
  2434      6  32.573401   1.872811  19.775128 # tetra_o
  2435      6  30.537803   4.977603   8.216290 # tetra_o
  2436      6  35.266995   1.556122  12.646712 # tetra_o
  2437      6  33.231396   4.660914  15.344707 # tetra_o
  2438      6  35.288652   5.344590   3.506274 # tetra_o
  2439      6  37.324250   2.239797  24.485704 # tetra_o
  2440      6  31.921052   5.344590  17.500024 # tetra_o
  2441      6  33.956650   2.239797  10.491954 # tetra_o
  2442      6  33.697940   5.120424   5.786975 # tetra_o
  2443      6  35.733539   2.015631  22.204443 # tetra_o
  2444      6  30.330340   5.120424  19.780725 # tetra_o
  2445      6  32.365939   2.015631   8.210693 # tetra_o
  2446      6  15.730295  37.466772   5.793133 # tetra_o
  2447      6  38.121883   3.314055  22.199405 # tetra_o
  2448      6  12.362695  37.466772  19.786883 # tetra_o
  2449      6  34.754283   3.314055   8.205655 # tetra_o
  2450      6  34.655781   5.517837  17.284800 # tetra_o
  2451      7  35.038345   4.692146  16.870217 # H   
  2452      6  36.691380   2.413045  10.707738 # tetra_o
  2453      7  36.646736   1.587039  10.145847 # H   
  2454      8  33.833267   2.766991   3.629699 # O   
  2455      7  34.413970   2.766991   4.443814 # H   
  2456      7  34.413970   2.766991   2.815583 # H   
  2457      8  31.797668   5.871783  24.362839 # O   
  2458      7  32.378371   5.871783  25.176954 # H   
  2459      7  32.378371   5.871783  23.548723 # H   
  2460      8  37.200867   2.766991  17.623449 # O   
  2461      7  37.781570   2.766991  18.437564 # H   
  2462      7  37.781570   2.766991  16.809333 # H   
  2463      8  35.165268   5.871783  10.369089 # O   
  2464      7  35.745971   5.871783  11.183204 # H   
  2465      7  35.745971   5.871783   9.554973 # H   
  2466      8  33.578220   4.780138  12.426730 # O   
  2467      7  34.158923   4.780138  13.240845 # H   
  2468      7  34.158923   4.780138  11.612614 # H   
  2469      8  35.613819   1.675346  15.561330 # O   
  2470      7  36.194522   1.675346  16.375445 # H   
  2471      7  36.194522   1.675346  14.747214 # H   
  2472      8  36.945545   4.892532  13.915385 # O   
  2473      7  30.791048   4.892532  14.729501 # H   
  2474      7  30.791048   4.892532  13.101269 # H   
  2475      8  38.185842   1.317053  14.083310 # O   
  2476      7  38.766544   1.317053  14.897426 # H   
  2477      7  38.766544   1.317053  13.269194 # H   
  2478      8  31.465557   5.774293  13.999348 # O   
  2479      7  32.046259   5.774293  14.813463 # H   
  2480      7  32.046259   5.774293  13.185232 # H   
  2481      5  33.086725   8.609589   4.904530 # PT_si
  2482      5  31.051127  11.714382  23.085210 # PT_si
  2483      5  29.719125   8.609589  18.898280 # PT_si
  2484      5  27.683527  11.714382   9.091459 # PT_si
  2485      4  29.213814  10.869878  16.908368 # BT_si
  2486      4  31.249412   7.765086  11.081371 # BT_si
  2487      5  30.698640  12.180101   4.901731 # PT_si
  2488      5  32.734239   9.075308  23.088008 # PT_si
  2489      5  27.331040  12.180101  18.895481 # PT_si
  2490      5  29.366639   9.075308   9.094258 # PT_si
  2491      3  32.840391   8.851763   7.982595 # intra_layer_ca
  2492      3  30.804792  11.956556  20.006025 # intra_layer_ca
  2493      3  29.472791   8.851763  21.976345 # intra_layer_ca
  2494      3  27.437192  11.956556   6.012275 # intra_layer_ca
  2495      3  29.554870   8.870392   6.009476 # intra_layer_ca
  2496      3  27.519272  11.975184  21.979144 # intra_layer_ca
  2497      3  32.922470   8.870392  20.003226 # intra_layer_ca
  2498      3  30.886872  11.975184   7.985393 # intra_layer_ca
  2499      2  30.147870   9.280846  13.942813 # inter_layer_ca
  2500      6  32.587491   9.392618   3.494799 # tetra_o
  2501      6  34.623090   6.287826  24.496619 # tetra_o
  2502      6  29.219891   9.392618  17.488549 # tetra_o
  2503      6  31.255490   6.287826  10.502869 # tetra_o
  2504      6  33.956370   7.386922   4.317632 # tetra_o
  2505      6  31.920771  10.491715  23.673787 # tetra_o
  2506      6  30.588770   7.386922  18.311382 # tetra_o
  2507      6  28.553171  10.491715   9.680037 # tetra_o
  2508      6  33.897572   9.653421   5.795372 # tetra_o
  2509      6  35.933170   6.548628  22.196047 # tetra_o
  2510      6  30.529972   9.653421  19.789122 # tetra_o
  2511      6  32.565570   6.548628   8.202297 # tetra_o
  2512      6  31.869804   8.082396   5.781378 # tetra_o
  2513      6  29.834205  11.187188  22.210040 # tetra_o
  2514      6  28.502204   8.082396  19.775128 # tetra_o
  2515      6  26.466605  11.187188   8.216290 # tetra_o
  2516      6  31.195797   7.765707  12.646712 # tetra_o
  2517      6  29.160198  10.870499  15.344707 # tetra_o
  2518      6  31.217454  11.554175   3.506274 # tetra_o
  2519      6  33.253053   8.449382  24.485704 # tetra_o
  2520      6  27.849854  11.554175  17.500024 # tetra_o
  2521      6  29.885453   8.449382  10.491954 # tetra_o
  2522      6  29.626742  11.330009   5.786975 # tetra_o
  2523      6  31.662341   8.225216  22.204443 # tetra_o
  2524      6  26.259142  11.330009  19.780725 # tetra_o
  2525      6  28.294741   8.225216   8.210693 # tetra_o
  2526      6  36.086284   6.418848   5.793133 # tetra_o
  2527      6  34.050685   9.523640  22.199405 # tetra_o
  2528      6  32.718684   6.418848  19.786883 # tetra_o
  2529      6  30.683085   9.523640   8.205655 # tetra_o
  2530      6  30.584583  11.727422  17.284800 # tetra_o
  2531      7  30.967147  10.901731  16.870217 # H   
  2532      6  32.620182   8.622630  10.707738 # tetra_o
  2533      7  32.575538   7.796624  10.145847 # H   
  2534      8  29.762070   8.976576   3.629699 # O   
  2535      7  30.342773   8.976576   4.443814 # H   
  2536      7  30.342773   8.976576   2.815583 # H   
  2537      8  27.726471  12.081368  24.362839 # O   
  2538      7  28.307174  12.081368  25.176954 # H   
  2539      7  28.307174  12.081368  23.548723 # H   
  2540      8  33.129670   8.976576  17.623449 # O   
  2541      7  33.710373   8.976576  18.437564 # H   
  2542      7  33.710373   8.976576  16.809333 # H   
  2543      8  31.094071  12.081368  10.369089 # O   
  2544      7  31.674774  12.081368  11.183204 # H   
  2545      7  31.674774  12.081368   9.554973 # H   
  2546      8  29.507022  10.989723  12.426730 # O   
  2547      7  30.087725  10.989723  13.240845 # H   
  2548      7  30.087725  10.989723  11.612614 # H   
  2549      8  31.542621   7.884931  15.561330 # O   
  2550      7  32.123324   7.884931  16.375445 # H   
  2551      7  32.123324   7.884931  14.747214 # H   
  2552      8  32.874347  11.102117  13.915385 # O   
  2553      7  26.719850  11.102117  14.729501 # H   
  2554      7  26.719850  11.102117  13.101269 # H   
  2555      8  34.114644   7.526638  14.083310 # O   
  2556      7  34.695347   7.526638  14.897426 # H   
  2557      7  34.695347   7.526638  13.269194 # H   
  2558      8  27.394359  11.983878  13.999348 # O   
  2559      7  27.975062  11.983878  14.813463 # H   
  2560      7  27.975062  11.983878  13.185232 # H   
  2561      5  29.015528  14.819174   4.904530 # PT_si
  2562      5  26.979929  17.923967  23.085210 # PT_si
  2563      5  25.647928  14.819174  18.898280 # PT_si
  2564      5  23.612329  17.923967   9.091459 # PT_si
  2565      4  25.142616  17.079463  16.908368 # BT_si
  2566      4  27.178215  13.974671  11.081371 # BT_si
  2567      5  26.627443  18.389686   4.901731 # PT_si
  2568      5  28.663042  15.284893  23.088008 # PT_si
  2569      5  23.259843  18.389686  18.895481 # PT_si
  2570      5  25.295442  15.284893   9.094258 # PT_si
  2571      3  28.769193  15.061348   7.982595 # intra_layer_ca
  2572      3  26.733595  18.166141  20.006025 # intra_layer_ca
  2573      3  25.401593  15.061348  21.976345 # intra_layer_ca
  2574      3  23.365995  18.166141   6.012275 # intra_layer_ca
  2575      3  25.483673  15.079977   6.009476 # intra_layer_ca
  2576      3  23.448074  18.184769  21.979144 # intra_layer_ca
  2577      3  28.851273  15.079977  20.003226 # intra_layer_ca
  2578      3  26.815674  18.184769   7.985393 # intra_layer_ca
  2579      2  26.076672  15.490430  13.942813 # inter_layer_ca
  2580      6  28.516294  15.602203   3.494799 # tetra_o
  2581      6  30.551892  12.497410  24.496619 # tetra_o
  2582      6  25.148694  15.602203  17.488549 # tetra_o
  2583      6  27.184292  12.497410  10.502869 # tetra_o
  2584      6  29.885172  13.596507   4.317632 # tetra_o
  2585      6  27.849573  16.701299  23.673787 # tetra_o
  2586      6  26.517572  13.596507  18.311382 # tetra_o
  2587      6  24.481973  16.701299   9.680037 # tetra_o
  2588      6  29.826374  15.863005   5.795372 # tetra_o
  2589      6  31.861973  12.758213  22.196047 # tetra_o
  2590      6  26.458774  15.863005  19.789122 # tetra_o
  2591      6  28.494373  12.758213   8.202297 # tetra_o
  2592      6  27.798606  14.291981   5.781378 # tetra_o
  2593      6  25.763007  17.396773  22.210040 # tetra_o
  2594      6  24.431006  14.291981  19.775128 # tetra_o
  2595      6  22.395407  17.396773   8.216290 # tetra_o
  2596      6  27.124599  13.975292  12.646712 # tetra_o
  2597      6  25.089001  17.080084  15.344707 # tetra_o
  2598      6  27.146256  17.763759   3.506274 # tetra_o
  2599      6  29.181855  14.658967  24.485704 # tetra_o
  2600      6  23.778656  17.763759  17.500024 # tetra_o
  2601      6  25.814255  14.658967  10.491954 # tetra_o
  2602      6  25.555545  17.539593   5.786975 # tetra_o
  2603      6  27.591144  14.434801  22.204443 # tetra_o
  2604      6  22.187945  17.539593  19.780725 # tetra_o
  2605      6  24.223544  14.434801   8.210693 # tetra_o
  2606      6  32.015086  12.628433   5.793133 # tetra_o
  2607      6  29.979487  15.733225  22.199405 # tetra_o
  2608      6  28.647486  12.628433  19.786883 # tetra_o
  2609      6  26.611887  15.733225   8.205655 # tetra_o
  2610      6  26.513386  17.937007  17.284800 # tetra_o
  2611      7  26.895949  17.111316  16.870217 # H   
  2612      6  28.548985  14.832214  10.707738 # tetra_o
  2613      7  28.504340  14.006208  10.145847 # H   
  2614      8  25.690872  15.186161   3.629699 # O   
  2615      7  26.271575  15.186161   4.443814 # H   
  2616      7  26.271575  15.186161   2.815583 # H   
  2617      8  23.655273  18.290953  24.362839 # O   
  2618      7  24.235976  18.290953  25.176954 # H   
  2619      7  24.235976  18.290953  23.548723 # H   
  2620      8  29.058472  15.186161  17.623449 # O   
  2621      7  29.639175  15.186161  18.437564 # H   
  2622      7  29.639175  15.186161  16.809333 # H   
  2623      8  27.022873  18.290953  10.369089 # O   
  2624      7  27.603576  18.290953  11.183204 # H   
  2625      7  27.603576  18.290953   9.554973 # H   
  2626      8  25.435825  17.199308  12.426730 # O   
  2627      7  26.016528  17.199308  13.240845 # H   
  2628      7  26.016528  17.199308  11.612614 # H   
  2629      8  27.471424  14.094516  15.561330 # O   
  2630      7  28.052127  14.094516  16.375445 # H   
  2631      7  28.052127  14.094516  14.747214 # H   
  2632      8  28.803150  17.311702  13.915385 # O   
  2633      7  22.648653  17.311702  14.729501 # H   
  2634      7  22.648653  17.311702  13.101269 # H   
  2635      8  30.043446  13.736223  14.083310 # O   
  2636      7  30.624149  13.736223  14.897426 # H   
  2637      7  30.624149  13.736223  13.269194 # H   
  2638      8  23.323161  18.193463  13.999348 # O   
  2639      7  23.903864  18.193463  14.813463 # H   
  2640      7  23.903864  18.193463  13.185232 # H   
  2641      5  24.944330  21.028759   4.904530 # PT_si
  2642      5  22.908731  24.133552  23.085210 # PT_si
  2643      5  21.576730  21.028759  18.898280 # PT_si
  2644      5  19.541131  24.133552   9.091459 # PT_si
  2645      4  21.071418  23.289048  16.908368 # BT_si
  2646      4  23.107017  20.184256  11.081371 # BT_si
  2647      5  22.556245  24.599270   4.901731 # PT_si
  2648      5  24.591844  21.494478  23.088008 # PT_si
  2649      5  19.188645  24.599270  18.895481 # PT_si
  2650      5  21.224244  21.494478   9.094258 # PT_si
  2651      3  24.697996  21.270933   7.982595 # intra_layer_ca
  2652      3  22.662397  24.375725  20.006025 # intra_layer_ca
  2653      3  21.330396  21.270933  21.976345 # intra_layer_ca
  2654      3  19.294797  24.375725   6.012275 # intra_layer_ca
  2655      3  21.412475  21.289562   6.009476 # intra_layer_ca
  2656      3  19.376876  24.394354  21.979144 # intra_layer_ca
  2657      3  24.780075  21.289562  20.003226 # intra_layer_ca
  2658      3  22.744476  24.394354   7.985393 # intra_layer_ca
  2659      2  22.005474  21.700015  13.942813 # inter_layer_ca
  2660      6  24.445096  21.811788   3.494799 # tetra_o
  2661      6  26.480695  18.706995  24.496619 # tetra_o
  2662      6  21.077496  21.811788  17.488549 # tetra_o
  2663      6  23.113095  18.706995  10.502869 # tetra_o
  2664      6  25.813974  19.806092   4.317632 # tetra_o
  2665      6  23.778376  22.910884  23.673787 # tetra_o
  2666      6  22.446374  19.806092  18.311382 # tetra_o
  2667      6  20.410776  22.910884   9.680037 # tetra_o
  2668      6  25.755176  22.072590   5.795372 # tetra_o
  2669      6  27.790775  18.967798  22.196047 # tetra_o
  2670      6  22.387576  22.072590  19.789122 # tetra_o
  2671      6  24.423175  18.967798   8.202297 # tetra_o
  2672      6  23.727408  20.501565   5.781378 # tetra_o
  2673      6  21.691809  23.606358  22.210040 # tetra_o
  2674      6  20.359808  20.501565  19.775128 # tetra_o
  2675      6  18.324209  23.606358   8.216290 # tetra_o
  2676      6  23.053402  20.184877  12.646712 # tetra_o
  2677      6  21.017803  23.289669  15.344707 # tetra_o
  2678      6  23.075058  23.973344   3.506274 # tetra_o
  2679      6  25.110657  20.868552  24.485704 # tetra_o
  2680      6  19.707458  23.973344  17.500024 # tetra_o
  2681      6  21.743057  20.868552  10.491954 # tetra_o
  2682      6  21.484347  23.749178   5.786975 # tetra_o
  2683      6  23.519946  20.644386  22.204443 # tetra_o
  2684      6  18.116747  23.749178  19.780725 # tetra_o
  2685      6  20.152346  20.644386   8.210693 # tetra_o
  2686      6  27.943889  18.838018   5.793133 # tetra_o
  2687      6  25.908290  21.942810  22.199405 # tetra_o
  2688      6  24.576288  18.838018  19.786883 # tetra_o
  2689      6  22.540690  21.942810   8.205655 # tetra_o
  2690      6  22.442188  24.146592  17.284800 # tetra_o
  2691      7  22.824752  23.320900  16.870217 # H   
  2692      6  24.477787  21.041799  10.707738 # tetra_o
  2693      7  24.433143  20.215793  10.145847 # H   
  2694      8  21.619674  21.395746   3.629699 # O   
  2695      7  22.200377  21.395746   4.443814 # H   
  2696      7  22.200377  21.395746   2.815583 # H   
  2697      8  19.584075  24.500538  24.362839 # O   
  2698      7  20.164778  24.500538  25.176954 # H   
  2699      7  20.164778  24.500538  23.548723 # H   
  2700      8  24.987274  21.395746  17.623449 # O   
  2701      7  25.567977  21.395746  18.437564 # H   
  2702      7  25.567977  21.395746  16.809333 # H   
  2703      8  22.951675  24.500538  10.369089 # O   
  2704      7  23.532378  24.500538  11.183204 # H   
  2705      7  23.532378  24.500538   9.554973 # H   
  2706      8  21.364627  23.408893  12.426730 # O   
  2707      7  21.945330  23.408893  13.240845 # H   
  2708      7  21.945330  23.408893  11.612614 # H   
  2709      8  23.400226  20.304101  15.561330 # O   
  2710      7  23.980929  20.304101  16.375445 # H   
  2711      7  23.980929  20.304101  14.747214 # H   
  2712      8  24.731952  23.521286  13.915385 # O   
  2713      7  18.577455  23.521286  14.729501 # H   
  2714      7  18.577455  23.521286  13.101269 # H   
  2715      8  25.972248  19.945808  14.083310 # O   
  2716      7  26.552951  19.945808  14.897426 # H   
  2717      7  26.552951  19.945808  13.269194 # H   
  2718      8  19.251963  24.403048  13.999348 # O   
  2719      7  19.832666  24.403048  14.813463 # H   
  2720      7  19.832666  24.403048  13.185232 # H   
  2721      5  20.873132  27.238344   4.904530 # PT_si
  2722      5  18.837533  30.343136  23.085210 # PT_si
  2723      5  17.505532  27.238344  18.898280 # PT_si
  2724      5  15.469933  30.343136   9.091459 # PT_si
  2725      4  17.000220  29.498633  16.908368 # BT_si
  2726      4  19.035819  26.393840  11.081371 # BT_si
  2727      5  18.485047  30.808855   4.901731 # PT_si
  2728      5  20.520646  27.704063  23.088008 # PT_si
  2729      5  15.117447  30.808855  18.895481 # PT_si
  2730      5  17.153046  27.704063   9.094258 # PT_si
  2731      3  20.626798  27.480518   7.982595 # intra_layer_ca
  2732      3  18.591199  30.585310  20.006025 # intra_layer_ca
  2733      3  17.259198  27.480518  21.976345 # intra_layer_ca
  2734      3  15.223599  30.585310   6.012275 # intra_layer_ca
  2735      3  17.341277  27.499147   6.009476 # intra_layer_ca
  2736      3  15.305678  30.603939  21.979144 # intra_layer_ca
  2737      3  20.708877  27.499147  20.003226 # intra_layer_ca
  2738      3  18.673278  30.603939   7.985393 # intra_layer_ca
  2739      2  17.934277  27.909600  13.942813 # inter_layer_ca
  2740      6  20.373898  28.021373   3.494799 # tetra_o
  2741      6  22.409497  24.916580  24.496619 # tetra_o
  2742      6  17.006298  28.021373  17.488549 # tetra_o
  2743      6  19.041897  24.916580  10.502869 # tetra_o
  2744      6  21.742777  26.015677   4.317632 # tetra_o
  2745      6  19.707178  29.120469  23.673787 # tetra_o
  2746      6  18.375177  26.015677  18.311382 # tetra_o
  2747      6  16.339578  29.120469   9.680037 # tetra_o
  2748      6  21.683978  28.282175   5.795372 # tetra_o
  2749      6  23.719577  25.177383  22.196047 # tetra_o
  2750      6  18.316378  28.282175  19.789122 # tetra_o
  2751      6  20.351977  25.177383   8.202297 # tetra_o
  2752      6  19.656211  26.711150   5.781378 # tetra_o
  2753      6  17.620612  29.815943  22.210040 # tetra_o
  2754      6  16.288611  26.711150  19.775128 # tetra_o
  2755      6  14.253012  29.815943   8.216290 # tetra_o
  2756      6  18.982204  26.394461  12.646712 # tetra_o
  2757      6  16.946605  29.499254  15.344707 # tetra_o
  2758      6  19.003861  30.182929   3.506274 # tetra_o
  2759      6  21.039460  27.078137  24.485704 # tetra_o
  2760      6  15.636261  30.182929  17.500024 # tetra_o
  2761      6  17.671860  27.078137  10.491954 # tetra_o
  2762      6  17.413149  29.958763   5.786975 # tetra_o
  2763      6  19.448748  26.853971  22.204443 # tetra_o
  2764      6  14.045549  29.958763  19.780725 # tetra_o
  2765      6  16.081148  26.853971   8.210693 # tetra_o
  2766      6  23.872691  25.047602   5.793133 # tetra_o
  2767      6  21.837092  28.152395  22.199405 # tetra_o
  2768      6  20.505091  25.047602  19.786883 # tetra_o
  2769      6  18.469492  28.152395   8.205655 # tetra_o
  2770      6  18.370990  30.356177  17.284800 # tetra_o
  2771      7  18.753554  29.530485  16.870217 # H   
  2772      6  20.406589  27.251384  10.707738 # tetra_o
  2773      7  20.361945  26.425378  10.145847 # H   
  2774      8  17.548476  27.605330   3.629699 # O   
  2775      7  18.129179  27.605330   4.443814 # H   
  2776      7  18.129179  27.605330   2.815583 # H   
  2777      8  15.512878  30.710123  24.362839 # O   
  2778      7  16.093581  30.710123  25.176954 # H   
  2779      7  16.093581  30.710123  23.548723 # H   
  2780      8  20.916076  27.605330  17.623449 # O   
  2781      7  21.496779  27.605330  18.437564 # H   
  2782      7  21.496779  27.605330  16.809333 # H   
  2783      8  18.880478  30.710123  10.369089 # O   
  2784      7  19.461181  30.710123  11.183204 # H   
  2785      7  19.461181  30.710123   9.554973 # H   
  2786      8  17.293429  29.618478  12.426730 # O   
  2787      7  17.874132  29.618478  13.240845 # H   
  2788      7  17.874132  29.618478  11.612614 # H   
  2789      8  19.329028  26.513685  15.561330 # O   
  2790      7  19.909731  26.513685  16.375445 # H   
  2791      7  19.909731  26.513685  14.747214 # H   
  2792      8  20.660754  29.730871  13.915385 # O   
  2793      7  14.506257  29.730871  14.729501 # H   
  2794      7  14.506257  29.730871  13.101269 # H   
  2795      8  21.901051  26.155392  14.083310 # O   
  2796      7  22.481754  26.155392  14.897426 # H   
  2797      7  22.481754  26.155392  13.269194 # H   
  2798      8  15.180766  30.612632  13.999348 # O   
  2799      7  15.761469  30.612632  14.813463 # H   
  2800      7  15.761469  30.612632  13.185232 # H   
  2801      5  16.801935  33.447929   4.904530 # PT_si
  2802      5  14.766336  36.552721  23.085210 # PT_si
  2803      5  13.434335  33.447929  18.898280 # PT_si
  2804      5  11.398736  36.552721   9.091459 # PT_si
  2805      4  12.929023  35.708218  16.908368 # BT_si
  2806      4  14.964621  32.603425  11.081371 # BT_si
  2807      5  14.413849  37.018440   4.901731 # PT_si
  2808      5  16.449448  33.913648  23.088008 # PT_si
  2809      5  11.046249  37.018440  18.895481 # PT_si
  2810      5  13.081848  33.913648   9.094258 # PT_si
  2811      3  16.555600  33.690103   7.982595 # intra_layer_ca
  2812      3  14.520001  36.794895  20.006025 # intra_layer_ca
  2813      3  13.188000  33.690103  21.976345 # intra_layer_ca
  2814      3  11.152401  36.794895   6.012275 # intra_layer_ca
  2815      3  13.270079  33.708731   6.009476 # intra_layer_ca
  2816      3  11.234481  36.813524  21.979144 # intra_layer_ca
  2817      3  16.637679  33.708731  20.003226 # intra_layer_ca
  2818      3  14.602081  36.813524   7.985393 # intra_layer_ca
  2819      2  13.863079  34.119185  13.942813 # inter_layer_ca
  2820      6  16.302700  34.230957   3.494799 # tetra_o
  2821      6  18.338299  31.126165  24.496619 # tetra_o
  2822      6  12.935100  34.230957  17.488549 # tetra_o
  2823      6  14.970699  31.126165  10.502869 # tetra_o
  2824      6  17.671579  32.225262   4.317632 # tetra_o
  2825      6  15.635980  35.330054  23.673787 # tetra_o
  2826      6  14.303979  32.225262  18.311382 # tetra_o
  2827      6  12.268380  35.330054   9.680037 # tetra_o
  2828      6  17.612781  34.491760   5.795372 # tetra_o
  2829      6  19.648379  31.386968  22.196047 # tetra_o
  2830      6  14.245181  34.491760  19.789122 # tetra_o
  2831      6  16.280779  31.386968   8.202297 # tetra_o
  2832      6  15.585013  32.920735   5.781378 # tetra_o
  2833      6  13.549414  36.025528  22.210040 # tetra_o
  2834      6  12.217413  32.920735  19.775128 # tetra_o
  2835      6  10.181814  36.025528   8.216290 # tetra_o
  2836      6  14.911006  32.604046  12.646712 # tetra_o
  2837      6  12.875407  35.708839  15.344707 # tetra_o
  2838      6  14.932663  36.392514   3.506274 # tetra_o
  2839      6  16.968262  33.287722  24.485704 # tetra_o
  2840      6  11.565063  36.392514  17.500024 # tetra_o
  2841      6  13.600662  33.287722  10.491954 # tetra_o
  2842      6  13.341952  36.168348   5.786975 # tetra_o
  2843      6  15.377550  33.063556  22.204443 # tetra_o
  2844      6   9.974352  36.168348  19.780725 # tetra_o
  2845      6  12.009950  33.063556   8.210693 # tetra_o
  2846      6  19.801493  31.257187   5.793133 # tetra_o
  2847      6  17.765894  34.361980  22.199405 # tetra_o
  2848      6  16.433893  31.257187  19.786883 # tetra_o
  2849      6  14.398294  34.361980   8.205655 # tetra_o
  2850      6  14.299793  36.565761  17.284800 # tetra_o
  2851      7  14.682356  35.740070  16.870217 # H   
  2852      6  16.335391  33.460969  10.707738 # tetra_o
  2853      7  16.290747  32.634963  10.145847 # H   
  2854      8  13.477279  33.814915   3.629699 # O   
  2855      7  14.057982  33.814915   4.443814 # H   
  2856      7  14.057982  33.814915   2.815583 # H   
  2857      8  11.441680  36.919708  24.362839 # O   
  2858      7  12.022383  36.919708  25.176954 # H   
  2859      7  12.022383  36.919708  23.548723 # H   
  2860      8  16.844879  33.814915  17.623449 # O   
  2861      7  17.425582  33.814915  18.437564 # H   
  2862      7  17.425582  33.814915  16.809333 # H   
  2863      8  14.809280  36.919708  10.369089 # O   
  2864      7  15.389983  36.919708  11.183204 # H   
  2865      7  15.389983  36.919708   9.554973 # H   
  2866      8  13.222232  35.828063  12.426730 # O   
  2867      7  13.802934  35.828063  13.240845 # H   
  2868      7  13.802934  35.828063  11.612614 # H   
  2869      8  15.257830  32.723270  15.561330 # O   
  2870      7  15.838533  32.723270  16.375445 # H   
  2871      7  15.838533  32.723270  14.747214 # H   
  2872      8  16.589557  35.940456  13.915385 # O   
  2873      7  10.435059  35.940456  14.729501 # H   
  2874      7  10.435059  35.940456  13.101269 # H   
  2875      8  17.829853  32.364977  14.083310 # O   
  2876      7  18.410556  32.364977  14.897426 # H   
  2877      7  18.410556  32.364977  13.269194 # H   
  2878      8  11.109568  36.822217  13.999348 # O   
  2879      7  11.690271  36.822217  14.813463 # H   
  2880      7  11.690271  36.822217  13.185232 # H   
  2881      7 -18.701792  37.335750  25.203726 # H   
  2882      7   4.355357   2.239797  25.192811 # H   
  2883      7   1.654197   6.287826  25.203726 # H   
  2884      7   0.284159   8.449382  25.192811 # H   
  2885      7  -2.417001  12.497410  25.203726 # H   
  2886      7  -3.787038  14.658967  25.192811 # H   
  2887      7  -6.488198  18.706995  25.203726 # H   
  2888      7  -7.858236  20.868552  25.192811 # H   
  2889      7 -10.559396  24.916580  25.203726 # H   
  2890      7 -11.929434  27.078137  25.192811 # H   
  2891      7 -14.630594  31.126165  25.203726 # H   
  2892      7 -16.000631  33.287722  25.192811 # H   
  2893      7 -11.966592  37.335750  25.203726 # H   
  2894      7  11.090557   2.239797  25.192811 # H   
  2895      7   8.389397   6.287826  25.203726 # H   
  2896      7   7.019359   8.449382  25.192811 # H   
  2897      7   4.318199  12.497410  25.203726 # H   
  2898      7   2.948162  14.658967  25.192811 # H   
  2899      7   0.247002  18.706995  25.203726 # H   
  2900      7  -1.123036  20.868552  25.192811 # H   
  2901      7  -3.824196  24.916580  25.203726 # H   
  2902      7  -5.194234  27.078137  25.192811 # H   
  2903      7  -7.895394  31.126165  25.203726 # H   
  2904      7  -9.265431  33.287722  25.192811 # H   
  2905      7  -5.231392  37.335750  25.203726 # H   
  2906      7  17.825757   2.239797  25.192811 # H   
  2907      7  15.124597   6.287826  25.203726 # H   
  2908      7  13.754559   8.449382  25.192811 # H   
  2909      7  11.053399  12.497410  25.203726 # H   
  2910      7   9.683362  14.658967  25.192811 # H   
  2911      7   6.982202  18.706995  25.203726 # H   
  2912      7   5.612164  20.868552  25.192811 # H   
  2913      7   2.911004  24.916580  25.203726 # H   
  2914      7   1.540966  27.078137  25.192811 # H   
  2915      7  -1.160194  31.126165  25.203726 # H   
  2916      7  -2.530231  33.287722  25.192811 # H   
  2917      7   1.503808  37.335750  25.203726 # H   
  2918      7  24.560957   2.239797  25.192811 # H   
  2919      7  21.859797   6.287826  25.203726 # H   
  2920      7  20.489759   8.449382  25.192811 # H   
  2921      7  17.788599  12.497410  25.203726 # H   
  2922      7  16.418562  14.658967  25.192811 # H   
  2923      7  13.717402  18.706995  25.203726 # H   
  2924      7  12.347364  20.868552  25.192811 # H   
  2925      7   9.646204  24.916580  25.203726 # H   
  2926      7   8.276166  27.078137  25.192811 # H   
  2927      7   5.575006  31.126165  25.203726 # H   
  2928      7   4.204969  33.287722  25.192811 # H   
  2929      7   8.239008  37.335750  25.203726 # H   
  2930      7  31.296157   2.239797  25.192811 # H   
  2931      7  28.594997   6.287826  25.203726 # H   
  2932      7  27.224959   8.449382  25.192811 # H   
  2933      7  24.523799  12.497410  25.203726 # H   
  2934      7  23.153762  14.658967  25.192811 # H   
  2935      7  20.452602  18.706995  25.203726 # H   
  2936      7  19.082564  20.868552  25.192811 # H   
  2937      7  16.381404  24.916580  25.203726 # H   
  2938      7  15.011366  27.078137  25.192811 # H   
  2939      7  12.310206  31.126165  25.203726 # H   
  2940      7  10.940169  33.287722  25.192811 # H   
  2941      7  14.974208  37.335750  25.203726 # H   
  2942      7  38.031357   2.239797  25.192811 # H   
  2943      7  35.330197   6.287826  25.203726 # H   
  2944      7  33.960159   8.449382  25.192811 # H   
  2945      7  31.258999  12.497410  25.203726 # H   
  2946      7  29.888962  14.658967  25.192811 # H   
  2947      7  27.187802  18.706995  25.203726 # H   
  2948      7  25.817764  20.868552  25.192811 # H   
  2949      7  23.116604  24.916580  25.203726 # H   
  2950      7  21.746566  27.078137  25.192811 # H   
  2951      7  19.045406  31.126165  25.203726 # H   
  2952      7  17.675369  33.287722  25.192811 # H   
  2953      1   5.512210   1.555501  26.575121 # bulk_ca
  2954      7   7.912210   0.155501  27.775121 # H   
  2955      8   6.912210   0.155501  27.775121 # O   
  2956      7   5.112210   2.955501  27.775121 # H   
  2957      8   4.112210   2.955501  27.775121 # O   
  2958      1   1.441012   7.765086  26.575121 # bulk_ca
  2959      7   3.841012   6.365086  27.775121 # H   
  2960      8   2.841012   6.365086  27.775121 # O   
  2961      7   1.041012   9.165086  27.775121 # H   
  2962      8   0.041012   9.165086  27.775121 # O   
  2963      1  -2.630185  13.974671  26.575121 # bulk_ca
  2964      7  -0.230185  12.574671  27.775121 # H   
  2965      8  -1.230185  12.574671  27.775121 # O   
  2966      7  -3.030185  15.374671  27.775121 # H   
  2967      8  -4.030185  15.374671  27.775121 # O   
  2968      1  -6.701383  20.184256  26.575121 # bulk_ca
  2969      7  -4.301383  18.784256  27.775121 # H   
  2970      8  -5.301383  18.784256  27.775121 # O   
  2971      7  -7.101383  21.584256  27.775121 # H   
  2972      8  -8.101383  21.584256  27.775121 # O   
  2973      1 -10.772581  26.393840  26.575121 # bulk_ca
  2974      7  -8.372581  24.993840  27.775121 # H   
  2975      8  -9.372581  24.993840  27.775121 # O   
  2976      7 -11.172581  27.793840  27.775121 # H   
  2977      8 -12.172581  27.793840  27.775121 # O   
  2978      1 -14.843779  32.603425  26.575121 # bulk_ca
  2979      7 -12.443779  31.203425  27.775121 # H   
  2980      8 -13.443779  31.203425  27.775121 # O   
  2981      7 -15.243779  34.003425  27.775121 # H   
  2982      8 -16.243779  34.003425  27.775121 # O   
  2983      1  12.247410   1.555501  26.575121 # bulk_ca
  2984      7  14.647410   0.155501  27.775121 # H   
  2985      8  13.647410   0.155501  27.775121 # O   
  2986      7  11.847410   2.955501  27.775121 # H   
  2987      8  10.847410   2.955501  27.775121 # O   
  2988      1   8.176212   7.765086  26.575121 # bulk_ca
  2989      7  10.576212   6.365086  27.775121 # H   
  2990      8   9.576212   6.365086  27.775121 # O   
  2991      7   7.776212   9.165086  27.775121 # H   
  2992      8   6.776212   9.165086  27.775121 # O   
  2993      1   4.105015  13.974671  26.575121 # bulk_ca
  2994      7   6.505015  12.574671  27.775121 # H   
  2995      8   5.505015  12.574671  27.775121 # O   
  2996      7   3.705015  15.374671  27.775121 # H   
  2997      8   2.705015  15.374671  27.775121 # O   
  2998      1   0.033817  20.184256  26.575121 # bulk_ca
  2999      7   2.433817  18.784256  27.775121 # H   
  3000      8   1.433817  18.784256  27.775121 # O   
  3001      7  -0.366183  21.584256  27.775121 # H   
  3002      8  -1.366183  21.584256  27.775121 # O   
  3003      1  -4.037381  26.393840  26.575121 # bulk_ca
  3004      7  -1.637381  24.993840  27.775121 # H   
  3005      8  -2.637381  24.993840  27.775121 # O   
  3006      7  -4.437381  27.793840  27.775121 # H   
  3007      8  -5.437381  27.793840  27.775121 # O   
  3008      1  -8.108579  32.603425  26.575121 # bulk_ca
  3009      7  -5.708579  31.203425  27.775121 # H   
  3010      8  -6.708579  31.203425  27.775121 # O   
  3011      7  -8.508579  34.003425  27.775121 # H   
  3012      8  -9.508579  34.003425  27.775121 # O   
  3013      1  18.982610   1.555501  26.575121 # bulk_ca
  3014      7  21.382610   0.155501  27.775121 # H   
  3015      8  20.382610   0.155501  27.775121 # O   
  3016      7  18.582610   2.955501  27.775121 # H   
  3017      8  17.582610   2.955501  27.775121 # O   
  3018      1  14.911412   7.765086  26.575121 # bulk_ca
  3019      7  17.311412   6.365086  27.775121 # H   
  3020      8  16.311412   6.365086  27.775121 # O   
  3021      7  14.511412   9.165086  27.775121 # H   
  3022      8  13.511412   9.165086  27.775121 # O   
  3023      1  10.840215  13.974671  26.575121 # bulk_ca
  3024      7  13.240215  12.574671  27.775121 # H   
  3025      8  12.240215  12.574671  27.775121 # O   
  3026      7  10.440215  15.374671  27.775121 # H   
  3027      8   9.440215  15.374671  27.775121 # O   
  3028      1   6.769017  20.184256  26.575121 # bulk_ca
  3029      7   9.169017  18.784256  27.775121 # H   
  3030      8   8.169017  18.784256  27.775121 # O   
  3031      7   6.369017  21.584256  27.775121 # H   
  3032      8   5.369017  21.584256  27.775121 # O   
  3033      1   2.697819  26.393840  26.575121 # bulk_ca
  3034      7   5.097819  24.993840  27.775121 # H   
  3035      8   4.097819  24.993840  27.775121 # O   
  3036      7   2.297819  27.793840  27.775121 # H   
  3037      8   1.297819  27.793840  27.775121 # O   
  3038      1  -1.373379  32.603425  26.575121 # bulk_ca
  3039      7   1.026621  31.203425  27.775121 # H   
  3040      8   0.026621  31.203425  27.775121 # O   
  3041      7  -1.773379  34.003425  27.775121 # H   
  3042      8  -2.773379  34.003425  27.775121 # O   
  3043      1  25.717810   1.555501  26.575121 # bulk_ca
  3044      7  28.117810   0.155501  27.775121 # H   
  3045      8  27.117810   0.155501  27.775121 # O   
  3046      7  25.317810   2.955501  27.775121 # H   
  3047      8  24.317810   2.955501  27.775121 # O   
  3048      1  21.646612   7.765086  26.575121 # bulk_ca
  3049      7  24.046612   6.365086  27.775121 # H   
  3050      8  23.046612   6.365086  27.775121 # O   
  3051      7  21.246612   9.165086  27.775121 # H   
  3052      8  20.246612   9.165086  27.775121 # O   
  3053      1  17.575415  13.974671  26.575121 # bulk_ca
  3054      7  19.975415  12.574671  27.775121 # H   
  3055      8  18.975415  12.574671  27.775121 # O   
  3056      7  17.175415  15.374671  27.775121 # H   
  3057      8  16.175415  15.374671  27.775121 # O   
  3058      1  13.504217  20.184256  26.575121 # bulk_ca
  3059      7  15.904217  18.784256  27.775121 # H   
  3060      8  14.904217  18.784256  27.775121 # O   
  3061      7  13.104217  21.584256  27.775121 # H   
  3062      8  12.104217  21.584256  27.775121 # O   
  3063      1   9.433019  26.393840  26.575121 # bulk_ca
  3064      7  11.833019  24.993840  27.775121 # H   
  3065      8  10.833019  24.993840  27.775121 # O   
  3066      7   9.033019  27.793840  27.775121 # H   
  3067      8   8.033019  27.793840  27.775121 # O   
  3068      1   5.361821  32.603425  26.575121 # bulk_ca
  3069      7   7.761821  31.203425  27.775121 # H   
  3070      8   6.761821  31.203425  27.775121 # O   
  3071      7   4.961821  34.003425  27.775121 # H   
  3072      8   3.961821  34.003425  27.775121 # O   
  3073      1  32.453010   1.555501  26.575121 # bulk_ca
  3074      7  34.853010   0.155501  27.775121 # H   
  3075      8  33.853010   0.155501  27.775121 # O   
  3076      7  32.053010   2.955501  27.775121 # H   
  3077      8  31.053010   2.955501  27.775121 # O   
  3078      1  28.381812   7.765086  26.575121 # bulk_ca
  3079      7  30.781812   6.365086  27.775121 # H   
  3080      8  29.781812   6.365086  27.775121 # O   
  3081      7  27.981812   9.165086  27.775121 # H   
  3082      8  26.981812   9.165086  27.775121 # O   
  3083      1  24.310615  13.974671  26.575121 # bulk_ca
  3084      7  26.710615  12.574671  27.775121 # H   
  3085      8  25.710615  12.574671  27.775121 # O   
  3086      7  23.910615  15.374671  27.775121 # H   
  3087      8  22.910615  15.374671  27.775121 # O   
  3088      1  20.239417  20.184256  26.575121 # bulk_ca
  3089      7  22.639417  18.784256  27.775121 # H   
  3090      8  21.639417  18.784256  27.775121 # O   
  3091      7  19.839417  21.584256  27.775121 # H   
  3092      8  18.839417  21.584256  27.775121 # O   
  3093      1  16.168219  26.393840  26.575121 # bulk_ca
  3094      7  18.568219  24.993840  27.775121 # H   
  3095      8  17.568219  24.993840  27.775121 # O   
  3096      7  15.768219  27.793840  27.775121 # H   
  3097      8  14.768219  27.793840  27.775121 # O   
  3098      1  12.097021  32.603425  26.575121 # bulk_ca
  3099      7  14.497021  31.203425  27.775121 # H   
  3100      8  13.497021  31.203425  27.775121 # O   
  3101      7  11.697021  34.003425  27.775121 # H   
  3102      8  10.697021  34.003425  27.775121 # O   
  3103      1  39.188210   1.555501  26.575121 # bulk_ca
  3104      7  41.588210   0.155501  27.775121 # H   
  3105      8  40.588210   0.155501  27.775121 # O   
  3106      7  38.788210   2.955501  27.775121 # H   
  3107      8  37.788210   2.955501  27.775121 # O   
  3108      1  35.117012   7.765086  26.575121 # bulk_ca
  3109      7  37.517012   6.365086  27.775121 # H   
  3110      8  36.517012   6.365086  27.775121 # O   
  3111      7  34.717012   9.165086  27.775121 # H   
  3112      8  33.717012   9.165086  27.775121 # O   
  3113      1  31.045815  13.974671  26.575121 # bulk_ca
  3114      7  33.445815  12.574671  27.775121 # H   
  3115      8  32.445815  12.574671  27.775121 # O   
  3116      7  30.645815  15.374671  27.775121 # H   
  3117      8  29.645815  15.374671  27.775121 # O   
  3118      1  26.974617  20.184256  26.575121 # bulk_ca
  3119      7  29.374617  18.784256  27.775121 # H   
  3120      8  28.374617  18.784256  27.775121 # O   
  3121      7  26.574617  21.584256  27.775121 # H   
  3122      8  25.574617  21.584256  27.775121 # O   
  3123      1  22.903419  26.393840  26.575121 # bulk_ca
  3124      7  25.303419  24.993840  27.775121 # H   
  3125      8  24.303419  24.993840  27.775121 # O   
  3126      7  22.503419  27.793840  27.775121 # H   
  3127      8  21.503419  27.793840  27.775121 # O   
  3128      1  18.832221  32.603425  26.575121 # bulk_ca
  3129      7  21.232221  31.203425  27.775121 # H   
  3130      8  20.232221  31.203425  27.775121 # O   
  3131      7  18.432221  34.003425  27.775121 # H   
  3132      8  17.432221  34.003425  27.775121 # O   
  3133      7   2.275582   3.183033   2.787692 # H   
  3134      7   0.905545   5.344590   2.799167 # H   
  3135      7  -1.795615   9.392618   2.787692 # H   
  3136      7  -3.165653  11.554175   2.799167 # H   
  3137      7  -5.866813  15.602203   2.787692 # H   
  3138      7  -7.236851  17.763759   2.799167 # H   
  3139      7  -9.938011  21.811788   2.787692 # H   
  3140      7 -11.308048  23.973344   2.799167 # H   
  3141      7 -14.009209  28.021373   2.787692 # H   
  3142      7 -15.379246  30.182929   2.799167 # H   
  3143      7 -18.080406  34.230957   2.787692 # H   
  3144      7 -19.450444  36.392514   2.799167 # H   
  3145      7   9.010782   3.183033   2.787692 # H   
  3146      7   7.640745   5.344590   2.799167 # H   
  3147      7   4.939585   9.392618   2.787692 # H   
  3148      7   3.569547  11.554175   2.799167 # H   
  3149      7   0.868387  15.602203   2.787692 # H   
  3150      7  -0.501651  17.763759   2.799167 # H   
  3151      7  -3.202811  21.811788   2.787692 # H   
  3152      7  -4.572848  23.973344   2.799167 # H   
  3153      7  -7.274009  28.021373   2.787692 # H   
  3154      7  -8.644046  30.182929   2.799167 # H   
  3155      7 -11.345206  34.230957   2.787692 # H   
  3156      7 -12.715244  36.392514   2.799167 # H   
  3157      7  15.745982   3.183033   2.787692 # H   
  3158      7  14.375945   5.344590   2.799167 # H   
  3159      7  11.674785   9.392618   2.787692 # H   
  3160      7  10.304747  11.554175   2.799167 # H   
  3161      7   7.603587  15.602203   2.787692 # H   
  3162      7   6.233549  17.763759   2.799167 # H   
  3163      7   3.532389  21.811788   2.787692 # H   
  3164      7   2.162352  23.973344   2.799167 # H   
  3165      7  -0.538809  28.021373   2.787692 # H   
  3166      7  -1.908846  30.182929   2.799167 # H   
  3167      7  -4.610006  34.230957   2.787692 # H   
  3168      7  -5.980044  36.392514   2.799167 # H   
  3169      7  22.481182   3.183033   2.787692 # H   
  3170      7  21.111145   5.344590   2.799167 # H   
  3171      7  18.409985   9.392618   2.787692 # H   
  3172      7  17.039947  11.554175   2.799167 # H   
  3173      7  14.338787  15.602203   2.787692 # H   
  3174      7  12.968749  17.763759   2.799167 # H   
  3175      7  10.267589  21.811788   2.787692 # H   
  3176      7   8.897552  23.973344   2.799167 # H   
  3177      7   6.196391  28.021373   2.787692 # H   
  3178      7   4.826354  30.182929   2.799167 # H   
  3179      7   2.125194  34.230957   2.787692 # H   
  3180      7   0.755156  36.392514   2.799167 # H   
  3181      7  29.216382   3.183033   2.787692 # H   
  3182      7  27.846345   5.344590   2.799167 # H   
  3183      7  25.145185   9.392618   2.787692 # H   
  3184      7  23.775147  11.554175   2.799167 # H   
  3185      7  21.073987  15.602203   2.787692 # H   
  3186      7  19.703949  17.763759   2.799167 # H   
  3187      7  17.002789  21.811788   2.787692 # H   
  3188      7  15.632752  23.973344   2.799167 # H   
  3189      7  12.931591  28.021373   2.787692 # H   
  3190      7  11.561554  30.182929   2.799167 # H   
  3191      7   8.860394  34.230957   2.787692 # H   
  3192      7   7.490356  36.392514   2.799167 # H   
  3193      7  35.951582   3.183033   2.787692 # H   
  3194      7  34.581545   5.344590   2.799167 # H   
  3195      7  31.880385   9.392618   2.787692 # H   
  3196      7  30.510347  11.554175   2.799167 # H   
  3197      7  27.809187  15.602203   2.787692 # H   
  3198      7  26.439149  17.763759   2.799167 # H   
  3199      7  23.737989  21.811788   2.787692 # H   
  3200      7  22.367952  23.973344   2.799167 # H   
  3201      7  19.666791  28.021373   2.787692 # H   
  3202      7  18.296754  30.182929   2.799167 # H   
  3203      7  15.595594  34.230957   2.787692 # H   
  3204      7  14.225556  36.392514   2.799167 # H   
  3205      1   2.476611   4.660293   1.414618 # bulk_ca
  3206      7   2.076611   6.060293   0.214618 # H   
  3207      8   1.076611   6.060293   0.214618 # O   
  3208      7   4.876611   3.260293   0.214618 # H   
  3209      8   3.876611   3.260293   0.214618 # O   
  3210      1  -1.594586  10.869878   1.414618 # bulk_ca
  3211      7  -1.994586  12.269878   0.214618 # H   
  3212      8  -2.994586  12.269878   0.214618 # O   
  3213      7   0.805414   9.469878   0.214618 # H   
  3214      8  -0.194586   9.469878   0.214618 # O   
  3215      1  -5.665784  17.079463   1.414618 # bulk_ca
  3216      7  -6.065784  18.479463   0.214618 # H   
  3217      8  -7.065784  18.479463   0.214618 # O   
  3218      7  -3.265784  15.679463   0.214618 # H   
  3219      8  -4.265784  15.679463   0.214618 # O   
  3220      1  -9.736982  23.289048   1.414618 # bulk_ca
  3221      7 -10.136982  24.689048   0.214618 # H   
  3222      8 -11.136982  24.689048   0.214618 # O   
  3223      7  -7.336982  21.889048   0.214618 # H   
  3224      8  -8.336982  21.889048   0.214618 # O   
  3225      1 -13.808180  29.498633   1.414618 # bulk_ca
  3226      7 -14.208180  30.898633   0.214618 # H   
  3227      8 -15.208180  30.898633   0.214618 # O   
  3228      7 -11.408180  28.098633   0.214618 # H   
  3229      8 -12.408180  28.098633   0.214618 # O   
  3230      1 -17.879377  35.708218   1.414618 # bulk_ca
  3231      7 -18.279377  37.108218   0.214618 # H   
  3232      8 -19.279377  37.108218   0.214618 # O   
  3233      7 -15.479377  34.308218   0.214618 # H   
  3234      8 -16.479377  34.308218   0.214618 # O   
  3235      1   9.211811   4.660293   1.414618 # bulk_ca
  3236      7   8.811811   6.060293   0.214618 # H   
  3237      8   7.811811   6.060293   0.214618 # O   
  3238      7  11.611811   3.260293   0.214618 # H   
  3239      8  10.611811   3.260293   0.214618 # O   
  3240      1   5.140614  10.869878   1.414618 # bulk_ca
  3241      7   4.740613  12.269878   0.214618 # H   
  3242      8   3.740614  12.269878   0.214618 # O   
  3243      7   7.540614   9.469878   0.214618 # H   
  3244      8   6.540614   9.469878   0.214618 # O   
  3245      1   1.069416  17.079463   1.414618 # bulk_ca
  3246      7   0.669416  18.479463   0.214618 # H   
  3247      8  -0.330584  18.479463   0.214618 # O   
  3248      7   3.469416  15.679463   0.214618 # H   
  3249      8   2.469416  15.679463   0.214618 # O   
  3250      1  -3.001782  23.289048   1.414618 # bulk_ca
  3251      7  -3.401782  24.689048   0.214618 # H   
  3252      8  -4.401782  24.689048   0.214618 # O   
  3253      7  -0.601782  21.889048   0.214618 # H   
  3254      8  -1.601782  21.889048   0.214618 # O   
  3255      1  -7.072980  29.498633   1.414618 # bulk_ca
  3256      7  -7.472980  30.898633   0.214618 # H   
  3257      8  -8.472980  30.898633   0.214618 # O   
  3258      7  -4.672980  28.098633   0.214618 # H   
  3259      8  -5.672980  28.098633   0.214618 # O   
  3260      1 -11.144177  35.708218   1.414618 # bulk_ca
  3261      7 -11.544177  37.108218   0.214618 # H   
  3262      8 -12.544177  37.108218   0.214618 # O   
  3263      7  -8.744177  34.308218   0.214618 # H   
  3264      8  -9.744177  34.308218   0.214618 # O   
  3265      1  15.947011   4.660293   1.414618 # bulk_ca
  3266      7  15.547011   6.060293   0.214618 # H   
  3267      8  14.547011   6.060293   0.214618 # O   
  3268      7  18.347011   3.260293   0.214618 # H   
  3269      8  17.347011   3.260293   0.214618 # O   
  3270      1  11.875814  10.869878   1.414618 # bulk_ca
  3271      7  11.475814  12.269878   0.214618 # H   
  3272      8  10.475813  12.269878   0.214618 # O   
  3273      7  14.275814   9.469878   0.214618 # H   
  3274      8  13.275814   9.469878   0.214618 # O   
  3275      1   7.804616  17.079463   1.414618 # bulk_ca
  3276      7   7.404616  18.479463   0.214618 # H   
  3277      8   6.404616  18.479463   0.214618 # O   
  3278      7  10.204616  15.679463   0.214618 # H   
  3279      8   9.204616  15.679463   0.214618 # O   
  3280      1   3.733418  23.289048   1.414618 # bulk_ca
  3281      7   3.333418  24.689048   0.214618 # H   
  3282      8   2.333418  24.689048   0.214618 # O   
  3283      7   6.133418  21.889048   0.214618 # H   
  3284      8   5.133418  21.889048   0.214618 # O   
  3285      1  -0.337780  29.498633   1.414618 # bulk_ca
  3286      7  -0.737780  30.898633   0.214618 # H   
  3287      8  -1.737780  30.898633   0.214618 # O   
  3288      7   2.062220  28.098633   0.214618 # H   
  3289      8   1.062220  28.098633   0.214618 # O   
  3290      1  -4.408977  35.708218   1.414618 # bulk_ca
  3291      7  -4.808977  37.108218   0.214618 # H   
  3292      8  -5.808977  37.108218   0.214618 # O   
  3293      7  -2.008977  34.308218   0.214618 # H   
  3294      8  -3.008977  34.308218   0.214618 # O   
  3295      1  22.682211   4.660293   1.414618 # bulk_ca
  3296      7  22.282211   6.060293   0.214618 # H   
  3297      8  21.282211   6.060293   0.214618 # O   
  3298      7  25.082211   3.260293   0.214618 # H   
  3299      8  24.082211   3.260293   0.214618 # O   
  3300      1  18.611014  10.869878   1.414618 # bulk_ca
  3301      7  18.211014  12.269878   0.214618 # H   
  3302      8  17.211014  12.269878   0.214618 # O   
  3303      7  21.011014   9.469878   0.214618 # H   
  3304      8  20.011014   9.469878   0.214618 # O   
  3305      1  14.539816  17.079463   1.414618 # bulk_ca
  3306      7  14.139816  18.479463   0.214618 # H   
  3307      8  13.139816  18.479463   0.214618 # O   
  3308      7  16.939816  15.679463   0.214618 # H   
  3309      8  15.939816  15.679463   0.214618 # O   
  3310      1  10.468618  23.289048   1.414618 # bulk_ca
  3311      7  10.068618  24.689048   0.214618 # H   
  3312      8   9.068618  24.689048   0.214618 # O   
  3313      7  12.868618  21.889048   0.214618 # H   
  3314      8  11.868618  21.889048   0.214618 # O   
  3315      1   6.397420  29.498633   1.414618 # bulk_ca
  3316      7   5.997420  30.898633   0.214618 # H   
  3317      8   4.997420  30.898633   0.214618 # O   
  3318      7   8.797420  28.098633   0.214618 # H   
  3319      8   7.797420  28.098633   0.214618 # O   
  3320      1   2.326223  35.708218   1.414618 # bulk_ca
  3321      7   1.926223  37.108218   0.214618 # H   
  3322      8   0.926223  37.108218   0.214618 # O   
  3323      7   4.726223  34.308218   0.214618 # H   
  3324      8   3.726223  34.308218   0.214618 # O   
  3325      1  29.417411   4.660293   1.414618 # bulk_ca
  3326      7  29.017411   6.060293   0.214618 # H   
  3327      8  28.017411   6.060293   0.214618 # O   
  3328      7  31.817411   3.260293   0.214618 # H   
  3329      8  30.817411   3.260293   0.214618 # O   
  3330      1  25.346214  10.869878   1.414618 # bulk_ca
  3331      7  24.946213  12.269878   0.214618 # H   
  3332      8  23.946214  12.269878   0.214618 # O   
  3333      7  27.746214   9.469878   0.214618 # H   
  3334      8  26.746214   9.469878   0.214618 # O   
  3335      1  21.275016  17.079463   1.414618 # bulk_ca
  3336      7  20.875016  18.479463   0.214618 # H   
  3337      8  19.875016  18.479463   0.214618 # O   
  3338      7  23.675016  15.679463   0.214618 # H   
  3339      8  22.675016  15.679463   0.214618 # O   
  3340      1  17.203818  23.289048   1.414618 # bulk_ca
  3341      7  16.803818  24.689048   0.214618 # H   
  3342      8  15.803818  24.689048   0.214618 # O   
  3343      7  19.603818  21.889048   0.214618 # H   
  3344      8  18.603818  21.889048   0.214618 # O   
  3345      1  13.132620  29.498633   1.414618 # bulk_ca
  3346      7  12.732620  30.898633   0.214618 # H   
  3347      8  11.732620  30.898633   0.214618 # O   
  3348      7  15.532620  28.098633   0.214618 # H   
  3349      8  14.532620  28.098633   0.214618 # O   
  3350      1   9.061423  35.708218   1.414618 # bulk_ca
  3351      7   8.661423  37.108218   0.214618 # H   
  3352      8   7.661423  37.108218   0.214618 # O   
  3353      7  11.461423  34.308218   0.214618 # H   
  3354      8  10.461423  34.308218   0.214618 # O   
  3355      1  36.152611   4.660293   1.414618 # bulk_ca
  3356      7  35.752611   6.060293   0.214618 # H   
  3357      8  34.752611   6.060293   0.214618 # O   
  3358      7  38.552611   3.260293   0.214618 # H   
  3359      8  37.552611   3.260293   0.214618 # O   
  3360      1  32.081414  10.869878   1.414618 # bulk_ca
  3361      7  31.681414  12.269878   0.214618 # H   
  3362      8  30.681413  12.269878   0.214618 # O   
  3363      7  34.481414   9.469878   0.214618 # H   
  3364      8  33.481414   9.469878   0.214618 # O   
  3365      1  28.010216  17.079463   1.414618 # bulk_ca
  3366      7  27.610216  18.479463   0.214618 # H   
  3367      8  26.610216  18.479463   0.214618 # O   
  3368      7  30.410216  15.679463   0.214618 # H   
  3369      8  29.410216  15.679463   0.214618 # O   
  3370      1  23.939018  23.289048   1.414618 # bulk_ca
  3371      7  23.539018  24.689048   0.214618 # H   
  3372      8  22.539018  24.689048   0.214618 # O   
  3373      7  26.339018  21.889048   0.214618 # H   
  3374      8  25.339018  21.889048   0.214618 # O   
  3375      1  19.867820  29.498633   1.414618 # bulk_ca
  3376      7  19.467820  30.898633   0.214618 # H   
  3377      8  18.467820  30.898633   0.214618 # O   
  3378      7  22.267820  28.098633   0.214618 # H   
  3379      8  21.267820  28.098633   0.214618 # O   
  3380      1  15.796623  35.708218   1.414618 # bulk_ca
  3381      7  15.396623  37.108218   0.214618 # H   
  3382      8  14.396623  37.108218   0.214618 # O   
  3383      7  18.196623  34.308218   0.214618 # H   
  3384      8  17.196623  34.308218   0.214618 # O   
  3385      7  20.923161  26.405877  39.987500 # H   
  3386      7  19.341781  26.405877  39.987500 # H   
  3387      8  20.132471  25.793660  39.987500 # O   
  3388      7  17.238261   6.344142  29.987500 # H   
  3389      7  15.656882   6.344142  29.987500 # H   
  3390      8  16.447571   5.731924  29.987500 # O   
  3391      7  16.847832  12.076066  31.987500 # H   
  3392      7  15.266453  12.076066  31.987500 # H   
  3393      8  16.057143  11.463849  31.987500 # O   
  3394      7  25.071618  14.942028  41.987500 # H   
  3395      7  23.490239  14.942028  41.987500 # H   
  3396      8  24.280928  14.329811  41.987500 # O   
  3397      7  19.044146  29.271840  31.987500 # H   
  3398      7  17.462767  29.271840  31.987500 # H   
  3399      8  18.253457  28.659622  31.987500 # O   
  3400      7  -3.357768  12.076066  37.987500 # H   
  3401      7  -4.939147  12.076066  37.987500 # H   
  3402      8  -4.148457  11.463849  37.987500 # O   
  3403      7  26.950632  12.076066  31.987500 # H   
  3404      7  25.369253  12.076066  31.987500 # H   
  3405      8  26.159943  11.463849  31.987500 # O   
  3406      7  26.560204  17.807991  39.987500 # H   
  3407      7  24.978824  17.807991  39.987500 # H   
  3408      8  25.769514  17.195773  39.987500 # O   
  3409      7 -12.752839  26.405877  33.987500 # H   
  3410      7 -14.334219  26.405877  33.987500 # H   
  3411      8 -13.543529  25.793660  33.987500 # O   
  3412      7  28.829647   9.210104  29.987500 # H   
  3413      7  27.248267   9.210104  29.987500 # H   
  3414      8  28.038957   8.597887  29.987500 # O   
  3415      7  17.238261   6.344142  37.987500 # H   
  3416      7  15.656882   6.344142  37.987500 # H   
  3417      8  16.447571   5.731924  37.987500 # O   
  3418      7  11.918518  35.003764  35.987500 # H   
  3419      7  10.337138  35.003764  35.987500 # H   
  3420      8  11.127828  34.391547  35.987500 # O   
  3421      7  10.429932  32.137802  31.987500 # H   
  3422      7   8.848553  32.137802  31.987500 # H   
  3423      8   9.639242  31.525585  31.987500 # O   
  3424      7  10.429932  32.137802  39.987500 # H   
  3425      7   8.848553  32.137802  39.987500 # H   
  3426      8   9.639242  31.525585  39.987500 # O   
  3427      7  11.918518  35.003764  31.987500 # H   
  3428      7  10.337138  35.003764  31.987500 # H   
  3429      8  11.127828  34.391547  31.987500 # O   
  3430      7  -2.259611  20.673953  31.987500 # H   
  3431      7  -3.840990  20.673953  31.987500 # H   
  3432      8  -3.050300  20.061736  31.987500 # O   
  3433      7  -7.896654  29.271840  39.987500 # H   
  3434      7  -9.478033  29.271840  39.987500 # H   
  3435      8  -8.687343  28.659622  39.987500 # O   
  3436      7  13.089804  17.807991  39.987500 # H   
  3437      7  11.508424  17.807991  39.987500 # H   
  3438      8  12.299114  17.195773  39.987500 # O   
  3439      7  10.503061   6.344142  37.987500 # H   
  3440      7   8.921682   6.344142  37.987500 # H   
  3441      8   9.712371   5.731924  37.987500 # O   
  3442      7  -6.408068  32.137802  37.987500 # H   
  3443      7  -7.989447  32.137802  37.987500 # H   
  3444      8  -7.198758  31.525585  37.987500 # O   
  3445      7 -11.654682  35.003764  37.987500 # H   
  3446      7 -13.236062  35.003764  37.987500 # H   
  3447      8 -12.445372  34.391547  37.987500 # O   
  3448      7   1.107989  20.673953  41.987500 # H   
  3449      7  -0.473390  20.673953  41.987500 # H   
  3450      8   0.317300  20.061736  41.987500 # O   
  3451      7  -0.380596  17.807991  33.987500 # H   
  3452      7  -1.961976  17.807991  33.987500 # H   
  3453      8  -1.171286  17.195773  33.987500 # O   
  3454      7   7.135461   6.344142  31.987500 # H   
  3455      7   5.554082   6.344142  31.987500 # H   
  3456      8   6.344771   5.731924  31.987500 # O   
  3457      7   2.206146  29.271840  41.987500 # H   
  3458      7   0.624767  29.271840  41.987500 # H   
  3459      8   1.415457  28.659622  41.987500 # O   
  3460      7   9.014475   3.478180  37.987500 # H   
  3461      7   7.433096   3.478180  37.987500 # H   
  3462      8   8.223786   2.865962  37.987500 # O   
  3463      7  25.462047   9.210104  31.987500 # H   
  3464      7  23.880667   9.210104  31.987500 # H   
  3465      8  24.671357   8.597887  31.987500 # O   
  3466      7   8.233618  14.942028  37.987500 # H   
  3467      7   6.652239  14.942028  37.987500 # H   
  3468      8   7.442928  14.329811  37.987500 # O   
  3469      7  32.197247   9.210104  37.987500 # H   
  3470      7  30.615867   9.210104  37.987500 # H   
  3471      8  31.406557   8.597887  37.987500 # O   
  3472      7   1.888847   9.210104  31.987500 # H   
  3473      7   0.307467   9.210104  31.987500 # H   
  3474      8   1.098157   8.597887  31.987500 # O   
  3475      7   5.573746  29.271840  29.987500 # H   
  3476      7   3.992367  29.271840  29.987500 # H   
  3477      8   4.783057  28.659622  29.987500 # O   
  3478      7  20.215432  12.076066  29.987500 # H   
  3479      7  18.634053  12.076066  29.987500 # H   
  3480      8  19.424743  11.463849  29.987500 # O   
  3481      7  31.099090   0.612217  39.987500 # H   
  3482      7  29.517710   0.612217  39.987500 # H   
  3483      8  30.308400   0.000000  39.987500 # O   
  3484      7  22.802175  23.539915  41.987500 # H   
  3485      7  21.220796  23.539915  41.987500 # H   
  3486      8  22.011485  22.927698  41.987500 # O   
  3487      7  29.220075   3.478180  29.987500 # H   
  3488      7  27.638696   3.478180  29.987500 # H   
  3489      8  28.429386   2.865962  29.987500 # O   
  3490      7  13.480232  12.076066  31.987500 # H   
  3491      7  11.898853  12.076066  31.987500 # H   
  3492      8  12.689543  11.463849  31.987500 # O   
  3493      7 -15.022282  35.003764  37.987500 # H   
  3494      7 -16.603662  35.003764  37.987500 # H   
  3495      8 -15.812972  34.391547  37.987500 # O   
  3496      7  20.996290   0.612217  33.987500 # H   
  3497      7  19.414910   0.612217  33.987500 # H   
  3498      8  20.205600   0.000000  33.987500 # O   
  3499      7  -2.967339   6.344142  29.987500 # H   
  3500      7  -4.548718   6.344142  29.987500 # H   
  3501      8  -3.758029   5.731924  29.987500 # O   
  3502      7   6.745032  12.076066  37.987500 # H   
  3503      7   5.163653  12.076066  37.987500 # H   
  3504      8   5.954343  11.463849  37.987500 # O   
  3505      7  30.708661   6.344142  35.987500 # H   
  3506      7  29.127282   6.344142  35.987500 # H   
  3507      8  29.917971   5.731924  35.987500 # O   
  3508      7  16.457404  17.807991  29.987500 # H   
  3509      7  14.876024  17.807991  29.987500 # H   
  3510      8  15.666714  17.195773  29.987500 # O   
  3511      7  -6.725368  12.076066  39.987500 # H   
  3512      7  -8.306747  12.076066  39.987500 # H   
  3513      8  -7.516057  11.463849  39.987500 # O   
  3514      7  27.731490   0.612217  33.987500 # H   
  3515      7  26.150110   0.612217  33.987500 # H   
  3516      8  26.940800   0.000000  33.987500 # O   
  3517      7  19.434575  23.539915  29.987500 # H   
  3518      7  17.853196  23.539915  29.987500 # H   
  3519      8  18.643885  22.927698  29.987500 # O   
  3520      7  23.583032  12.076066  39.987500 # H   
  3521      7  22.001653  12.076066  39.987500 # H   
  3522      8  22.792343  11.463849  39.987500 # O   
  3523      7   5.573746  29.271840  33.987500 # H   
  3524      7   3.992367  29.271840  33.987500 # H   
  3525      8   4.783057  28.659622  33.987500 # O   
  3526      7  -1.088325   3.478180  39.987500 # H   
  3527      7  -2.669704   3.478180  39.987500 # H   
  3528      8  -1.879014   2.865962  39.987500 # O   
  3529      7  -9.385239  26.405877  41.987500 # H   
  3530      7 -10.966619  26.405877  41.987500 # H   
  3531      8 -10.175929  25.793660  41.987500 # O   
  3532      7  -4.919482  35.003764  33.987500 # H   
  3533      7  -6.500862  35.003764  33.987500 # H   
  3534      8  -5.710172  34.391547  33.987500 # O   
  3535      7   9.331775  23.539915  37.987500 # H   
  3536      7   7.750396  23.539915  37.987500 # H   
  3537      8   8.541085  22.927698  37.987500 # O   
  3538      7   7.525890   0.612217  33.987500 # H   
  3539      7   5.944510   0.612217  33.987500 # H   
  3540      8   6.735200   0.000000  33.987500 # O   
  3541      7  13.480232  12.076066  29.987500 # H   
  3542      7  11.898853  12.076066  29.987500 # H   
  3543      8  12.689543  11.463849  29.987500 # O   
  3544      7   0.009832  12.076066  33.987500 # H   
  3545      7  -1.571547  12.076066  33.987500 # H   
  3546      8  -0.780857  11.463849  33.987500 # O   
  3547      7   3.767861   6.344142  37.987500 # H   
  3548      7   2.186482   6.344142  37.987500 # H   
  3549      8   2.977171   5.731924  37.987500 # O   
  3550      7   9.331775  23.539915  41.987500 # H   
  3551      7   7.750396  23.539915  41.987500 # H   
  3552      8   8.541085  22.927698  41.987500 # O   
  3553      7   9.722204  17.807991  29.987500 # H   
  3554      7   8.140824  17.807991  29.987500 # H   
  3555      8   8.931514  17.195773  29.987500 # O   
  3556      7   5.183318  35.003764  37.987500 # H   
  3557      7   3.601938  35.003764  37.987500 # H   
  3558      8   4.392628  34.391547  37.987500 # O   
  3559      7  21.313589  20.673953  41.987500 # H   
  3560      7  19.732210  20.673953  41.987500 # H   
  3561      8  20.522900  20.061736  41.987500 # O   
  3562      7   8.941346  29.271840  31.987500 # H   
  3563      7   7.359967  29.271840  31.987500 # H   
  3564      8   8.150657  28.659622  31.987500 # O   
  3565      7 -21.757482  35.003764  41.987500 # H   
  3566      7 -23.338862  35.003764  41.987500 # H   
  3567      8 -22.548172  34.391547  41.987500 # O   
  3568      7  14.187961  26.405877  31.987500 # H   
  3569      7  12.606581  26.405877  31.987500 # H   
  3570      8  13.397271  25.793660  31.987500 # O   
  3571      7  26.560204  17.807991  35.987500 # H   
  3572      7  24.978824  17.807991  35.987500 # H   
  3573      8  25.769514  17.195773  35.987500 # O   
  3574      7  22.802175  23.539915  33.987500 # H   
  3575      7  21.220796  23.539915  33.987500 # H   
  3576      8  22.011485  22.927698  33.987500 # O   
  3577      7   1.815718  35.003764  37.987500 # H   
  3578      7   0.234338  35.003764  37.987500 # H   
  3579      8   1.025028  34.391547  37.987500 # O   
  3580      7  -4.846353   9.210104  29.987500 # H   
  3581      7  -6.427733   9.210104  29.987500 # H   
  3582      8  -5.637043   8.597887  29.987500 # O   
  3583      7   4.085161  26.405877  37.987500 # H   
  3584      7   2.503781  26.405877  37.987500 # H   
  3585      8   3.294471  25.793660  37.987500 # O   
  3586      7  -7.115796  17.807991  37.987500 # H   
  3587      7  -8.697176  17.807991  37.987500 # H   
  3588      8  -7.906486  17.195773  37.987500 # O   
  3589      7  11.601218  14.942028  31.987500 # H   
  3590      7  10.019839  14.942028  31.987500 # H   
  3591      8  10.810528  14.329811  31.987500 # O   
  3592      7   0.327132  32.137802  33.987500 # H   
  3593      7  -1.254247  32.137802  33.987500 # H   
  3594      8  -0.463558  31.525585  33.987500 # O   
  3595      7 -16.120439  26.405877  35.987500 # H   
  3596      7 -17.701819  26.405877  35.987500 # H   
  3597      8 -16.911129  25.793660  35.987500 # O   
  3598      7 -15.022282  35.003764  39.987500 # H   
  3599      7 -16.603662  35.003764  39.987500 # H   
  3600      8 -15.812972  34.391547  39.987500 # O   
  3601      7   9.331775  23.539915  33.987500 # H   
  3602      7   7.750396  23.539915  33.987500 # H   
  3603      8   8.541085  22.927698  33.987500 # O   
  3604      7   0.400261   6.344142  41.987500 # H   
  3605      7  -1.181118   6.344142  41.987500 # H   
  3606      8  -0.390429   5.731924  41.987500 # O   
  3607      7   8.550918  35.003764  41.987500 # H   
  3608      7   6.969538  35.003764  41.987500 # H   
  3609      8   7.760228  34.391547  41.987500 # O   
  3610      7   2.206146  29.271840  33.987500 # H   
  3611      7   0.624767  29.271840  33.987500 # H   
  3612      8   1.415457  28.659622  33.987500 # O   
  3613      7  -4.529054  29.271840  33.987500 # H   
  3614      7  -6.110433  29.271840  33.987500 # H   
  3615      8  -5.319743  28.659622  33.987500 # O   
  3616      7  -7.506225  23.539915  37.987500 # H   
  3617      7  -9.087604  23.539915  37.987500 # H   
  3618      8  -8.296915  22.927698  37.987500 # O   
  3619      7  13.089804  17.807991  31.987500 # H   
  3620      7  11.508424  17.807991  31.987500 # H   
  3621      8  12.299114  17.195773  31.987500 # O   
  3622      7  20.996290   0.612217  31.987500 # H   
  3623      7  19.414910   0.612217  31.987500 # H   
  3624      8  20.205600   0.000000  31.987500 # O   
  3625      7  -4.529054  29.271840  39.987500 # H   
  3626      7  -6.110433  29.271840  39.987500 # H   
  3627      8  -5.319743  28.659622  39.987500 # O   
  3628      7  -1.478753   9.210104  41.987500 # H   
  3629      7  -3.060133   9.210104  41.987500 # H   
  3630      8  -2.269443   8.597887  41.987500 # O   
  3631      7  16.457404  17.807991  31.987500 # H   
  3632      7  14.876024  17.807991  31.987500 # H   
  3633      8  15.666714  17.195773  31.987500 # O   
  3634      7  -2.259611  20.673953  37.987500 # H   
  3635      7  -3.840990  20.673953  37.987500 # H   
  3636      8  -3.050300  20.061736  37.987500 # O   
  3637      7   3.694732  32.137802  31.987500 # H   
  3638      7   2.113353  32.137802  31.987500 # H   
  3639      8   2.904042  31.525585  31.987500 # O   
  3640      7   0.790690   0.612217  33.987500 # H   
  3641      7  -0.790690   0.612217  33.987500 # H   
  3642      8   0.000000   0.000000  33.987500 # O   
  3643      7  24.681189  20.673953  37.987500 # H   
  3644      7  23.099810  20.673953  37.987500 # H   
  3645      8  23.890500  20.061736  37.987500 # O   
  3646      7  21.313589  20.673953  33.987500 # H   
  3647      7  19.732210  20.673953  33.987500 # H   
  3648      8  20.522900  20.061736  33.987500 # O   
  3649      7  -4.846353   9.210104  33.987500 # H   
  3650      7  -6.427733   9.210104  33.987500 # H   
  3651      8  -5.637043   8.597887  33.987500 # O   
  3652      7   2.987004  17.807991  39.987500 # H   
  3653      7   1.405624  17.807991  39.987500 # H   
  3654      8   2.196314  17.195773  39.987500 # O   
  3655      7  17.945989  20.673953  31.987500 # H   
  3656      7  16.364610  20.673953  31.987500 # H   
  3657      8  17.155300  20.061736  31.987500 # O   
  3658      7  -7.115796  17.807991  29.987500 # H   
  3659      7  -8.697176  17.807991  29.987500 # H   
  3660      8  -7.906486  17.195773  29.987500 # O   
  3661      7  -7.506225  23.539915  41.987500 # H   
  3662      7  -9.087604  23.539915  41.987500 # H   
  3663      8  -8.296915  22.927698  41.987500 # O   
  3664      7  -6.017639  26.405877  31.987500 # H   
  3665      7  -7.599019  26.405877  31.987500 # H   
  3666      8  -6.808329  25.793660  31.987500 # O   
  3667      7  10.893490   0.612217  41.987500 # H   
  3668      7   9.312110   0.612217  41.987500 # H   
  3669      8  10.102800   0.000000  41.987500 # O   
  3670      7  24.363890   0.612217  29.987500 # H   
  3671      7  22.782510   0.612217  29.987500 # H   
  3672      8  23.573200   0.000000  29.987500 # O   
  3673      7  -1.088325   3.478180  31.987500 # H   
  3674      7  -2.669704   3.478180  31.987500 # H   
  3675      8  -1.879014   2.865962  31.987500 # O   
  3676      7  30.318232  12.076066  31.987500 # H   
  3677      7  28.736853  12.076066  31.987500 # H   
  3678      8  29.527543  11.463849  31.987500 # O   
  3679      7   4.085161  26.405877  31.987500 # H   
  3680      7   2.503781  26.405877  31.987500 # H   
  3681      8   3.294471  25.793660  31.987500 # O   
  3682      7 -16.120439  26.405877  41.987500 # H   
  3683      7 -17.701819  26.405877  41.987500 # H   
  3684      8 -16.911129  25.793660  41.987500 # O   
  3685      7   5.964175  23.539915  39.987500 # H   
  3686      7   4.382796  23.539915  39.987500 # H   
  3687      8   5.173485  22.927698  39.987500 # O   
  3688      7  27.341061   6.344142  31.987500 # H   
  3689      7  25.759682   6.344142  31.987500 # H   
  3690      8  26.550371   5.731924  31.987500 # O   
  3691      7  -7.115796  17.807991  35.987500 # H   
  3692      7  -8.697176  17.807991  35.987500 # H   
  3693      8  -7.906486  17.195773  35.987500 # O   
  3694      7  10.112632  12.076066  29.987500 # H   
  3695      7   8.531253  12.076066  29.987500 # H   
  3696      8   9.321943  11.463849  29.987500 # O   
  3697      7  10.503061   6.344142  41.987500 # H   
  3698      7   8.921682   6.344142  41.987500 # H   
  3699      8   9.712371   5.731924  41.987500 # O   
  3700      7  -4.846353   9.210104  39.987500 # H   
  3701      7  -6.427733   9.210104  39.987500 # H   
  3702      8  -5.637043   8.597887  39.987500 # O   
  3703      7  10.893490   0.612217  33.987500 # H   
  3704      7   9.312110   0.612217  33.987500 # H   
  3705      8  10.102800   0.000000  33.987500 # O   
  3706      7  30.318232  12.076066  39.987500 # H   
  3707      7  28.736853  12.076066  39.987500 # H   
  3708      8  29.527543  11.463849  39.987500 # O   
  3709      7  -0.380596  17.807991  29.987500 # H   
  3710      7  -1.961976  17.807991  29.987500 # H   
  3711      8  -1.171286  17.195773  29.987500 # O   
  3712      7 -12.362411  20.673953  37.987500 # H   
  3713      7 -13.943790  20.673953  37.987500 # H   
  3714      8 -13.153100  20.061736  37.987500 # O   
  3715      7  -2.650039  26.405877  33.987500 # H   
  3716      7  -4.231419  26.405877  33.987500 # H   
  3717      8  -3.440729  25.793660  33.987500 # O   
  3718      7  -4.529054  29.271840  35.987500 # H   
  3719      7  -6.110433  29.271840  35.987500 # H   
  3720      8  -5.319743  28.659622  35.987500 # O   
  3721      7   0.717561  26.405877  35.987500 # H   
  3722      7  -0.863819  26.405877  35.987500 # H   
  3723      8  -0.073129  25.793660  35.987500 # O   
  3724      7  -9.385239  26.405877  39.987500 # H   
  3725      7 -10.966619  26.405877  39.987500 # H   
  3726      8 -10.175929  25.793660  39.987500 # O   
  3727      7  10.112632  12.076066  31.987500 # H   
  3728      7   8.531253  12.076066  31.987500 # H   
  3729      8   9.321943  11.463849  31.987500 # O   
  3730      7  22.094447   9.210104  41.987500 # H   
  3731      7  20.513067   9.210104  41.987500 # H   
  3732      8  21.303757   8.597887  41.987500 # O   
  3733      7 -13.143268  32.137802  35.987500 # H   
  3734      7 -14.724647  32.137802  35.987500 # H   
  3735      8 -13.933958  31.525585  35.987500 # O   
  3736      7   0.327132  32.137802  39.987500 # H   
  3737      7  -1.254247  32.137802  39.987500 # H   
  3738      8  -0.463558  31.525585  39.987500 # O   
  3739      7  -8.604382  14.942028  29.987500 # H   
  3740      7 -10.185761  14.942028  29.987500 # H   
  3741      8  -9.395072  14.329811  29.987500 # O   
  3742      7 -18.389882  35.003764  33.987500 # H   
  3743      7 -19.971262  35.003764  33.987500 # H   
  3744      8 -19.180572  34.391547  33.987500 # O   
  3745      7  -8.604382  14.942028  41.987500 # H   
  3746      7 -10.185761  14.942028  41.987500 # H   
  3747      8  -9.395072  14.329811  41.987500 # O   
  3748      7  -7.115796  17.807991  33.987500 # H   
  3749      7  -8.697176  17.807991  33.987500 # H   
  3750      8  -7.906486  17.195773  33.987500 # O   
  3751      7   2.206146  29.271840  35.987500 # H   
  3752      7   0.624767  29.271840  35.987500 # H   
  3753      8   1.415457  28.659622  35.987500 # O   
  3754      7   8.233618  14.942028  39.987500 # H   
  3755      7   6.652239  14.942028  39.987500 # H   
  3756      8   7.442928  14.329811  39.987500 # O   
  3757      7  -2.967339   6.344142  31.987500 # H   
  3758      7  -4.548718   6.344142  31.987500 # H   
  3759      8  -3.758029   5.731924  31.987500 # O   
  3760      7  14.968818  14.942028  39.987500 # H   
  3761      7  13.387439  14.942028  39.987500 # H   
  3762      8  14.178128  14.329811  39.987500 # O   
  3763      7  37.834290   0.612217  39.987500 # H   
  3764      7  36.252910   0.612217  39.987500 # H   
  3765      8  37.043600   0.000000  39.987500 # O   
  3766      7  11.991647   9.210104  29.987500 # H   
  3767      7  10.410267   9.210104  29.987500 # H   
  3768      8  11.200957   8.597887  29.987500 # O   
  3769      7  14.578389  20.673953  39.987500 # H   
  3770      7  12.997010  20.673953  39.987500 # H   
  3771      8  13.787700  20.061736  39.987500 # O   
  3772      7  -7.506225  23.539915  39.987500 # H   
  3773      7  -9.087604  23.539915  39.987500 # H   
  3774      8  -8.296915  22.927698  39.987500 # O   
  3775      7   3.377432  12.076066  39.987500 # H   
  3776      7   1.796053  12.076066  39.987500 # H   
  3777      8   2.586743  11.463849  39.987500 # O   
  3778      7  12.699375  23.539915  31.987500 # H   
  3779      7  11.117996  23.539915  31.987500 # H   
  3780      8  11.908685  22.927698  31.987500 # O   
  3781      7   0.009832  12.076066  37.987500 # H   
  3782      7  -1.571547  12.076066  37.987500 # H   
  3783      8  -0.780857  11.463849  37.987500 # O   
  3784      7  -4.529054  29.271840  29.987500 # H   
  3785      7  -6.110433  29.271840  29.987500 # H   
  3786      8  -5.319743  28.659622  29.987500 # O   
  3787      7  27.341061   6.344142  33.987500 # H   
  3788      7  25.759682   6.344142  33.987500 # H   
  3789      8  26.550371   5.731924  33.987500 # O   
  3790      7 -14.631854  29.271840  41.987500 # H   
  3791      7 -16.213233  29.271840  41.987500 # H   
  3792      8 -15.422543  28.659622  41.987500 # O   
  3793      7   4.866018  14.942028  37.987500 # H   
  3794      7   3.284639  14.942028  37.987500 # H   
  3795      8   4.075328  14.329811  37.987500 # O   
  3796      7  -4.919482  35.003764  31.987500 # H   
  3797      7  -6.500862  35.003764  31.987500 # H   
  3798      8  -5.710172  34.391547  31.987500 # O   
  3799      7   0.009832  12.076066  29.987500 # H   
  3800      7  -1.571547  12.076066  29.987500 # H   
  3801      8  -0.780857  11.463849  29.987500 # O   
  3802      7   3.377432  12.076066  37.987500 # H   
  3803      7   1.796053  12.076066  37.987500 # H   
  3804      8   2.586743  11.463849  37.987500 # O   
  3805      7  -4.919482  35.003764  29.987500 # H   
  3806      7  -6.500862  35.003764  29.987500 # H   
  3807      8  -5.710172  34.391547  29.987500 # O   
  3808      7 -18.389882  35.003764  31.987500 # H   
  3809      7 -19.971262  35.003764  31.987500 # H   
  3810      8 -19.180572  34.391547  31.987500 # O   
  3811      7  -1.478753   9.210104  33.987500 # H   
  3812      7  -3.060133   9.210104  33.987500 # H   
  3813      8  -2.269443   8.597887  33.987500 # O   
  3814      7   8.624047   9.210104  37.987500 # H   
  3815      7   7.042667   9.210104  37.987500 # H   
  3816      8   7.833357   8.597887  37.987500 # O   
  3817      7   1.498418  14.942028  33.987500 # H   
  3818      7  -0.082961  14.942028  33.987500 # H   
  3819      8   0.707728  14.329811  33.987500 # O   
  3820      7 -16.120439  26.405877  33.987500 # H   
  3821      7 -17.701819  26.405877  33.987500 # H   
  3822      8 -16.911129  25.793660  33.987500 # O   
  3823      7  -9.385239  26.405877  29.987500 # H   
  3824      7 -10.966619  26.405877  29.987500 # H   
  3825      8 -10.175929  25.793660  29.987500 # O   
  3826      7 -12.752839  26.405877  39.987500 # H   
  3827      7 -14.334219  26.405877  39.987500 # H   
  3828      8 -13.543529  25.793660  39.987500 # O   
  3829      7  32.197247   9.210104  29.987500 # H   
  3830      7  30.615867   9.210104  29.987500 # H   
  3831      8  31.406557   8.597887  29.987500 # O   
  3832      7  17.628690   0.612217  29.987500 # H   
  3833      7  16.047310   0.612217  29.987500 # H   
  3834      8  16.838000   0.000000  29.987500 # O   
  3835      7  30.318232  12.076066  35.987500 # H   
  3836      7  28.736853  12.076066  35.987500 # H   
  3837      8  29.527543  11.463849  35.987500 # O   
  3838      7   5.646875   3.478180  33.987500 # H   
  3839      7   4.065496   3.478180  33.987500 # H   
  3840      8   4.856186   2.865962  33.987500 # O   
  3841      7 -11.264254  29.271840  41.987500 # H   
  3842      7 -12.845633  29.271840  41.987500 # H   
  3843      8 -12.054943  28.659622  41.987500 # O   
  3844      7  -1.869182  14.942028  37.987500 # H   
  3845      7  -3.450561  14.942028  37.987500 # H   
  3846      8  -2.659872  14.329811  37.987500 # O   
  3847      7   9.014475   3.478180  39.987500 # H   
  3848      7   7.433096   3.478180  39.987500 # H   
  3849      8   8.223786   2.865962  39.987500 # O   
  3850      7   5.646875   3.478180  37.987500 # H   
  3851      7   4.065496   3.478180  37.987500 # H   
  3852      8   4.856186   2.865962  37.987500 # O   
  3853      7  12.308946  29.271840  31.987500 # H   
  3854      7  10.727567  29.271840  31.987500 # H   
  3855      8  11.518257  28.659622  31.987500 # O   
  3856      7  11.210789  20.673953  33.987500 # H   
  3857      7   9.629410  20.673953  33.987500 # H   
  3858      8  10.420100  20.061736  33.987500 # O   
  3859      7   2.279275   3.478180  41.987500 # H   
  3860      7   0.697896   3.478180  41.987500 # H   
  3861      8   1.488586   2.865962  41.987500 # O   
  3862      7  24.363890   0.612217  37.987500 # H   
  3863      7  22.782510   0.612217  37.987500 # H   
  3864      8  23.573200   0.000000  37.987500 # O   
  3865      7   7.843189  20.673953  31.987500 # H   
  3866      7   6.261810  20.673953  31.987500 # H   
  3867      8   7.052500  20.061736  31.987500 # O   
  3868      7 -19.878468  32.137802  37.987500 # H   
  3869      7 -21.459847  32.137802  37.987500 # H   
  3870      8 -20.669158  31.525585  37.987500 # O   
  3871      7  10.429932  32.137802  33.987500 # H   
  3872      7   8.848553  32.137802  33.987500 # H   
  3873      8   9.639242  31.525585  33.987500 # O   
  3874      7  24.681189  20.673953  41.987500 # H   
  3875      7  23.099810  20.673953  41.987500 # H   
  3876      8  23.890500  20.061736  41.987500 # O   
  3877      7  32.197247   9.210104  41.987500 # H   
  3878      7  30.615867   9.210104  41.987500 # H   
  3879      8  31.406557   8.597887  41.987500 # O   
  3880      7  29.220075   3.478180  37.987500 # H   
  3881      7  27.638696   3.478180  37.987500 # H   
  3882      8  28.429386   2.865962  37.987500 # O   
  3883      7  24.681189  20.673953  39.987500 # H   
  3884      7  23.099810  20.673953  39.987500 # H   
  3885      8  23.890500  20.061736  39.987500 # O   
  3886      7 -21.757482  35.003764  29.987500 # H   
  3887      7 -23.338862  35.003764  29.987500 # H   
  3888      8 -22.548172  34.391547  29.987500 # O   
  3889      7  10.820361  26.405877  41.987500 # H   
  3890      7   9.238981  26.405877  41.987500 # H   
  3891      8  10.029671  25.793660  41.987500 # O   
  3892      7   6.745032  12.076066  41.987500 # H   
  3893      7   5.163653  12.076066  41.987500 # H   
  3894      8   5.954343  11.463849  41.987500 # O   
  3895      7  -3.040468  32.137802  41.987500 # H   
  3896      7  -4.621847  32.137802  41.987500 # H   
  3897      8  -3.831158  31.525585  41.987500 # O   
  3898      7   2.206146  29.271840  37.987500 # H   
  3899      7   0.624767  29.271840  37.987500 # H   
  3900      8   1.415457  28.659622  37.987500 # O   
  3901      7   6.354604  17.807991  37.987500 # H   
  3902      7   4.773224  17.807991  37.987500 # H   
  3903      8   5.563914  17.195773  37.987500 # O   
  3904      7   1.107989  20.673953  31.987500 # H   
  3905      7  -0.473390  20.673953  31.987500 # H   
  3906      8   0.317300  20.061736  31.987500 # O   
  3907      7  17.628690   0.612217  33.987500 # H   
  3908      7  16.047310   0.612217  33.987500 # H   
  3909      8  16.838000   0.000000  33.987500 # O   
  3910      7 -10.483396  17.807991  37.987500 # H   
  3911      7 -12.064776  17.807991  37.987500 # H   
  3912      8 -11.274086  17.195773  37.987500 # O   
  3913      7  -3.748196  17.807991  29.987500 # H   
  3914      7  -5.329576  17.807991  29.987500 # H   
  3915      8  -4.538886  17.195773  29.987500 # O   
  3916      7  17.165132  32.137802  31.987500 # H   
  3917      7  15.583753  32.137802  31.987500 # H   
  3918      8  16.374442  31.525585  31.987500 # O   
  3919      7   8.624047   9.210104  29.987500 # H   
  3920      7   7.042667   9.210104  29.987500 # H   
  3921      8   7.833357   8.597887  29.987500 # O   
  3922      7  17.628690   0.612217  41.987500 # H   
  3923      7  16.047310   0.612217  41.987500 # H   
  3924      8  16.838000   0.000000  41.987500 # O   
  3925      7 -12.362411  20.673953  35.987500 # H   
  3926      7 -13.943790  20.673953  35.987500 # H   
  3927      8 -13.153100  20.061736  35.987500 # O   
  3928      7  13.480232  12.076066  41.987500 # H   
  3929      7  11.898853  12.076066  41.987500 # H   
  3930      8  12.689543  11.463849  41.987500 # O   
  3931      7  21.313589  20.673953  39.987500 # H   
  3932      7  19.732210  20.673953  39.987500 # H   
  3933      8  20.522900  20.061736  39.987500 # O   
  3934      7   4.475589  20.673953  39.987500 # H   
  3935      7   2.894210  20.673953  39.987500 # H   
  3936      8   3.684900  20.061736  39.987500 # O   
  3937      7   7.452761  26.405877  35.987500 # H   
  3938      7   5.871381  26.405877  35.987500 # H   
  3939      8   6.662071  25.793660  35.987500 # O   
  3940      7  30.708661   6.344142  37.987500 # H   
  3941      7  29.127282   6.344142  37.987500 # H   
  3942      8  29.917971   5.731924  37.987500 # O   
  3943      7   3.694732  32.137802  33.987500 # H   
  3944      7   2.113353  32.137802  33.987500 # H   
  3945      8   2.904042  31.525585  33.987500 # O   
  3946      7  -4.138625  23.539915  39.987500 # H   
  3947      7  -5.720004  23.539915  39.987500 # H   
  3948      8  -4.929315  22.927698  39.987500 # O   
  3949      7  -5.236782  14.942028  29.987500 # H   
  3950      7  -6.818161  14.942028  29.987500 # H   
  3951      8  -6.027472  14.329811  29.987500 # O   
  3952      7 -13.143268  32.137802  29.987500 # H   
  3953      7 -14.724647  32.137802  29.987500 # H   
  3954      8 -13.933958  31.525585  29.987500 # O   
  3955      7   8.941346  29.271840  35.987500 # H   
  3956      7   7.359967  29.271840  35.987500 # H   
  3957      8   8.150657  28.659622  35.987500 # O   
  3958      7  -3.357768  12.076066  29.987500 # H   
  3959      7  -4.939147  12.076066  29.987500 # H   
  3960      8  -4.148457  11.463849  29.987500 # O   
  3961      7  20.605861   6.344142  35.987500 # H   
  3962      7  19.024482   6.344142  35.987500 # H   
  3963      8  19.815171   5.731924  35.987500 # O   
  3964      7  10.112632  12.076066  39.987500 # H   
  3965      7   8.531253  12.076066  39.987500 # H   
  3966      8   9.321943  11.463849  39.987500 # O   
  3967      7   6.354604  17.807991  33.987500 # H   
  3968      7   4.773224  17.807991  33.987500 # H   
  3969      8   5.563914  17.195773  33.987500 # O   
  3970      7  29.220075   3.478180  35.987500 # H   
  3971      7  27.638696   3.478180  35.987500 # H   
  3972      8  28.429386   2.865962  35.987500 # O   
  3973      7   4.158290   0.612217  31.987500 # H   
  3974      7   2.576910   0.612217  31.987500 # H   
  3975      8   3.367600   0.000000  31.987500 # O   
  3976      7  18.336418  14.942028  39.987500 # H   
  3977      7  16.755039  14.942028  39.987500 # H   
  3978      8  17.545728  14.329811  39.987500 # O   
  3979      7   0.790690   0.612217  41.987500 # H   
  3980      7  -0.790690   0.612217  41.987500 # H   
  3981      8   0.000000   0.000000  41.987500 # O   
  3982      7  21.704018  14.942028  33.987500 # H   
  3983      7  20.122639  14.942028  33.987500 # H   
  3984      8  20.913328  14.329811  33.987500 # O   
  3985      7  -1.088325   3.478180  37.987500 # H   
  3986      7  -2.669704   3.478180  37.987500 # H   
  3987      8  -1.879014   2.865962  37.987500 # O   
  3988      7 -12.362411  20.673953  29.987500 # H   
  3989      7 -13.943790  20.673953  29.987500 # H   
  3990      8 -13.153100  20.061736  29.987500 # O   
  3991      7   7.135461   6.344142  37.987500 # H   
  3992      7   5.554082   6.344142  37.987500 # H   
  3993      8   6.344771   5.731924  37.987500 # O   
  3994      7   1.888847   9.210104  39.987500 # H   
  3995      7   0.307467   9.210104  39.987500 # H   
  3996      8   1.098157   8.597887  39.987500 # O   
  3997      7  -1.551882  35.003764  29.987500 # H   
  3998      7  -3.133262  35.003764  29.987500 # H   
  3999      8  -2.342572  34.391547  29.987500 # O   
  4000      7  17.555561  26.405877  35.987500 # H   
  4001      7  15.974181  26.405877  35.987500 # H   
  4002      8  16.764871  25.793660  35.987500 # O   
  4003      7  17.165132  32.137802  33.987500 # H   
  4004      7  15.583753  32.137802  33.987500 # H   
  4005      8  16.374442  31.525585  33.987500 # O   
  4006      7  -8.994811  20.673953  31.987500 # H   
  4007      7 -10.576190  20.673953  31.987500 # H   
  4008      8  -9.785500  20.061736  31.987500 # O   
  4009      7  20.215432  12.076066  41.987500 # H   
  4010      7  18.634053  12.076066  41.987500 # H   
  4011      8  19.424743  11.463849  41.987500 # O   
  4012      7  18.726847   9.210104  33.987500 # H   
  4013      7  17.145467   9.210104  33.987500 # H   
  4014      8  17.936157   8.597887  33.987500 # O   
  4015      7   7.062332  32.137802  35.987500 # H   
  4016      7   5.480953  32.137802  35.987500 # H   
  4017      8   6.271642  31.525585  35.987500 # O   
  4018      7  13.480232  12.076066  35.987500 # H   
  4019      7  11.898853  12.076066  35.987500 # H   
  4020      8  12.689543  11.463849  35.987500 # O   
  4021      7  12.382075   3.478180  37.987500 # H   
  4022      7  10.800696   3.478180  37.987500 # H   
  4023      8  11.591386   2.865962  37.987500 # O   
  4024      7  16.066975  23.539915  33.987500 # H   
  4025      7  14.485596  23.539915  33.987500 # H   
  4026      8  15.276285  22.927698  33.987500 # O   
  4027      7  -7.506225  23.539915  33.987500 # H   
  4028      7  -9.087604  23.539915  33.987500 # H   
  4029      8  -8.296915  22.927698  33.987500 # O   
  4030      7   5.183318  35.003764  33.987500 # H   
  4031      7   3.601938  35.003764  33.987500 # H   
  4032      8   4.392628  34.391547  33.987500 # O   
  4033      7   0.717561  26.405877  33.987500 # H   
  4034      7  -0.863819  26.405877  33.987500 # H   
  4035      8  -0.073129  25.793660  33.987500 # O   
  4036      7 -10.873825  23.539915  41.987500 # H   
  4037      7 -12.455204  23.539915  41.987500 # H   
  4038      8 -11.664515  22.927698  41.987500 # O   
  4039      7  26.560204  17.807991  41.987500 # H   
  4040      7  24.978824  17.807991  41.987500 # H   
  4041      8  25.769514  17.195773  41.987500 # O   
  4042      7  34.466690   0.612217  33.987500 # H   
  4043      7  32.885310   0.612217  33.987500 # H   
  4044      8  33.676000   0.000000  33.987500 # O   
  4045      7  28.439218  14.942028  41.987500 # H   
  4046      7  26.857839  14.942028  41.987500 # H   
  4047      8  27.648528  14.329811  41.987500 # O   
  4048      7  25.462047   9.210104  29.987500 # H   
  4049      7  23.880667   9.210104  29.987500 # H   
  4050      8  24.671357   8.597887  29.987500 # O   
  4051      7  21.313589  20.673953  29.987500 # H   
  4052      7  19.732210  20.673953  29.987500 # H   
  4053      8  20.522900  20.061736  29.987500 # O   
  4054      7  12.308946  29.271840  35.987500 # H   
  4055      7  10.727567  29.271840  35.987500 # H   
  4056      8  11.518257  28.659622  35.987500 # O   
  4057      7   0.400261   6.344142  39.987500 # H   
  4058      7  -1.181118   6.344142  39.987500 # H   
  4059      8  -0.390429   5.731924  39.987500 # O   
  4060      7  20.215432  12.076066  31.987500 # H   
  4061      7  18.634053  12.076066  31.987500 # H   
  4062      8  19.424743  11.463849  31.987500 # O   
  4063      7  23.583032  12.076066  41.987500 # H   
  4064      7  22.001653  12.076066  41.987500 # H   
  4065      8  22.792343  11.463849  41.987500 # O   
  4066      7  13.480232  12.076066  39.987500 # H   
  4067      7  11.898853  12.076066  39.987500 # H   
  4068      8  12.689543  11.463849  39.987500 # O   
  4069      7  12.382075   3.478180  41.987500 # H   
  4070      7  10.800696   3.478180  41.987500 # H   
  4071      8  11.591386   2.865962  41.987500 # O   
  4072      7  13.797532  32.137802  33.987500 # H   
  4073      7  12.216153  32.137802  33.987500 # H   
  4074      8  13.006842  31.525585  33.987500 # O   
  4075      7   5.256447   9.210104  33.987500 # H   
  4076      7   3.675067   9.210104  33.987500 # H   
  4077      8   4.465757   8.597887  33.987500 # O   
  4078      7  -5.236782  14.942028  33.987500 # H   
  4079      7  -6.818161  14.942028  33.987500 # H   
  4080      8  -6.027472  14.329811  33.987500 # O   
  4081      7  26.560204  17.807991  29.987500 # H   
  4082      7  24.978824  17.807991  29.987500 # H   
  4083      8  25.769514  17.195773  29.987500 # O   
  4084      7  -3.748196  17.807991  41.987500 # H   
  4085      7  -5.329576  17.807991  41.987500 # H   
  4086      8  -4.538886  17.195773  41.987500 # O   
  4087      7 -16.510868  32.137802  31.987500 # H   
  4088      7 -18.092247  32.137802  31.987500 # H   
  4089      8 -17.301558  31.525585  31.987500 # O   
  4090      7  -2.650039  26.405877  35.987500 # H   
  4091      7  -4.231419  26.405877  35.987500 # H   
  4092      8  -3.440729  25.793660  35.987500 # O   
  4093      7   5.256447   9.210104  39.987500 # H   
  4094      7   3.675067   9.210104  39.987500 # H   
  4095      8   4.465757   8.597887  39.987500 # O   
  4096      7  32.587675   3.478180  39.987500 # H   
  4097      7  31.006296   3.478180  39.987500 # H   
  4098      8  31.796986   2.865962  39.987500 # O   
  4099      7 -15.022282  35.003764  31.987500 # H   
  4100      7 -16.603662  35.003764  31.987500 # H   
  4101      8 -15.812972  34.391547  31.987500 # O   
  4102      7 -14.631854  29.271840  35.987500 # H   
  4103      7 -16.213233  29.271840  35.987500 # H   
  4104      8 -15.422543  28.659622  35.987500 # O   
  4105      7   3.377432  12.076066  33.987500 # H   
  4106      7   1.796053  12.076066  33.987500 # H   
  4107      8   2.586743  11.463849  33.987500 # O   
  4108      7  -0.771025  23.539915  33.987500 # H   
  4109      7  -2.352404  23.539915  33.987500 # H   
  4110      8  -1.561715  22.927698  33.987500 # O   
  4111      7  13.870661   6.344142  39.987500 # H   
  4112      7  12.289282   6.344142  39.987500 # H   
  4113      8  13.079971   5.731924  39.987500 # O   
  4114      7 -14.241425  23.539915  35.987500 # H   
  4115      7 -15.822804  23.539915  35.987500 # H   
  4116      8 -15.032115  22.927698  35.987500 # O   
  4117      7  13.797532  32.137802  31.987500 # H   
  4118      7  12.216153  32.137802  31.987500 # H   
  4119      8  13.006842  31.525585  31.987500 # O   
  4120      7  16.066975  23.539915  41.987500 # H   
  4121      7  14.485596  23.539915  41.987500 # H   
  4122      8  15.276285  22.927698  41.987500 # O   
  4123      7   0.790690   0.612217  29.987500 # H   
  4124      7  -0.790690   0.612217  29.987500 # H   
  4125      8   0.000000   0.000000  29.987500 # O   
  4126      7  12.308946  29.271840  37.987500 # H   
  4127      7  10.727567  29.271840  37.987500 # H   
  4128      8  11.518257  28.659622  37.987500 # O   
  4129      7   9.722204  17.807991  35.987500 # H   
  4130      7   8.140824  17.807991  35.987500 # H   
  4131      8   8.931514  17.195773  35.987500 # O   
  4132      7  23.973461   6.344142  41.987500 # H   
  4133      7  22.392082   6.344142  41.987500 # H   
  4134      8  23.182771   5.731924  41.987500 # O   
  4135      7   7.062332  32.137802  31.987500 # H   
  4136      7   5.480953  32.137802  31.987500 # H   
  4137      8   6.271642  31.525585  31.987500 # O   
  4138      7  37.834290   0.612217  41.987500 # H   
  4139      7  36.252910   0.612217  41.987500 # H   
  4140      8  37.043600   0.000000  41.987500 # O   
  4141      7   9.331775  23.539915  39.987500 # H   
  4142      7   7.750396  23.539915  39.987500 # H   
  4143      8   8.541085  22.927698  39.987500 # O   
  4144      7 -15.022282  35.003764  41.987500 # H   
  4145      7 -16.603662  35.003764  41.987500 # H   
  4146      8 -15.812972  34.391547  41.987500 # O   
  4147      7  15.359247   9.210104  31.987500 # H   
  4148      7  13.777867   9.210104  31.987500 # H   
  4149      8  14.568557   8.597887  31.987500 # O   
  4150      7  21.704018  14.942028  37.987500 # H   
  4151      7  20.122639  14.942028  37.987500 # H   
  4152      8  20.913328  14.329811  37.987500 # O   
  4153      7   2.279275   3.478180  39.987500 # H   
  4154      7   0.697896   3.478180  39.987500 # H   
  4155      8   1.488586   2.865962  39.987500 # O   
  4156      7  11.210789  20.673953  29.987500 # H   
  4157      7   9.629410  20.673953  29.987500 # H   
  4158      8  10.420100  20.061736  29.987500 # O   
  4159      7 -19.878468  32.137802  35.987500 # H   
  4160      7 -21.459847  32.137802  35.987500 # H   
  4161      8 -20.669158  31.525585  35.987500 # O   
  4162      7  -4.529054  29.271840  41.987500 # H   
  4163      7  -6.110433  29.271840  41.987500 # H   
  4164      8  -5.319743  28.659622  41.987500 # O   
  4165      7  28.829647   9.210104  35.987500 # H   
  4166      7  27.248267   9.210104  35.987500 # H   
  4167      8  28.038957   8.597887  35.987500 # O   
  4168      7  20.605861   6.344142  31.987500 # H   
  4169      7  19.024482   6.344142  31.987500 # H   
  4170      8  19.815171   5.731924  31.987500 # O   
  4171      7   4.158290   0.612217  39.987500 # H   
  4172      7   2.576910   0.612217  39.987500 # H   
  4173      8   3.367600   0.000000  39.987500 # O   
  4174      7   4.475589  20.673953  35.987500 # H   
  4175      7   2.894210  20.673953  35.987500 # H   
  4176      8   3.684900  20.061736  35.987500 # O   
  4177      7  -3.748196  17.807991  31.987500 # H   
  4178      7  -5.329576  17.807991  31.987500 # H   
  4179      8  -4.538886  17.195773  31.987500 # O   
  4180      7 -14.631854  29.271840  29.987500 # H   
  4181      7 -16.213233  29.271840  29.987500 # H   
  4182      8 -15.422543  28.659622  29.987500 # O   
  4183      7   0.790690   0.612217  39.987500 # H   
  4184      7  -0.790690   0.612217  39.987500 # H   
  4185      8   0.000000   0.000000  39.987500 # O   
  4186      7   8.624047   9.210104  39.987500 # H   
  4187      7   7.042667   9.210104  39.987500 # H   
  4188      8   7.833357   8.597887  39.987500 # O   
  4189      7   0.009832  12.076066  39.987500 # H   
  4190      7  -1.571547  12.076066  39.987500 # H   
  4191      8  -0.780857  11.463849  39.987500 # O   
  4192      7  -5.627211  20.673953  39.987500 # H   
  4193      7  -7.208590  20.673953  39.987500 # H   
  4194      8  -6.417900  20.061736  39.987500 # O   
  4195      7  19.044146  29.271840  29.987500 # H   
  4196      7  17.462767  29.271840  29.987500 # H   
  4197      8  18.253457  28.659622  29.987500 # O   
  4198      7  25.462047   9.210104  33.987500 # H   
  4199      7  23.880667   9.210104  33.987500 # H   
  4200      8  24.671357   8.597887  33.987500 # O   
  4201      7  -9.385239  26.405877  31.987500 # H   
  4202      7 -10.966619  26.405877  31.987500 # H   
  4203      8 -10.175929  25.793660  31.987500 # O   
  4204      7   9.722204  17.807991  37.987500 # H   
  4205      7   8.140824  17.807991  37.987500 # H   
  4206      8   8.931514  17.195773  37.987500 # O   
  4207      7  30.318232  12.076066  37.987500 # H   
  4208      7  28.736853  12.076066  37.987500 # H   
  4209      8  29.527543  11.463849  37.987500 # O   
  4210      7  -1.161454  29.271840  35.987500 # H   
  4211      7  -2.742833  29.271840  35.987500 # H   
  4212      8  -1.952143  28.659622  35.987500 # O   
  4213      7   0.717561  26.405877  29.987500 # H   
  4214      7  -0.863819  26.405877  29.987500 # H   
  4215      8  -0.073129  25.793660  29.987500 # O   
  4216      7   0.717561  26.405877  31.987500 # H   
  4217      7  -0.863819  26.405877  31.987500 # H   
  4218      8  -0.073129  25.793660  31.987500 # O   
  4219      7   4.085161  26.405877  29.987500 # H   
  4220      7   2.503781  26.405877  29.987500 # H   
  4221      8   3.294471  25.793660  29.987500 # O   
  4222      7   1.815718  35.003764  33.987500 # H   
  4223      7   0.234338  35.003764  33.987500 # H   
  4224      8   1.025028  34.391547  33.987500 # O   
  4225      7   3.377432  12.076066  29.987500 # H   
  4226      7   1.796053  12.076066  29.987500 # H   
  4227      8   2.586743  11.463849  29.987500 # O   
  4228      7   6.745032  12.076066  33.987500 # H   
  4229      7   5.163653  12.076066  33.987500 # H   
  4230      8   5.954343  11.463849  33.987500 # O   
  4231      7   4.866018  14.942028  39.987500 # H   
  4232      7   3.284639  14.942028  39.987500 # H   
  4233      8   4.075328  14.329811  39.987500 # O   
  4234      7 -10.483396  17.807991  35.987500 # H   
  4235      7 -12.064776  17.807991  35.987500 # H   
  4236      8 -11.274086  17.195773  35.987500 # O   
  4237      7  12.308946  29.271840  41.987500 # H   
  4238      7  10.727567  29.271840  41.987500 # H   
  4239      8  11.518257  28.659622  41.987500 # O   
  4240      7  26.560204  17.807991  37.987500 # H   
  4241      7  24.978824  17.807991  37.987500 # H   
  4242      8  25.769514  17.195773  37.987500 # O   
  4243      7  14.968818  14.942028  41.987500 # H   
  4244      7  13.387439  14.942028  41.987500 # H   
  4245      8  14.178128  14.329811  41.987500 # O   
  4246      7  -0.771025  23.539915  35.987500 # H   
  4247      7  -2.352404  23.539915  35.987500 # H   
  4248      8  -1.561715  22.927698  35.987500 # O   
  4249      7  -3.040468  32.137802  39.987500 # H   
  4250      7  -4.621847  32.137802  39.987500 # H   
  4251      8  -3.831158  31.525585  39.987500 # O   
  4252      7  -9.775668  32.137802  29.987500 # H   
  4253      7 -11.357047  32.137802  29.987500 # H   
  4254      8 -10.566358  31.525585  29.987500 # O   
  4255      7   5.646875   3.478180  29.987500 # H   
  4256      7   4.065496   3.478180  29.987500 # H   
  4257      8   4.856186   2.865962  29.987500 # O   
  4258      7  -5.236782  14.942028  39.987500 # H   
  4259      7  -6.818161  14.942028  39.987500 # H   
  4260      8  -6.027472  14.329811  39.987500 # O   
  4261      7  12.382075   3.478180  29.987500 # H   
  4262      7  10.800696   3.478180  29.987500 # H   
  4263      8  11.591386   2.865962  29.987500 # O   
  4264      7  15.749675   3.478180  31.987500 # H   
  4265      7  14.168296   3.478180  31.987500 # H   
  4266      8  14.958986   2.865962  31.987500 # O   
  4267      7  35.955275   3.478180  33.987500 # H   
  4268      7  34.373896   3.478180  33.987500 # H   
  4269      8  35.164586   2.865962  33.987500 # O   
  4270      7   4.158290   0.612217  29.987500 # H   
  4271      7   2.576910   0.612217  29.987500 # H   
  4272      8   3.367600   0.000000  29.987500 # O   
  4273      7  13.870661   6.344142  33.987500 # H   
  4274      7  12.289282   6.344142  33.987500 # H   
  4275      8  13.079971   5.731924  33.987500 # O   
  4276      7   4.158290   0.612217  37.987500 # H   
  4277      7   2.576910   0.612217  37.987500 # H   
  4278      8   3.367600   0.000000  37.987500 # O   
  4279      7  -2.650039  26.405877  41.987500 # H   
  4280      7  -4.231419  26.405877  41.987500 # H   
  4281      8  -3.440729  25.793660  41.987500 # O   
  4282      7  19.825004  17.807991  39.987500 # H   
  4283      7  18.243624  17.807991  39.987500 # H   
  4284      8  19.034314  17.195773  39.987500 # O   
  4285      7  -1.478753   9.210104  29.987500 # H   
  4286      7  -3.060133   9.210104  29.987500 # H   
  4287      8  -2.269443   8.597887  29.987500 # O   
  4288      7  10.112632  12.076066  41.987500 # H   
  4289      7   8.531253  12.076066  41.987500 # H   
  4290      8   9.321943  11.463849  41.987500 # O   
  4291      7   1.815718  35.003764  29.987500 # H   
  4292      7   0.234338  35.003764  29.987500 # H   
  4293      8   1.025028  34.391547  29.987500 # O   
  4294      7   1.107989  20.673953  37.987500 # H   
  4295      7  -0.473390  20.673953  37.987500 # H   
  4296      8   0.317300  20.061736  37.987500 # O   
  4297      7 -10.873825  23.539915  37.987500 # H   
  4298      7 -12.455204  23.539915  37.987500 # H   
  4299      8 -11.664515  22.927698  37.987500 # O   
  4300      7  30.708661   6.344142  33.987500 # H   
  4301      7  29.127282   6.344142  33.987500 # H   
  4302      8  29.917971   5.731924  33.987500 # O   
  4303      7  26.560204  17.807991  31.987500 # H   
  4304      7  24.978824  17.807991  31.987500 # H   
  4305      8  25.769514  17.195773  31.987500 # O   
  4306      7  14.261090   0.612217  39.987500 # H   
  4307      7  12.679710   0.612217  39.987500 # H   
  4308      8  13.470400   0.000000  39.987500 # O   
  4309      7  24.681189  20.673953  31.987500 # H   
  4310      7  23.099810  20.673953  31.987500 # H   
  4311      8  23.890500  20.061736  31.987500 # O   
  4312      7  15.359247   9.210104  35.987500 # H   
  4313      7  13.777867   9.210104  35.987500 # H   
  4314      8  14.568557   8.597887  35.987500 # O   
  4315      7  30.708661   6.344142  39.987500 # H   
  4316      7  29.127282   6.344142  39.987500 # H   
  4317      8  29.917971   5.731924  39.987500 # O   
  4318      7 -17.999454  29.271840  37.987500 # H   
  4319      7 -19.580833  29.271840  37.987500 # H   
  4320      8 -18.790143  28.659622  37.987500 # O   
  4321      7   4.158290   0.612217  41.987500 # H   
  4322      7   2.576910   0.612217  41.987500 # H   
  4323      8   3.367600   0.000000  41.987500 # O   
  4324      7  28.439218  14.942028  39.987500 # H   
  4325      7  26.857839  14.942028  39.987500 # H   
  4326      8  27.648528  14.329811  39.987500 # O   
  4327      7  12.382075   3.478180  39.987500 # H   
  4328      7  10.800696   3.478180  39.987500 # H   
  4329      8  11.591386   2.865962  39.987500 # O   
  4330      7  18.336418  14.942028  41.987500 # H   
  4331      7  16.755039  14.942028  41.987500 # H   
  4332      8  17.545728  14.329811  41.987500 # O   
  4333      7  -5.236782  14.942028  31.987500 # H   
  4334      7  -6.818161  14.942028  31.987500 # H   
  4335      8  -6.027472  14.329811  31.987500 # O   
  4336      7  -1.088325   3.478180  29.987500 # H   
  4337      7  -2.669704   3.478180  29.987500 # H   
  4338      8  -1.879014   2.865962  29.987500 # O   
  4339      7   1.498418  14.942028  35.987500 # H   
  4340      7  -0.082961  14.942028  35.987500 # H   
  4341      8   0.707728  14.329811  35.987500 # O   
  4342      7  14.968818  14.942028  29.987500 # H   
  4343      7  13.387439  14.942028  29.987500 # H   
  4344      8  14.178128  14.329811  29.987500 # O   
  4345      7 -11.264254  29.271840  31.987500 # H   
  4346      7 -12.845633  29.271840  31.987500 # H   
  4347      8 -12.054943  28.659622  31.987500 # O   
  4348      7  -6.725368  12.076066  31.987500 # H   
  4349      7  -8.306747  12.076066  31.987500 # H   
  4350      8  -7.516057  11.463849  31.987500 # O   
  4351      7  21.313589  20.673953  31.987500 # H   
  4352      7  19.732210  20.673953  31.987500 # H   
  4353      8  20.522900  20.061736  31.987500 # O   
  4354      7 -16.510868  32.137802  41.987500 # H   
  4355      7 -18.092247  32.137802  41.987500 # H   
  4356      8 -17.301558  31.525585  41.987500 # O   
  4357      7   4.866018  14.942028  41.987500 # H   
  4358      7   3.284639  14.942028  41.987500 # H   
  4359      8   4.075328  14.329811  41.987500 # O   
  4360      7  37.834290   0.612217  29.987500 # H   
  4361      7  36.252910   0.612217  29.987500 # H   
  4362      8  37.043600   0.000000  29.987500 # O   
  4363      7   5.964175  23.539915  37.987500 # H   
  4364      7   4.382796  23.539915  37.987500 # H   
  4365      8   5.173485  22.927698  37.987500 # O   
  4366      7  10.503061   6.344142  39.987500 # H   
  4367      7   8.921682   6.344142  39.987500 # H   
  4368      8   9.712371   5.731924  39.987500 # O   
  4369      7  23.583032  12.076066  31.987500 # H   
  4370      7  22.001653  12.076066  31.987500 # H   
  4371      8  22.792343  11.463849  31.987500 # O   
  4372      7  22.484875   3.478180  33.987500 # H   
  4373      7  20.903496   3.478180  33.987500 # H   
  4374      8  21.694186   2.865962  33.987500 # O   
  4375      7  22.802175  23.539915  39.987500 # H   
  4376      7  21.220796  23.539915  39.987500 # H   
  4377      8  22.011485  22.927698  39.987500 # O   
  4378      7   5.573746  29.271840  35.987500 # H   
  4379      7   3.992367  29.271840  35.987500 # H   
  4380      8   4.783057  28.659622  35.987500 # O   
  4381      7  15.359247   9.210104  29.987500 # H   
  4382      7  13.777867   9.210104  29.987500 # H   
  4383      8  14.568557   8.597887  29.987500 # O   
  4384      7   5.646875   3.478180  31.987500 # H   
  4385      7   4.065496   3.478180  31.987500 # H   
  4386      8   4.856186   2.865962  31.987500 # O   
  4387      7  25.071618  14.942028  31.987500 # H   
  4388      7  23.490239  14.942028  31.987500 # H   
  4389      8  24.280928  14.329811  31.987500 # O   
  4390      7  30.708661   6.344142  41.987500 # H   
  4391      7  29.127282   6.344142  41.987500 # H   
  4392      8  29.917971   5.731924  41.987500 # O   
  4393      7  13.870661   6.344142  35.987500 # H   
  4394      7  12.289282   6.344142  35.987500 # H   
  4395      8  13.079971   5.731924  35.987500 # O   
  4396      7  11.918518  35.003764  39.987500 # H   
  4397      7  10.337138  35.003764  39.987500 # H   
  4398      8  11.127828  34.391547  39.987500 # O   
  4399      7  16.847832  12.076066  37.987500 # H   
  4400      7  15.266453  12.076066  37.987500 # H   
  4401      8  16.057143  11.463849  37.987500 # O   
  4402      7  14.578389  20.673953  31.987500 # H   
  4403      7  12.997010  20.673953  31.987500 # H   
  4404      8  13.787700  20.061736  31.987500 # O   
  4405      7   0.327132  32.137802  35.987500 # H   
  4406      7  -1.254247  32.137802  35.987500 # H   
  4407      8  -0.463558  31.525585  35.987500 # O   
  4408      7  17.238261   6.344142  33.987500 # H   
  4409      7  15.656882   6.344142  33.987500 # H   
  4410      8  16.447571   5.731924  33.987500 # O   
  4411      7  15.286118  35.003764  31.987500 # H   
  4412      7  13.704738  35.003764  31.987500 # H   
  4413      8  14.495428  34.391547  31.987500 # O   
  4414      7   7.452761  26.405877  37.987500 # H   
  4415      7   5.871381  26.405877  37.987500 # H   
  4416      8   6.662071  25.793660  37.987500 # O   
  4417      7   3.767861   6.344142  33.987500 # H   
  4418      7   2.186482   6.344142  33.987500 # H   
  4419      8   2.977171   5.731924  33.987500 # O   
  4420      7  34.466690   0.612217  31.987500 # H   
  4421      7  32.885310   0.612217  31.987500 # H   
  4422      8  33.676000   0.000000  31.987500 # O   
  4423      7   3.377432  12.076066  31.987500 # H   
  4424      7   1.796053  12.076066  31.987500 # H   
  4425      8   2.586743  11.463849  31.987500 # O   
  4426      7  21.704018  14.942028  31.987500 # H   
  4427      7  20.122639  14.942028  31.987500 # H   
  4428      8  20.913328  14.329811  31.987500 # O   
  4429      7  10.112632  12.076066  33.987500 # H   
  4430      7   8.531253  12.076066  33.987500 # H   
  4431      8   9.321943  11.463849  33.987500 # O   
  4432      7   8.941346  29.271840  37.987500 # H   
  4433      7   7.359967  29.271840  37.987500 # H   
  4434      8   8.150657  28.659622  37.987500 # O   
  4435      7  17.945989  20.673953  41.987500 # H   
  4436      7  16.364610  20.673953  41.987500 # H   
  4437      8  17.155300  20.061736  41.987500 # O   
  4438      7 -12.752839  26.405877  41.987500 # H   
  4439      7 -14.334219  26.405877  41.987500 # H   
  4440      8 -13.543529  25.793660  41.987500 # O   
  4441      7   5.573746  29.271840  37.987500 # H   
  4442      7   3.992367  29.271840  37.987500 # H   
  4443      8   4.783057  28.659622  37.987500 # O   
  4444      7  35.955275   3.478180  39.987500 # H   
  4445      7  34.373896   3.478180  39.987500 # H   
  4446      8  35.164586   2.865962  39.987500 # O   
  4447      7 -11.264254  29.271840  37.987500 # H   
  4448      7 -12.845633  29.271840  37.987500 # H   
  4449      8 -12.054943  28.659622  37.987500 # O   
  4450      7   2.596575  23.539915  29.987500 # H   
  4451      7   1.015196  23.539915  29.987500 # H   
  4452      8   1.805885  22.927698  29.987500 # O   
  4453      7   2.279275   3.478180  29.987500 # H   
  4454      7   0.697896   3.478180  29.987500 # H   
  4455      8   1.488586   2.865962  29.987500 # O   
  4456      7  34.076261   6.344142  31.987500 # H   
  4457      7  32.494882   6.344142  31.987500 # H   
  4458      8  33.285571   5.731924  31.987500 # O   
  4459      7 -17.999454  29.271840  41.987500 # H   
  4460      7 -19.580833  29.271840  41.987500 # H   
  4461      8 -18.790143  28.659622  41.987500 # O   
  4462      7  -1.478753   9.210104  31.987500 # H   
  4463      7  -3.060133   9.210104  31.987500 # H   
  4464      8  -2.269443   8.597887  31.987500 # O   
  4465      7   6.745032  12.076066  31.987500 # H   
  4466      7   5.163653  12.076066  31.987500 # H   
  4467      8   5.954343  11.463849  31.987500 # O   
  4468      7  -6.725368  12.076066  37.987500 # H   
  4469      7  -8.306747  12.076066  37.987500 # H   
  4470      8  -7.516057  11.463849  37.987500 # O   
  4471      7  -6.725368  12.076066  41.987500 # H   
  4472      7  -8.306747  12.076066  41.987500 # H   
  4473      8  -7.516057  11.463849  41.987500 # O   
  4474      7  25.071618  14.942028  39.987500 # H   
  4475      7  23.490239  14.942028  39.987500 # H   
  4476      8  24.280928  14.329811  39.987500 # O   
  4477      7  11.601218  14.942028  41.987500 # H   
  4478      7  10.019839  14.942028  41.987500 # H   
  4479      8  10.810528  14.329811  41.987500 # O   
  4480      7 -11.654682  35.003764  41.987500 # H   
  4481      7 -13.236062  35.003764  41.987500 # H   
  4482      8 -12.445372  34.391547  41.987500 # O   
  4483      7  32.587675   3.478180  35.987500 # H   
  4484      7  31.006296   3.478180  35.987500 # H   
  4485      8  31.796986   2.865962  35.987500 # O   
  4486      7 -14.241425  23.539915  41.987500 # H   
  4487      7 -15.822804  23.539915  41.987500 # H   
  4488      8 -15.032115  22.927698  41.987500 # O   
  4489      7   0.327132  32.137802  37.987500 # H   
  4490      7  -1.254247  32.137802  37.987500 # H   
  4491      8  -0.463558  31.525585  37.987500 # O   
  4492      7   1.107989  20.673953  33.987500 # H   
  4493      7  -0.473390  20.673953  33.987500 # H   
  4494      8   0.317300  20.061736  33.987500 # O   
  4495      7  -1.478753   9.210104  37.987500 # H   
  4496      7  -3.060133   9.210104  37.987500 # H   
  4497      8  -2.269443   8.597887  37.987500 # O   
  4498      7   7.452761  26.405877  29.987500 # H   
  4499      7   5.871381  26.405877  29.987500 # H   
  4500      8   6.662071  25.793660  29.987500 # O   
  4501      7  -3.357768  12.076066  41.987500 # H   
  4502      7  -4.939147  12.076066  41.987500 # H   
  4503      8  -4.148457  11.463849  41.987500 # O   
  4504      7   8.550918  35.003764  37.987500 # H   
  4505      7   6.969538  35.003764  37.987500 # H   
  4506      8   7.760228  34.391547  37.987500 # O   
  4507      7  13.870661   6.344142  29.987500 # H   
  4508      7  12.289282   6.344142  29.987500 # H   
  4509      8  13.079971   5.731924  29.987500 # O   
  4510      7  22.802175  23.539915  35.987500 # H   
  4511      7  21.220796  23.539915  35.987500 # H   
  4512      8  22.011485  22.927698  35.987500 # O   
  4513      7  19.117275   3.478180  33.987500 # H   
  4514      7  17.535896   3.478180  33.987500 # H   
  4515      8  18.326586   2.865962  33.987500 # O   
  4516      7  -1.551882  35.003764  33.987500 # H   
  4517      7  -3.133262  35.003764  33.987500 # H   
  4518      8  -2.342572  34.391547  33.987500 # O   
  4519      7   5.573746  29.271840  41.987500 # H   
  4520      7   3.992367  29.271840  41.987500 # H   
  4521      8   4.783057  28.659622  41.987500 # O   
  4522      7  -1.161454  29.271840  37.987500 # H   
  4523      7  -2.742833  29.271840  37.987500 # H   
  4524      8  -1.952143  28.659622  37.987500 # O   
  4525      7   0.009832  12.076066  35.987500 # H   
  4526      7  -1.571547  12.076066  35.987500 # H   
  4527      8  -0.780857  11.463849  35.987500 # O   
  4528      7  17.238261   6.344142  31.987500 # H   
  4529      7  15.656882   6.344142  31.987500 # H   
  4530      8  16.447571   5.731924  31.987500 # O   
  4531      7  27.341061   6.344142  29.987500 # H   
  4532      7  25.759682   6.344142  29.987500 # H   
  4533      8  26.550371   5.731924  29.987500 # O   
  4534      7  12.699375  23.539915  37.987500 # H   
  4535      7  11.117996  23.539915  37.987500 # H   
  4536      8  11.908685  22.927698  37.987500 # O   
  4537      7   5.183318  35.003764  35.987500 # H   
  4538      7   3.601938  35.003764  35.987500 # H   
  4539      8   4.392628  34.391547  35.987500 # O   
  4540      7  11.601218  14.942028  37.987500 # H   
  4541      7  10.019839  14.942028  37.987500 # H   
  4542      8  10.810528  14.329811  37.987500 # O   
  4543      7  34.466690   0.612217  29.987500 # H   
  4544      7  32.885310   0.612217  29.987500 # H   
  4545      8  33.676000   0.000000  29.987500 # O   
  4546      7   8.624047   9.210104  33.987500 # H   
  4547      7   7.042667   9.210104  33.987500 # H   
  4548      8   7.833357   8.597887  33.987500 # O   
  4549      7 -19.878468  32.137802  41.987500 # H   
  4550      7 -21.459847  32.137802  41.987500 # H   
  4551      8 -20.669158  31.525585  41.987500 # O   
  4552      7 -12.362411  20.673953  31.987500 # H   
  4553      7 -13.943790  20.673953  31.987500 # H   
  4554      8 -13.153100  20.061736  31.987500 # O   
  4555      7  -5.236782  14.942028  35.987500 # H   
  4556      7  -6.818161  14.942028  35.987500 # H   
  4557      8  -6.027472  14.329811  35.987500 # O   
  4558      7   7.525890   0.612217  35.987500 # H   
  4559      7   5.944510   0.612217  35.987500 # H   
  4560      8   6.735200   0.000000  35.987500 # O   
  4561      7  13.870661   6.344142  31.987500 # H   
  4562      7  12.289282   6.344142  31.987500 # H   
  4563      8  13.079971   5.731924  31.987500 # O   
  4564      7  17.555561  26.405877  29.987500 # H   
  4565      7  15.974181  26.405877  29.987500 # H   
  4566      8  16.764871  25.793660  29.987500 # O   
  4567      7   0.400261   6.344142  33.987500 # H   
  4568      7  -1.181118   6.344142  33.987500 # H   
  4569      8  -0.390429   5.731924  33.987500 # O   
  4570      7  17.945989  20.673953  29.987500 # H   
  4571      7  16.364610  20.673953  29.987500 # H   
  4572      8  17.155300  20.061736  29.987500 # O   
  4573      7  35.955275   3.478180  29.987500 # H   
  4574      7  34.373896   3.478180  29.987500 # H   
  4575      8  35.164586   2.865962  29.987500 # O   
  4576      7   7.843189  20.673953  39.987500 # H   
  4577      7   6.261810  20.673953  39.987500 # H   
  4578      8   7.052500  20.061736  39.987500 # O   
  4579      7  12.308946  29.271840  33.987500 # H   
  4580      7  10.727567  29.271840  33.987500 # H   
  4581      8  11.518257  28.659622  33.987500 # O   
  4582      7  28.439218  14.942028  35.987500 # H   
  4583      7  26.857839  14.942028  35.987500 # H   
  4584      8  27.648528  14.329811  35.987500 # O   
  4585      7   2.279275   3.478180  37.987500 # H   
  4586      7   0.697896   3.478180  37.987500 # H   
  4587      8   1.488586   2.865962  37.987500 # O   
  4588      7  30.708661   6.344142  31.987500 # H   
  4589      7  29.127282   6.344142  31.987500 # H   
  4590      8  29.917971   5.731924  31.987500 # O   
  4591      7   3.767861   6.344142  31.987500 # H   
  4592      7   2.186482   6.344142  31.987500 # H   
  4593      8   2.977171   5.731924  31.987500 # O   
  4594      7  22.484875   3.478180  41.987500 # H   
  4595      7  20.903496   3.478180  41.987500 # H   
  4596      8  21.694186   2.865962  41.987500 # O   
  4597      7  -9.775668  32.137802  41.987500 # H   
  4598      7 -11.357047  32.137802  41.987500 # H   
  4599      8 -10.566358  31.525585  41.987500 # O   
  4600      7  14.968818  14.942028  31.987500 # H   
  4601      7  13.387439  14.942028  31.987500 # H   
  4602      8  14.178128  14.329811  31.987500 # O   
  4603      7  25.071618  14.942028  33.987500 # H   
  4604      7  23.490239  14.942028  33.987500 # H   
  4605      8  24.280928  14.329811  33.987500 # O   
  4606      7  20.215432  12.076066  35.987500 # H   
  4607      7  18.634053  12.076066  35.987500 # H   
  4608      8  19.424743  11.463849  35.987500 # O   
  4609      7   5.256447   9.210104  37.987500 # H   
  4610      7   3.675067   9.210104  37.987500 # H   
  4611      8   4.465757   8.597887  37.987500 # O   
  4612      7  15.286118  35.003764  29.987500 # H   
  4613      7  13.704738  35.003764  29.987500 # H   
  4614      8  14.495428  34.391547  29.987500 # O   
  4615      7  16.066975  23.539915  35.987500 # H   
  4616      7  14.485596  23.539915  35.987500 # H   
  4617      8  15.276285  22.927698  35.987500 # O   
  4618      7   7.525890   0.612217  29.987500 # H   
  4619      7   5.944510   0.612217  29.987500 # H   
  4620      8   6.735200   0.000000  29.987500 # O   
  4621      7  -7.115796  17.807991  41.987500 # H   
  4622      7  -8.697176  17.807991  41.987500 # H   
  4623      8  -7.906486  17.195773  41.987500 # O   
  4624      7  -2.259611  20.673953  41.987500 # H   
  4625      7  -3.840990  20.673953  41.987500 # H   
  4626      8  -3.050300  20.061736  41.987500 # O   
  4627      7  20.996290   0.612217  37.987500 # H   
  4628      7  19.414910   0.612217  37.987500 # H   
  4629      8  20.205600   0.000000  37.987500 # O   
  4630      7  17.165132  32.137802  35.987500 # H   
  4631      7  15.583753  32.137802  35.987500 # H   
  4632      8  16.374442  31.525585  35.987500 # O   
  4633      7  23.973461   6.344142  29.987500 # H   
  4634      7  22.392082   6.344142  29.987500 # H   
  4635      8  23.182771   5.731924  29.987500 # O   
  4636      7  -5.236782  14.942028  41.987500 # H   
  4637      7  -6.818161  14.942028  41.987500 # H   
  4638      8  -6.027472  14.329811  41.987500 # O   
  4639      7   2.596575  23.539915  35.987500 # H   
  4640      7   1.015196  23.539915  35.987500 # H   
  4641      8   1.805885  22.927698  35.987500 # O   
  4642      7   5.573746  29.271840  39.987500 # H   
  4643      7   3.992367  29.271840  39.987500 # H   
  4644      8   4.783057  28.659622  39.987500 # O   
  4645      7  34.466690   0.612217  39.987500 # H   
  4646      7  32.885310   0.612217  39.987500 # H   
  4647      8  33.676000   0.000000  39.987500 # O   
  4648      7  -5.627211  20.673953  35.987500 # H   
  4649      7  -7.208590  20.673953  35.987500 # H   
  4650      8  -6.417900  20.061736  35.987500 # O   
  4651      7  35.955275   3.478180  41.987500 # H   
  4652      7  34.373896   3.478180  41.987500 # H   
  4653      8  35.164586   2.865962  41.987500 # O   
  4654      7   1.498418  14.942028  39.987500 # H   
  4655      7  -0.082961  14.942028  39.987500 # H   
  4656      8   0.707728  14.329811  39.987500 # O   
  4657      7  18.726847   9.210104  37.987500 # H   
  4658      7  17.145467   9.210104  37.987500 # H   
  4659      8  17.936157   8.597887  37.987500 # O   
  4660      7  27.731490   0.612217  31.987500 # H   
  4661      7  26.150110   0.612217  31.987500 # H   
  4662      8  26.940800   0.000000  31.987500 # O   
  4663      7  17.555561  26.405877  33.987500 # H   
  4664      7  15.974181  26.405877  33.987500 # H   
  4665      8  16.764871  25.793660  33.987500 # O   
  4666      7   3.694732  32.137802  41.987500 # H   
  4667      7   2.113353  32.137802  41.987500 # H   
  4668      8   2.904042  31.525585  41.987500 # O   
  4669      7   8.550918  35.003764  35.987500 # H   
  4670      7   6.969538  35.003764  35.987500 # H   
  4671      8   7.760228  34.391547  35.987500 # O   
  4672      7  10.503061   6.344142  29.987500 # H   
  4673      7   8.921682   6.344142  29.987500 # H   
  4674      8   9.712371   5.731924  29.987500 # O   
  4675      7  19.117275   3.478180  31.987500 # H   
  4676      7  17.535896   3.478180  31.987500 # H   
  4677      8  18.326586   2.865962  31.987500 # O   
  4678      7  -9.775668  32.137802  39.987500 # H   
  4679      7 -11.357047  32.137802  39.987500 # H   
  4680      8 -10.566358  31.525585  39.987500 # O   
  4681      7   7.135461   6.344142  41.987500 # H   
  4682      7   5.554082   6.344142  41.987500 # H   
  4683      8   6.344771   5.731924  41.987500 # O   
  4684      7 -13.143268  32.137802  31.987500 # H   
  4685      7 -14.724647  32.137802  31.987500 # H   
  4686      8 -13.933958  31.525585  31.987500 # O   
  4687      7  -5.627211  20.673953  41.987500 # H   
  4688      7  -7.208590  20.673953  41.987500 # H   
  4689      8  -6.417900  20.061736  41.987500 # O   
  4690      7   8.550918  35.003764  33.987500 # H   
  4691      7   6.969538  35.003764  33.987500 # H   
  4692      8   7.760228  34.391547  33.987500 # O   
  4693      7  11.210789  20.673953  41.987500 # H   
  4694      7   9.629410  20.673953  41.987500 # H   
  4695      8  10.420100  20.061736  41.987500 # O   
  4696      7  15.286118  35.003764  33.987500 # H   
  4697      7  13.704738  35.003764  33.987500 # H   
  4698      8  14.495428  34.391547  33.987500 # O   
  4699      7  17.628690   0.612217  35.987500 # H   
  4700      7  16.047310   0.612217  35.987500 # H   
  4701      8  16.838000   0.000000  35.987500 # O   
  4702      7  22.484875   3.478180  35.987500 # H   
  4703      7  20.903496   3.478180  35.987500 # H   
  4704      8  21.694186   2.865962  35.987500 # O   
  4705      7  -4.919482  35.003764  39.987500 # H   
  4706      7  -6.500862  35.003764  39.987500 # H   
  4707      8  -5.710172  34.391547  39.987500 # O   
  4708      7  11.210789  20.673953  35.987500 # H   
  4709      7   9.629410  20.673953  35.987500 # H   
  4710      8  10.420100  20.061736  35.987500 # O   
  4711      7   1.815718  35.003764  31.987500 # H   
  4712      7   0.234338  35.003764  31.987500 # H   
  4713      8   1.025028  34.391547  31.987500 # O   
  4714      7  -0.771025  23.539915  41.987500 # H   
  4715      7  -2.352404  23.539915  41.987500 # H   
  4716      8  -1.561715  22.927698  41.987500 # O   
  4717      7  -7.115796  17.807991  39.987500 # H   
  4718      7  -8.697176  17.807991  39.987500 # H   
  4719      8  -7.906486  17.195773  39.987500 # O   
  4720      7   6.354604  17.807991  35.987500 # H   
  4721      7   4.773224  17.807991  35.987500 # H   
  4722      8   5.563914  17.195773  35.987500 # O   
  4723      7   7.452761  26.405877  39.987500 # H   
  4724      7   5.871381  26.405877  39.987500 # H   
  4725      8   6.662071  25.793660  39.987500 # O   
  4726      7  17.165132  32.137802  39.987500 # H   
  4727      7  15.583753  32.137802  39.987500 # H   
  4728      8  16.374442  31.525585  39.987500 # O   
  4729      7  10.429932  32.137802  41.987500 # H   
  4730      7   8.848553  32.137802  41.987500 # H   
  4731      8   9.639242  31.525585  41.987500 # O   
  4732      7  -7.896654  29.271840  35.987500 # H   
  4733      7  -9.478033  29.271840  35.987500 # H   
  4734      8  -8.687343  28.659622  35.987500 # O   
  4735      7   5.183318  35.003764  39.987500 # H   
  4736      7   3.601938  35.003764  39.987500 # H   
  4737      8   4.392628  34.391547  39.987500 # O   
  4738      7 -16.510868  32.137802  37.987500 # H   
  4739      7 -18.092247  32.137802  37.987500 # H   
  4740      8 -17.301558  31.525585  37.987500 # O   
  4741      7  17.945989  20.673953  39.987500 # H   
  4742      7  16.364610  20.673953  39.987500 # H   
  4743      8  17.155300  20.061736  39.987500 # O   
  4744      7  -2.650039  26.405877  39.987500 # H   
  4745      7  -4.231419  26.405877  39.987500 # H   
  4746      8  -3.440729  25.793660  39.987500 # O   
  4747      7  32.587675   3.478180  37.987500 # H   
  4748      7  31.006296   3.478180  37.987500 # H   
  4749      8  31.796986   2.865962  37.987500 # O   
  4750      7  27.731490   0.612217  41.987500 # H   
  4751      7  26.150110   0.612217  41.987500 # H   
  4752      8  26.940800   0.000000  41.987500 # O   
  4753      7  -1.551882  35.003764  31.987500 # H   
  4754      7  -3.133262  35.003764  31.987500 # H   
  4755      8  -2.342572  34.391547  31.987500 # O   
  4756      7 -11.264254  29.271840  35.987500 # H   
  4757      7 -12.845633  29.271840  35.987500 # H   
  4758      8 -12.054943  28.659622  35.987500 # O   
  4759      7  34.466690   0.612217  35.987500 # H   
  4760      7  32.885310   0.612217  35.987500 # H   
  4761      8  33.676000   0.000000  35.987500 # O   
  4762      7  24.363890   0.612217  35.987500 # H   
  4763      7  22.782510   0.612217  35.987500 # H   
  4764      8  23.573200   0.000000  35.987500 # O   
  4765      7  -4.138625  23.539915  35.987500 # H   
  4766      7  -5.720004  23.539915  35.987500 # H   
  4767      8  -4.929315  22.927698  35.987500 # O   
  4768      7  10.820361  26.405877  29.987500 # H   
  4769      7   9.238981  26.405877  29.987500 # H   
  4770      8  10.029671  25.793660  29.987500 # O   
  4771      7  -4.846353   9.210104  35.987500 # H   
  4772      7  -6.427733   9.210104  35.987500 # H   
  4773      8  -5.637043   8.597887  35.987500 # O   
  4774      7  32.587675   3.478180  29.987500 # H   
  4775      7  31.006296   3.478180  29.987500 # H   
  4776      8  31.796986   2.865962  29.987500 # O   
  4777      7  14.187961  26.405877  29.987500 # H   
  4778      7  12.606581  26.405877  29.987500 # H   
  4779      8  13.397271  25.793660  29.987500 # O   
  4780      7  -6.017639  26.405877  35.987500 # H   
  4781      7  -7.599019  26.405877  35.987500 # H   
  4782      8  -6.808329  25.793660  35.987500 # O   
  4783      7  -4.138625  23.539915  33.987500 # H   
  4784      7  -5.720004  23.539915  33.987500 # H   
  4785      8  -4.929315  22.927698  33.987500 # O   
  4786      7 -10.483396  17.807991  29.987500 # H   
  4787      7 -12.064776  17.807991  29.987500 # H   
  4788      8 -11.274086  17.195773  29.987500 # O   
  4789      7  26.950632  12.076066  35.987500 # H   
  4790      7  25.369253  12.076066  35.987500 # H   
  4791      8  26.159943  11.463849  35.987500 # O   
  4792      7  21.704018  14.942028  39.987500 # H   
  4793      7  20.122639  14.942028  39.987500 # H   
  4794      8  20.913328  14.329811  39.987500 # O   
  4795      7  -3.040468  32.137802  35.987500 # H   
  4796      7  -4.621847  32.137802  35.987500 # H   
  4797      8  -3.831158  31.525585  35.987500 # O   
  4798      7  15.676546  29.271840  31.987500 # H   
  4799      7  14.095167  29.271840  31.987500 # H   
  4800      8  14.885857  28.659622  31.987500 # O   
  4801      7  20.923161  26.405877  37.987500 # H   
  4802      7  19.341781  26.405877  37.987500 # H   
  4803      8  20.132471  25.793660  37.987500 # O   
  4804      7  34.076261   6.344142  39.987500 # H   
  4805      7  32.494882   6.344142  39.987500 # H   
  4806      8  33.285571   5.731924  39.987500 # O   
  4807      7  12.699375  23.539915  39.987500 # H   
  4808      7  11.117996  23.539915  39.987500 # H   
  4809      8  11.908685  22.927698  39.987500 # O   
  4810      7  -2.967339   6.344142  37.987500 # H   
  4811      7  -4.548718   6.344142  37.987500 # H   
  4812      8  -3.758029   5.731924  37.987500 # O   
  4813      7  -6.725368  12.076066  35.987500 # H   
  4814      7  -8.306747  12.076066  35.987500 # H   
  4815      8  -7.516057  11.463849  35.987500 # O   
  4816      7 -13.143268  32.137802  33.987500 # H   
  4817      7 -14.724647  32.137802  33.987500 # H   
  4818      8 -13.933958  31.525585  33.987500 # O   
  4819      7  15.676546  29.271840  29.987500 # H   
  4820      7  14.095167  29.271840  29.987500 # H   
  4821      8  14.885857  28.659622  29.987500 # O   
  4822      7 -13.143268  32.137802  41.987500 # H   
  4823      7 -14.724647  32.137802  41.987500 # H   
  4824      8 -13.933958  31.525585  41.987500 # O   
  4825      7  -1.478753   9.210104  35.987500 # H   
  4826      7  -3.060133   9.210104  35.987500 # H   
  4827      8  -2.269443   8.597887  35.987500 # O   
  4828      7 -10.873825  23.539915  39.987500 # H   
  4829      7 -12.455204  23.539915  39.987500 # H   
  4830      8 -11.664515  22.927698  39.987500 # O   
  4831      7  -9.775668  32.137802  37.987500 # H   
  4832      7 -11.357047  32.137802  37.987500 # H   
  4833      8 -10.566358  31.525585  37.987500 # O   
  4834      7   0.717561  26.405877  41.987500 # H   
  4835      7  -0.863819  26.405877  41.987500 # H   
  4836      8  -0.073129  25.793660  41.987500 # O   
  4837      7  -7.506225  23.539915  29.987500 # H   
  4838      7  -9.087604  23.539915  29.987500 # H   
  4839      8  -8.296915  22.927698  29.987500 # O   
  4840      7  14.261090   0.612217  37.987500 # H   
  4841      7  12.679710   0.612217  37.987500 # H   
  4842      8  13.470400   0.000000  37.987500 # O   
  4843      7  -6.408068  32.137802  35.987500 # H   
  4844      7  -7.989447  32.137802  35.987500 # H   
  4845      8  -7.198758  31.525585  35.987500 # O   
  4846      7  26.950632  12.076066  37.987500 # H   
  4847      7  25.369253  12.076066  37.987500 # H   
  4848      8  26.159943  11.463849  37.987500 # O   
  4849      7  -8.287082  35.003764  31.987500 # H   
  4850      7  -9.868462  35.003764  31.987500 # H   
  4851      8  -9.077772  34.391547  31.987500 # O   
  4852      7  34.466690   0.612217  41.987500 # H   
  4853      7  32.885310   0.612217  41.987500 # H   
  4854      8  33.676000   0.000000  41.987500 # O   
  4855      7   1.815718  35.003764  41.987500 # H   
  4856      7   0.234338  35.003764  41.987500 # H   
  4857      8   1.025028  34.391547  41.987500 # O   
  4858      7 -12.362411  20.673953  39.987500 # H   
  4859      7 -13.943790  20.673953  39.987500 # H   
  4860      8 -13.153100  20.061736  39.987500 # O   
  4861      7  -2.967339   6.344142  39.987500 # H   
  4862      7  -4.548718   6.344142  39.987500 # H   
  4863      8  -3.758029   5.731924  39.987500 # O   
  4864      7   9.014475   3.478180  41.987500 # H   
  4865      7   7.433096   3.478180  41.987500 # H   
  4866      8   8.223786   2.865962  41.987500 # O   
  4867      7  12.699375  23.539915  35.987500 # H   
  4868      7  11.117996  23.539915  35.987500 # H   
  4869      8  11.908685  22.927698  35.987500 # O   
  4870      7   4.158290   0.612217  33.987500 # H   
  4871      7   2.576910   0.612217  33.987500 # H   
  4872      8   3.367600   0.000000  33.987500 # O   
  4873      7  -8.287082  35.003764  41.987500 # H   
  4874      7  -9.868462  35.003764  41.987500 # H   
  4875      8  -9.077772  34.391547  41.987500 # O   
  4876      7  17.628690   0.612217  37.987500 # H   
  4877      7  16.047310   0.612217  37.987500 # H   
  4878      8  16.838000   0.000000  37.987500 # O   
  4879      7   5.964175  23.539915  33.987500 # H   
  4880      7   4.382796  23.539915  33.987500 # H   
  4881      8   5.173485  22.927698  33.987500 # O   
  4882      7  37.834290   0.612217  31.987500 # H   
  4883      7  36.252910   0.612217  31.987500 # H   
  4884      8  37.043600   0.000000  31.987500 # O   
  4885      7  24.681189  20.673953  29.987500 # H   
  4886      7  23.099810  20.673953  29.987500 # H   
  4887      8  23.890500  20.061736  29.987500 # O   
  4888      7   1.498418  14.942028  29.987500 # H   
  4889      7  -0.082961  14.942028  29.987500 # H   
  4890      8   0.707728  14.329811  29.987500 # O   
  4891      7  24.363890   0.612217  33.987500 # H   
  4892      7  22.782510   0.612217  33.987500 # H   
  4893      8  23.573200   0.000000  33.987500 # O   
  4894      7  10.893490   0.612217  39.987500 # H   
  4895      7   9.312110   0.612217  39.987500 # H   
  4896      8  10.102800   0.000000  39.987500 # O   
  4897      7 -10.483396  17.807991  31.987500 # H   
  4898      7 -12.064776  17.807991  31.987500 # H   
  4899      8 -11.274086  17.195773  31.987500 # O   
  4900      7  14.578389  20.673953  35.987500 # H   
  4901      7  12.997010  20.673953  35.987500 # H   
  4902      8  13.787700  20.061736  35.987500 # O   
  4903      7   6.354604  17.807991  31.987500 # H   
  4904      7   4.773224  17.807991  31.987500 # H   
  4905      8   5.563914  17.195773  31.987500 # O   
  4906      7   9.331775  23.539915  31.987500 # H   
  4907      7   7.750396  23.539915  31.987500 # H   
  4908      8   8.541085  22.927698  31.987500 # O   
  4909      7  24.363890   0.612217  31.987500 # H   
  4910      7  22.782510   0.612217  31.987500 # H   
  4911      8  23.573200   0.000000  31.987500 # O   
  4912      7 -18.389882  35.003764  37.987500 # H   
  4913      7 -19.971262  35.003764  37.987500 # H   
  4914      8 -19.180572  34.391547  37.987500 # O   
  4915      7  -1.551882  35.003764  41.987500 # H   
  4916      7  -3.133262  35.003764  41.987500 # H   
  4917      8  -2.342572  34.391547  41.987500 # O   
  4918      7   2.987004  17.807991  33.987500 # H   
  4919      7   1.405624  17.807991  33.987500 # H   
  4920      8   2.196314  17.195773  33.987500 # O   
  4921      7 -16.120439  26.405877  29.987500 # H   
  4922      7 -17.701819  26.405877  29.987500 # H   
  4923      8 -16.911129  25.793660  29.987500 # O   
  4924      7  14.261090   0.612217  31.987500 # H   
  4925      7  12.679710   0.612217  31.987500 # H   
  4926      8  13.470400   0.000000  31.987500 # O   
  4927      7  -1.161454  29.271840  31.987500 # H   
  4928      7  -2.742833  29.271840  31.987500 # H   
  4929      8  -1.952143  28.659622  31.987500 # O   
  4930      7  27.341061   6.344142  39.987500 # H   
  4931      7  25.759682   6.344142  39.987500 # H   
  4932      8  26.550371   5.731924  39.987500 # O   
  4933      7  -1.088325   3.478180  41.987500 # H   
  4934      7  -2.669704   3.478180  41.987500 # H   
  4935      8  -1.879014   2.865962  41.987500 # O   
  4936      7   4.475589  20.673953  31.987500 # H   
  4937      7   2.894210  20.673953  31.987500 # H   
  4938      8   3.684900  20.061736  31.987500 # O   
  4939      7  -1.161454  29.271840  39.987500 # H   
  4940      7  -2.742833  29.271840  39.987500 # H   
  4941      8  -1.952143  28.659622  39.987500 # O   
  4942      7   1.815718  35.003764  39.987500 # H   
  4943      7   0.234338  35.003764  39.987500 # H   
  4944      8   1.025028  34.391547  39.987500 # O   
  4945      7  -1.478753   9.210104  39.987500 # H   
  4946      7  -3.060133   9.210104  39.987500 # H   
  4947      8  -2.269443   8.597887  39.987500 # O   
  4948      7   0.717561  26.405877  37.987500 # H   
  4949      7  -0.863819  26.405877  37.987500 # H   
  4950      8  -0.073129  25.793660  37.987500 # O   
  4951      7 -16.510868  32.137802  33.987500 # H   
  4952      7 -18.092247  32.137802  33.987500 # H   
  4953      8 -17.301558  31.525585  33.987500 # O   
  4954      7  11.991647   9.210104  35.987500 # H   
  4955      7  10.410267   9.210104  35.987500 # H   
  4956      8  11.200957   8.597887  35.987500 # O   
  4957      7  30.318232  12.076066  41.987500 # H   
  4958      7  28.736853  12.076066  41.987500 # H   
  4959      8  29.527543  11.463849  41.987500 # O   
  4960      7   6.745032  12.076066  29.987500 # H   
  4961      7   5.163653  12.076066  29.987500 # H   
  4962      8   5.954343  11.463849  29.987500 # O   
  4963      7  11.601218  14.942028  35.987500 # H   
  4964      7  10.019839  14.942028  35.987500 # H   
  4965      8  10.810528  14.329811  35.987500 # O   
  4966      7  -9.775668  32.137802  33.987500 # H   
  4967      7 -11.357047  32.137802  33.987500 # H   
  4968      8 -10.566358  31.525585  33.987500 # O   
  4969      7   4.866018  14.942028  31.987500 # H   
  4970      7   3.284639  14.942028  31.987500 # H   
  4971      8   4.075328  14.329811  31.987500 # O   
  4972      7  23.192604  17.807991  35.987500 # H   
  4973      7  21.611224  17.807991  35.987500 # H   
  4974      8  22.401914  17.195773  35.987500 # O   
  4975      7   9.331775  23.539915  35.987500 # H   
  4976      7   7.750396  23.539915  35.987500 # H   
  4977      8   8.541085  22.927698  35.987500 # O   
  4978      7   2.279275   3.478180  31.987500 # H   
  4979      7   0.697896   3.478180  31.987500 # H   
  4980      8   1.488586   2.865962  31.987500 # O   
  4981      7  19.825004  17.807991  33.987500 # H   
  4982      7  18.243624  17.807991  33.987500 # H   
  4983      8  19.034314  17.195773  33.987500 # O   
  4984      7  17.165132  32.137802  37.987500 # H   
  4985      7  15.583753  32.137802  37.987500 # H   
  4986      8  16.374442  31.525585  37.987500 # O   
  4987      7  -9.775668  32.137802  35.987500 # H   
  4988      7 -11.357047  32.137802  35.987500 # H   
  4989      8 -10.566358  31.525585  35.987500 # O   
  4990      7  17.628690   0.612217  31.987500 # H   
  4991      7  16.047310   0.612217  31.987500 # H   
  4992      8  16.838000   0.000000  31.987500 # O   
  4993      7  -8.604382  14.942028  39.987500 # H   
  4994      7 -10.185761  14.942028  39.987500 # H   
  4995      8  -9.395072  14.329811  39.987500 # O   
  4996      7  15.359247   9.210104  33.987500 # H   
  4997      7  13.777867   9.210104  33.987500 # H   
  4998      8  14.568557   8.597887  33.987500 # O   
  4999      7  17.238261   6.344142  39.987500 # H   
  5000      7  15.656882   6.344142  39.987500 # H   
  5001      8  16.447571   5.731924  39.987500 # O   
  5002      7   7.843189  20.673953  33.987500 # H   
  5003      7   6.261810  20.673953  33.987500 # H   
  5004      8   7.052500  20.061736  33.987500 # O   
  5005      7  -5.627211  20.673953  33.987500 # H   
  5006      7  -7.208590  20.673953  33.987500 # H   
  5007      8  -6.417900  20.061736  33.987500 # O   
  5008      7   8.233618  14.942028  29.987500 # H   
  5009      7   6.652239  14.942028  29.987500 # H   
  5010      8   7.442928  14.329811  29.987500 # O   
  5011      7  20.923161  26.405877  35.987500 # H   
  5012      7  19.341781  26.405877  35.987500 # H   
  5013      8  20.132471  25.793660  35.987500 # O   
  5014      7  11.918518  35.003764  33.987500 # H   
  5015      7  10.337138  35.003764  33.987500 # H   
  5016      8  11.127828  34.391547  33.987500 # O   
  5017      7   7.135461   6.344142  35.987500 # H   
  5018      7   5.554082   6.344142  35.987500 # H   
  5019      8   6.344771   5.731924  35.987500 # O   
  5020      7   8.550918  35.003764  29.987500 # H   
  5021      7   6.969538  35.003764  29.987500 # H   
  5022      8   7.760228  34.391547  29.987500 # O   
  5023      7  19.825004  17.807991  35.987500 # H   
  5024      7  18.243624  17.807991  35.987500 # H   
  5025      8  19.034314  17.195773  35.987500 # O   
  5026      7  11.991647   9.210104  41.987500 # H   
  5027      7  10.410267   9.210104  41.987500 # H   
  5028      8  11.200957   8.597887  41.987500 # O   
  5029      7  22.484875   3.478180  39.987500 # H   
  5030      7  20.903496   3.478180  39.987500 # H   
  5031      8  21.694186   2.865962  39.987500 # O   
  5032      7  13.797532  32.137802  37.987500 # H   
  5033      7  12.216153  32.137802  37.987500 # H   
  5034      8  13.006842  31.525585  37.987500 # O   
  5035      7  25.462047   9.210104  39.987500 # H   
  5036      7  23.880667   9.210104  39.987500 # H   
  5037      8  24.671357   8.597887  39.987500 # O   
  5038      7  29.220075   3.478180  31.987500 # H   
  5039      7  27.638696   3.478180  31.987500 # H   
  5040      8  28.429386   2.865962  31.987500 # O   
  5041      7 -10.873825  23.539915  35.987500 # H   
  5042      7 -12.455204  23.539915  35.987500 # H   
  5043      8 -11.664515  22.927698  35.987500 # O   
  5044      7   3.694732  32.137802  37.987500 # H   
  5045      7   2.113353  32.137802  37.987500 # H   
  5046      8   2.904042  31.525585  37.987500 # O   
  5047      7  10.893490   0.612217  35.987500 # H   
  5048      7   9.312110   0.612217  35.987500 # H   
  5049      8  10.102800   0.000000  35.987500 # O   
  5050      7  17.945989  20.673953  37.987500 # H   
  5051      7  16.364610  20.673953  37.987500 # H   
  5052      8  17.155300  20.061736  37.987500 # O   
  5053      7  18.336418  14.942028  35.987500 # H   
  5054      7  16.755039  14.942028  35.987500 # H   
  5055      8  17.545728  14.329811  35.987500 # O   
  5056      7   0.327132  32.137802  29.987500 # H   
  5057      7  -1.254247  32.137802  29.987500 # H   
  5058      8  -0.463558  31.525585  29.987500 # O   
  5059      7  27.341061   6.344142  41.987500 # H   
  5060      7  25.759682   6.344142  41.987500 # H   
  5061      8  26.550371   5.731924  41.987500 # O   
  5062      7  19.044146  29.271840  41.987500 # H   
  5063      7  17.462767  29.271840  41.987500 # H   
  5064      8  18.253457  28.659622  41.987500 # O   
  5065      7   4.866018  14.942028  35.987500 # H   
  5066      7   3.284639  14.942028  35.987500 # H   
  5067      8   4.075328  14.329811  35.987500 # O   
  5068      7  13.089804  17.807991  37.987500 # H   
  5069      7  11.508424  17.807991  37.987500 # H   
  5070      8  12.299114  17.195773  37.987500 # O   
  5071      7  32.197247   9.210104  33.987500 # H   
  5072      7  30.615867   9.210104  33.987500 # H   
  5073      8  31.406557   8.597887  33.987500 # O   
  5074      7  12.699375  23.539915  41.987500 # H   
  5075      7  11.117996  23.539915  41.987500 # H   
  5076      8  11.908685  22.927698  41.987500 # O   
  5077      7   7.062332  32.137802  29.987500 # H   
  5078      7   5.480953  32.137802  29.987500 # H   
  5079      8   6.271642  31.525585  29.987500 # O   
  5080      7 -16.120439  26.405877  39.987500 # H   
  5081      7 -17.701819  26.405877  39.987500 # H   
  5082      8 -16.911129  25.793660  39.987500 # O   
  5083      7   2.987004  17.807991  29.987500 # H   
  5084      7   1.405624  17.807991  29.987500 # H   
  5085      8   2.196314  17.195773  29.987500 # O   
  5086      7   9.331775  23.539915  29.987500 # H   
  5087      7   7.750396  23.539915  29.987500 # H   
  5088      8   8.541085  22.927698  29.987500 # O   
  5089      7  22.094447   9.210104  39.987500 # H   
  5090      7  20.513067   9.210104  39.987500 # H   
  5091      8  21.303757   8.597887  39.987500 # O   
  5092      7  10.820361  26.405877  31.987500 # H   
  5093      7   9.238981  26.405877  31.987500 # H   
  5094      8  10.029671  25.793660  31.987500 # O   
  5095      7  23.192604  17.807991  31.987500 # H   
  5096      7  21.611224  17.807991  31.987500 # H   
  5097      8  22.401914  17.195773  31.987500 # O   
  5098      7  -1.869182  14.942028  33.987500 # H   
  5099      7  -3.450561  14.942028  33.987500 # H   
  5100      8  -2.659872  14.329811  33.987500 # O   
  5101      7   5.646875   3.478180  35.987500 # H   
  5102      7   4.065496   3.478180  35.987500 # H   
  5103      8   4.856186   2.865962  35.987500 # O   
  5104      7 -18.389882  35.003764  29.987500 # H   
  5105      7 -19.971262  35.003764  29.987500 # H   
  5106      8 -19.180572  34.391547  29.987500 # O   
  5107      7  19.825004  17.807991  41.987500 # H   
  5108      7  18.243624  17.807991  41.987500 # H   
  5109      8  19.034314  17.195773  41.987500 # O   
  5110      7   0.790690   0.612217  31.987500 # H   
  5111      7  -0.790690   0.612217  31.987500 # H   
  5112      8   0.000000   0.000000  31.987500 # O   
  5113      7 -14.241425  23.539915  33.987500 # H   
  5114      7 -15.822804  23.539915  33.987500 # H   
  5115      8 -15.032115  22.927698  33.987500 # O   
  5116      7  20.996290   0.612217  41.987500 # H   
  5117      7  19.414910   0.612217  41.987500 # H   
  5118      8  20.205600   0.000000  41.987500 # O   
  5119      7 -13.143268  32.137802  39.987500 # H   
  5120      7 -14.724647  32.137802  39.987500 # H   
  5121      8 -13.933958  31.525585  39.987500 # O   
  5122      7  -5.627211  20.673953  31.987500 # H   
  5123      7  -7.208590  20.673953  31.987500 # H   
  5124      8  -6.417900  20.061736  31.987500 # O   
  5125      7  26.950632  12.076066  29.987500 # H   
  5126      7  25.369253  12.076066  29.987500 # H   
  5127      8  26.159943  11.463849  29.987500 # O   
  5128      7  19.117275   3.478180  39.987500 # H   
  5129      7  17.535896   3.478180  39.987500 # H   
  5130      8  18.326586   2.865962  39.987500 # O   
  5131      7  15.749675   3.478180  37.987500 # H   
  5132      7  14.168296   3.478180  37.987500 # H   
  5133      8  14.958986   2.865962  37.987500 # O   
  5134      7  -8.287082  35.003764  39.987500 # H   
  5135      7  -9.868462  35.003764  39.987500 # H   
  5136      8  -9.077772  34.391547  39.987500 # O   
  5137      7  -2.650039  26.405877  31.987500 # H   
  5138      7  -4.231419  26.405877  31.987500 # H   
  5139      8  -3.440729  25.793660  31.987500 # O   
  5140      7   7.452761  26.405877  41.987500 # H   
  5141      7   5.871381  26.405877  41.987500 # H   
  5142      8   6.662071  25.793660  41.987500 # O   
  5143      7  16.457404  17.807991  33.987500 # H   
  5144      7  14.876024  17.807991  33.987500 # H   
  5145      8  15.666714  17.195773  33.987500 # O   
  5146      7  16.457404  17.807991  39.987500 # H   
  5147      7  14.876024  17.807991  39.987500 # H   
  5148      8  15.666714  17.195773  39.987500 # O   
  5149      7  16.847832  12.076066  39.987500 # H   
  5150      7  15.266453  12.076066  39.987500 # H   
  5151      8  16.057143  11.463849  39.987500 # O   
  5152      7  24.681189  20.673953  35.987500 # H   
  5153      7  23.099810  20.673953  35.987500 # H   
  5154      8  23.890500  20.061736  35.987500 # O   
  5155      7  -7.896654  29.271840  41.987500 # H   
  5156      7  -9.478033  29.271840  41.987500 # H   
  5157      8  -8.687343  28.659622  41.987500 # O   
  5158      7   1.888847   9.210104  37.987500 # H   
  5159      7   0.307467   9.210104  37.987500 # H   
  5160      8   1.098157   8.597887  37.987500 # O   
  5161      7  10.429932  32.137802  37.987500 # H   
  5162      7   8.848553  32.137802  37.987500 # H   
  5163      8   9.639242  31.525585  37.987500 # O   
  5164      7  14.261090   0.612217  35.987500 # H   
  5165      7  12.679710   0.612217  35.987500 # H   
  5166      8  13.470400   0.000000  35.987500 # O   
  5167      7  -4.919482  35.003764  35.987500 # H   
  5168      7  -6.500862  35.003764  35.987500 # H   
  5169      8  -5.710172  34.391547  35.987500 # O   
  5170      7  11.918518  35.003764  37.987500 # H   
  5171      7  10.337138  35.003764  37.987500 # H   
  5172      8  11.127828  34.391547  37.987500 # O   
  5173      7 -15.022282  35.003764  33.987500 # H   
  5174      7 -16.603662  35.003764  33.987500 # H   
  5175      8 -15.812972  34.391547  33.987500 # O   
  5176      7  -3.748196  17.807991  37.987500 # H   
  5177      7  -5.329576  17.807991  37.987500 # H   
  5178      8  -4.538886  17.195773  37.987500 # O   
  5179      7  18.726847   9.210104  31.987500 # H   
  5180      7  17.145467   9.210104  31.987500 # H   
  5181      8  17.936157   8.597887  31.987500 # O   
  5182      7  15.359247   9.210104  41.987500 # H   
  5183      7  13.777867   9.210104  41.987500 # H   
  5184      8  14.568557   8.597887  41.987500 # O   
  5185      7  14.187961  26.405877  41.987500 # H   
  5186      7  12.606581  26.405877  41.987500 # H   
  5187      8  13.397271  25.793660  41.987500 # O   
  5188      7   5.964175  23.539915  29.987500 # H   
  5189      7   4.382796  23.539915  29.987500 # H   
  5190      8   5.173485  22.927698  29.987500 # O   
  5191      7  -2.259611  20.673953  29.987500 # H   
  5192      7  -3.840990  20.673953  29.987500 # H   
  5193      8  -3.050300  20.061736  29.987500 # O   
  5194      7  23.973461   6.344142  37.987500 # H   
  5195      7  22.392082   6.344142  37.987500 # H   
  5196      8  23.182771   5.731924  37.987500 # O   
  5197      7  21.313589  20.673953  35.987500 # H   
  5198      7  19.732210  20.673953  35.987500 # H   
  5199      8  20.522900  20.061736  35.987500 # O   
  5200      7  11.918518  35.003764  29.987500 # H   
  5201      7  10.337138  35.003764  29.987500 # H   
  5202      8  11.127828  34.391547  29.987500 # O   
  5203      7   2.596575  23.539915  37.987500 # H   
  5204      7   1.015196  23.539915  37.987500 # H   
  5205      8   1.805885  22.927698  37.987500 # O   
  5206      7  15.676546  29.271840  33.987500 # H   
  5207      7  14.095167  29.271840  33.987500 # H   
  5208      8  14.885857  28.659622  33.987500 # O   
  5209      7 -12.752839  26.405877  31.987500 # H   
  5210      7 -14.334219  26.405877  31.987500 # H   
  5211      8 -13.543529  25.793660  31.987500 # O   
  5212      7  -1.161454  29.271840  29.987500 # H   
  5213      7  -2.742833  29.271840  29.987500 # H   
  5214      8  -1.952143  28.659622  29.987500 # O   
  5215      7  21.704018  14.942028  41.987500 # H   
  5216      7  20.122639  14.942028  41.987500 # H   
  5217      8  20.913328  14.329811  41.987500 # O   
  5218      7 -10.873825  23.539915  31.987500 # H   
  5219      7 -12.455204  23.539915  31.987500 # H   
  5220      8 -11.664515  22.927698  31.987500 # O   
  5221      7  37.834290   0.612217  35.987500 # H   
  5222      7  36.252910   0.612217  35.987500 # H   
  5223      8  37.043600   0.000000  35.987500 # O   
  5224      7   7.525890   0.612217  37.987500 # H   
  5225      7   5.944510   0.612217  37.987500 # H   
  5226      8   6.735200   0.000000  37.987500 # O   
  5227      7  10.893490   0.612217  31.987500 # H   
  5228      7   9.312110   0.612217  31.987500 # H   
  5229      8  10.102800   0.000000  31.987500 # O   
  5230      7   8.233618  14.942028  35.987500 # H   
  5231      7   6.652239  14.942028  35.987500 # H   
  5232      8   7.442928  14.329811  35.987500 # O   
  5233      7   5.183318  35.003764  29.987500 # H   
  5234      7   3.601938  35.003764  29.987500 # H   
  5235      8   4.392628  34.391547  29.987500 # O   
  5236      7  14.578389  20.673953  33.987500 # H   
  5237      7  12.997010  20.673953  33.987500 # H   
  5238      8  13.787700  20.061736  33.987500 # O   
  5239      7  31.099090   0.612217  37.987500 # H   
  5240      7  29.517710   0.612217  37.987500 # H   
  5241      8  30.308400   0.000000  37.987500 # O   
  5242      7 -11.264254  29.271840  29.987500 # H   
  5243      7 -12.845633  29.271840  29.987500 # H   
  5244      8 -12.054943  28.659622  29.987500 # O   
  5245      7  21.704018  14.942028  35.987500 # H   
  5246      7  20.122639  14.942028  35.987500 # H   
  5247      8  20.913328  14.329811  35.987500 # O   
  5248      7  17.555561  26.405877  31.987500 # H   
  5249      7  15.974181  26.405877  31.987500 # H   
  5250      8  16.764871  25.793660  31.987500 # O   
  5251      7  10.503061   6.344142  31.987500 # H   
  5252      7   8.921682   6.344142  31.987500 # H   
  5253      8   9.712371   5.731924  31.987500 # O   
  5254      7  -0.380596  17.807991  37.987500 # H   
  5255      7  -1.961976  17.807991  37.987500 # H   
  5256      8  -1.171286  17.195773  37.987500 # O   
  5257      7  28.829647   9.210104  37.987500 # H   
  5258      7  27.248267   9.210104  37.987500 # H   
  5259      8  28.038957   8.597887  37.987500 # O   
  5260      7  -4.138625  23.539915  31.987500 # H   
  5261      7  -5.720004  23.539915  31.987500 # H   
  5262      8  -4.929315  22.927698  31.987500 # O   
  5263      7  -4.919482  35.003764  37.987500 # H   
  5264      7  -6.500862  35.003764  37.987500 # H   
  5265      8  -5.710172  34.391547  37.987500 # O   
  5266      7   0.400261   6.344142  29.987500 # H   
  5267      7  -1.181118   6.344142  29.987500 # H   
  5268      8  -0.390429   5.731924  29.987500 # O   
  5269      7 -14.241425  23.539915  29.987500 # H   
  5270      7 -15.822804  23.539915  29.987500 # H   
  5271      8 -15.032115  22.927698  29.987500 # O   
  5272      7   2.279275   3.478180  33.987500 # H   
  5273      7   0.697896   3.478180  33.987500 # H   
  5274      8   1.488586   2.865962  33.987500 # O   
  5275      7  -1.088325   3.478180  33.987500 # H   
  5276      7  -2.669704   3.478180  33.987500 # H   
  5277      8  -1.879014   2.865962  33.987500 # O   
  5278      7   8.550918  35.003764  31.987500 # H   
  5279      7   6.969538  35.003764  31.987500 # H   
  5280      8   7.760228  34.391547  31.987500 # O   
  5281      7  -0.380596  17.807991  41.987500 # H   
  5282      7  -1.961976  17.807991  41.987500 # H   
  5283      8  -1.171286  17.195773  41.987500 # O   
  5284      7  17.555561  26.405877  37.987500 # H   
  5285      7  15.974181  26.405877  37.987500 # H   
  5286      8  16.764871  25.793660  37.987500 # O   
  5287      7  10.112632  12.076066  37.987500 # H   
  5288      7   8.531253  12.076066  37.987500 # H   
  5289      8   9.321943  11.463849  37.987500 # O   
  5290      7  27.341061   6.344142  35.987500 # H   
  5291      7  25.759682   6.344142  35.987500 # H   
  5292      8  26.550371   5.731924  35.987500 # O   
  5293      7  14.578389  20.673953  29.987500 # H   
  5294      7  12.997010  20.673953  29.987500 # H   
  5295      8  13.787700  20.061736  29.987500 # O   
  5296      7   2.987004  17.807991  35.987500 # H   
  5297      7   1.405624  17.807991  35.987500 # H   
  5298      8   2.196314  17.195773  35.987500 # O   
  5299      7  10.893490   0.612217  29.987500 # H   
  5300      7   9.312110   0.612217  29.987500 # H   
  5301      8  10.102800   0.000000  29.987500 # O   
  5302      7  20.996290   0.612217  35.987500 # H   
  5303      7  19.414910   0.612217  35.987500 # H   
  5304      8  20.205600   0.000000  35.987500 # O   
  5305      7   6.745032  12.076066  35.987500 # H   
  5306      7   5.163653  12.076066  35.987500 # H   
  5307      8   5.954343  11.463849  35.987500 # O   
  5308      7  10.429932  32.137802  35.987500 # H   
  5309      7   8.848553  32.137802  35.987500 # H   
  5310      8   9.639242  31.525585  35.987500 # O   
  5311      7  20.923161  26.405877  41.987500 # H   
  5312      7  19.341781  26.405877  41.987500 # H   
  5313      8  20.132471  25.793660  41.987500 # O   
  5314      7  15.359247   9.210104  39.987500 # H   
  5315      7  13.777867   9.210104  39.987500 # H   
  5316      8  14.568557   8.597887  39.987500 # O   
  5317      7   7.062332  32.137802  39.987500 # H   
  5318      7   5.480953  32.137802  39.987500 # H   
  5319      8   6.271642  31.525585  39.987500 # O   
  5320      7 -17.999454  29.271840  35.987500 # H   
  5321      7 -19.580833  29.271840  35.987500 # H   
  5322      8 -18.790143  28.659622  35.987500 # O   
  5323      7   8.233618  14.942028  41.987500 # H   
  5324      7   6.652239  14.942028  41.987500 # H   
  5325      8   7.442928  14.329811  41.987500 # O   
  5326      7 -16.120439  26.405877  31.987500 # H   
  5327      7 -17.701819  26.405877  31.987500 # H   
  5328      8 -16.911129  25.793660  31.987500 # O   
  5329      7  37.834290   0.612217  37.987500 # H   
  5330      7  36.252910   0.612217  37.987500 # H   
  5331      8  37.043600   0.000000  37.987500 # O   
  5332      7   8.550918  35.003764  39.987500 # H   
  5333      7   6.969538  35.003764  39.987500 # H   
  5334      8   7.760228  34.391547  39.987500 # O   
  5335      7  -9.775668  32.137802  31.987500 # H   
  5336      7 -11.357047  32.137802  31.987500 # H   
  5337      8 -10.566358  31.525585  31.987500 # O   
  5338      7   9.014475   3.478180  31.987500 # H   
  5339      7   7.433096   3.478180  31.987500 # H   
  5340      8   8.223786   2.865962  31.987500 # O   
  5341      7   7.062332  32.137802  33.987500 # H   
  5342      7   5.480953  32.137802  33.987500 # H   
  5343      8   6.271642  31.525585  33.987500 # O   
  5344      7  31.099090   0.612217  35.987500 # H   
  5345      7  29.517710   0.612217  35.987500 # H   
  5346      8  30.308400   0.000000  35.987500 # O   
  5347      7  27.341061   6.344142  37.987500 # H   
  5348      7  25.759682   6.344142  37.987500 # H   
  5349      8  26.550371   5.731924  37.987500 # O   
  5350      7   8.941346  29.271840  29.987500 # H   
  5351      7   7.359967  29.271840  29.987500 # H   
  5352      8   8.150657  28.659622  29.987500 # O   
  5353      7  22.484875   3.478180  37.987500 # H   
  5354      7  20.903496   3.478180  37.987500 # H   
  5355      8  21.694186   2.865962  37.987500 # O   
  5356      7  13.089804  17.807991  33.987500 # H   
  5357      7  11.508424  17.807991  33.987500 # H   
  5358      8  12.299114  17.195773  33.987500 # O   
  5359      7  19.044146  29.271840  35.987500 # H   
  5360      7  17.462767  29.271840  35.987500 # H   
  5361      8  18.253457  28.659622  35.987500 # O   
  5362      7  19.434575  23.539915  31.987500 # H   
  5363      7  17.853196  23.539915  31.987500 # H   
  5364      8  18.643885  22.927698  31.987500 # O   
  5365      7  16.847832  12.076066  35.987500 # H   
  5366      7  15.266453  12.076066  35.987500 # H   
  5367      8  16.057143  11.463849  35.987500 # O   
  5368      7  16.066975  23.539915  31.987500 # H   
  5369      7  14.485596  23.539915  31.987500 # H   
  5370      8  15.276285  22.927698  31.987500 # O   
  5371      7  12.382075   3.478180  35.987500 # H   
  5372      7  10.800696   3.478180  35.987500 # H   
  5373      8  11.591386   2.865962  35.987500 # O   
  5374      7  29.220075   3.478180  41.987500 # H   
  5375      7  27.638696   3.478180  41.987500 # H   
  5376      8  28.429386   2.865962  41.987500 # O   
  5377      7  27.731490   0.612217  37.987500 # H   
  5378      7  26.150110   0.612217  37.987500 # H   
  5379      8  26.940800   0.000000  37.987500 # O   
  5380      7  -5.627211  20.673953  29.987500 # H   
  5381      7  -7.208590  20.673953  29.987500 # H   
  5382      8  -6.417900  20.061736  29.987500 # O   
  5383      7   8.624047   9.210104  41.987500 # H   
  5384      7   7.042667   9.210104  41.987500 # H   
  5385      8   7.833357   8.597887  41.987500 # O   
  5386      7   5.646875   3.478180  41.987500 # H   
  5387      7   4.065496   3.478180  41.987500 # H   
  5388      8   4.856186   2.865962  41.987500 # O   
  5389      7  20.215432  12.076066  33.987500 # H   
  5390      7  18.634053  12.076066  33.987500 # H   
  5391      8  19.424743  11.463849  33.987500 # O   
  5392      7  -4.138625  23.539915  29.987500 # H   
  5393      7  -5.720004  23.539915  29.987500 # H   
  5394      8  -4.929315  22.927698  29.987500 # O   
  5395      7  10.820361  26.405877  37.987500 # H   
  5396      7   9.238981  26.405877  37.987500 # H   
  5397      8  10.029671  25.793660  37.987500 # O   
  5398      7   9.014475   3.478180  35.987500 # H   
  5399      7   7.433096   3.478180  35.987500 # H   
  5400      8   8.223786   2.865962  35.987500 # O   
  5401      7  14.187961  26.405877  37.987500 # H   
  5402      7  12.606581  26.405877  37.987500 # H   
  5403      8  13.397271  25.793660  37.987500 # O   
  5404      7  23.192604  17.807991  39.987500 # H   
  5405      7  21.611224  17.807991  39.987500 # H   
  5406      8  22.401914  17.195773  39.987500 # O   
  5407      7 -15.022282  35.003764  29.987500 # H   
  5408      7 -16.603662  35.003764  29.987500 # H   
  5409      8 -15.812972  34.391547  29.987500 # O   
  5410      7  10.820361  26.405877  33.987500 # H   
  5411      7   9.238981  26.405877  33.987500 # H   
  5412      8  10.029671  25.793660  33.987500 # O   
  5413      7  -8.287082  35.003764  33.987500 # H   
  5414      7  -9.868462  35.003764  33.987500 # H   
  5415      8  -9.077772  34.391547  33.987500 # O   
  5416      7  -7.506225  23.539915  31.987500 # H   
  5417      7  -9.087604  23.539915  31.987500 # H   
  5418      8  -8.296915  22.927698  31.987500 # O   
  5419      7  14.261090   0.612217  33.987500 # H   
  5420      7  12.679710   0.612217  33.987500 # H   
  5421      8  13.470400   0.000000  33.987500 # O   
  5422      7   5.964175  23.539915  35.987500 # H   
  5423      7   4.382796  23.539915  35.987500 # H   
  5424      8   5.173485  22.927698  35.987500 # O   
  5425      7  11.210789  20.673953  39.987500 # H   
  5426      7   9.629410  20.673953  39.987500 # H   
  5427      8  10.420100  20.061736  39.987500 # O   
  5428      7  17.165132  32.137802  29.987500 # H   
  5429      7  15.583753  32.137802  29.987500 # H   
  5430      8  16.374442  31.525585  29.987500 # O   
  5431      7  19.117275   3.478180  29.987500 # H   
  5432      7  17.535896   3.478180  29.987500 # H   
  5433      8  18.326586   2.865962  29.987500 # O   
  5434      7  25.462047   9.210104  37.987500 # H   
  5435      7  23.880667   9.210104  37.987500 # H   
  5436      8  24.671357   8.597887  37.987500 # O   
  5437      7  23.192604  17.807991  37.987500 # H   
  5438      7  21.611224  17.807991  37.987500 # H   
  5439      8  22.401914  17.195773  37.987500 # O   
  5440      7  14.578389  20.673953  41.987500 # H   
  5441      7  12.997010  20.673953  41.987500 # H   
  5442      8  13.787700  20.061736  41.987500 # O   
  5443      7 -10.873825  23.539915  29.987500 # H   
  5444      7 -12.455204  23.539915  29.987500 # H   
  5445      8 -11.664515  22.927698  29.987500 # O   
  5446      7  28.439218  14.942028  29.987500 # H   
  5447      7  26.857839  14.942028  29.987500 # H   
  5448      8  27.648528  14.329811  29.987500 # O   
  5449      7   5.573746  29.271840  31.987500 # H   
  5450      7   3.992367  29.271840  31.987500 # H   
  5451      8   4.783057  28.659622  31.987500 # O   
  5452      7  28.829647   9.210104  31.987500 # H   
  5453      7  27.248267   9.210104  31.987500 # H   
  5454      8  28.038957   8.597887  31.987500 # O   
  5455      7  22.802175  23.539915  31.987500 # H   
  5456      7  21.220796  23.539915  31.987500 # H   
  5457      8  22.011485  22.927698  31.987500 # O   
  5458      7  26.560204  17.807991  33.987500 # H   
  5459      7  24.978824  17.807991  33.987500 # H   
  5460      8  25.769514  17.195773  33.987500 # O   
  5461      7   4.475589  20.673953  33.987500 # H   
  5462      7   2.894210  20.673953  33.987500 # H   
  5463      8   3.684900  20.061736  33.987500 # O   
  5464      7  -1.088325   3.478180  35.987500 # H   
  5465      7  -2.669704   3.478180  35.987500 # H   
  5466      8  -1.879014   2.865962  35.987500 # O   
  5467      7 -21.757482  35.003764  35.987500 # H   
  5468      7 -23.338862  35.003764  35.987500 # H   
  5469      8 -22.548172  34.391547  35.987500 # O   
  5470      7  21.704018  14.942028  29.987500 # H   
  5471      7  20.122639  14.942028  29.987500 # H   
  5472      8  20.913328  14.329811  29.987500 # O   
  5473      7  24.363890   0.612217  39.987500 # H   
  5474      7  22.782510   0.612217  39.987500 # H   
  5475      8  23.573200   0.000000  39.987500 # O   
  5476      7 -10.483396  17.807991  33.987500 # H   
  5477      7 -12.064776  17.807991  33.987500 # H   
  5478      8 -11.274086  17.195773  33.987500 # O   
  5479      7   3.767861   6.344142  29.987500 # H   
  5480      7   2.186482   6.344142  29.987500 # H   
  5481      8   2.977171   5.731924  29.987500 # O   
  5482      7   5.183318  35.003764  41.987500 # H   
  5483      7   3.601938  35.003764  41.987500 # H   
  5484      8   4.392628  34.391547  41.987500 # O   
  5485      7  13.480232  12.076066  33.987500 # H   
  5486      7  11.898853  12.076066  33.987500 # H   
  5487      8  12.689543  11.463849  33.987500 # O   
  5488      7  -8.287082  35.003764  35.987500 # H   
  5489      7  -9.868462  35.003764  35.987500 # H   
  5490      8  -9.077772  34.391547  35.987500 # O   
  5491      7  11.601218  14.942028  29.987500 # H   
  5492      7  10.019839  14.942028  29.987500 # H   
  5493      8  10.810528  14.329811  29.987500 # O   
  5494      7  16.457404  17.807991  41.987500 # H   
  5495      7  14.876024  17.807991  41.987500 # H   
  5496      8  15.666714  17.195773  41.987500 # O   
  5497      7  20.605861   6.344142  37.987500 # H   
  5498      7  19.024482   6.344142  37.987500 # H   
  5499      8  19.815171   5.731924  37.987500 # O   
  5500      7  20.923161  26.405877  33.987500 # H   
  5501      7  19.341781  26.405877  33.987500 # H   
  5502      8  20.132471  25.793660  33.987500 # O   
  5503      7  -4.846353   9.210104  41.987500 # H   
  5504      7  -6.427733   9.210104  41.987500 # H   
  5505      8  -5.637043   8.597887  41.987500 # O   
  5506      7  22.802175  23.539915  37.987500 # H   
  5507      7  21.220796  23.539915  37.987500 # H   
  5508      8  22.011485  22.927698  37.987500 # O   
  5509      7 -21.757482  35.003764  37.987500 # H   
  5510      7 -23.338862  35.003764  37.987500 # H   
  5511      8 -22.548172  34.391547  37.987500 # O   
  5512      7 -10.873825  23.539915  33.987500 # H   
  5513      7 -12.455204  23.539915  33.987500 # H   
  5514      8 -11.664515  22.927698  33.987500 # O   
  5515      7  17.238261   6.344142  35.987500 # H   
  5516      7  15.656882   6.344142  35.987500 # H   
  5517      8  16.447571   5.731924  35.987500 # O   
  5518      7  32.587675   3.478180  41.987500 # H   
  5519      7  31.006296   3.478180  41.987500 # H   
  5520      8  31.796986   2.865962  41.987500 # O   
  5521      7 -16.510868  32.137802  29.987500 # H   
  5522      7 -18.092247  32.137802  29.987500 # H   
  5523      8 -17.301558  31.525585  29.987500 # O   
  5524      7  -7.896654  29.271840  31.987500 # H   
  5525      7  -9.478033  29.271840  31.987500 # H   
  5526      8  -8.687343  28.659622  31.987500 # O   
  5527      7  -3.748196  17.807991  39.987500 # H   
  5528      7  -5.329576  17.807991  39.987500 # H   
  5529      8  -4.538886  17.195773  39.987500 # O   
  5530      7  -1.869182  14.942028  29.987500 # H   
  5531      7  -3.450561  14.942028  29.987500 # H   
  5532      8  -2.659872  14.329811  29.987500 # O   
  5533      7  -4.846353   9.210104  31.987500 # H   
  5534      7  -6.427733   9.210104  31.987500 # H   
  5535      8  -5.637043   8.597887  31.987500 # O   
  5536      7   7.062332  32.137802  37.987500 # H   
  5537      7   5.480953  32.137802  37.987500 # H   
  5538      8   6.271642  31.525585  37.987500 # O   
  5539      7  25.462047   9.210104  41.987500 # H   
  5540      7  23.880667   9.210104  41.987500 # H   
  5541      8  24.671357   8.597887  41.987500 # O   
  5542      7 -18.389882  35.003764  41.987500 # H   
  5543      7 -19.971262  35.003764  41.987500 # H   
  5544      8 -19.180572  34.391547  41.987500 # O   
  5545      7  18.726847   9.210104  41.987500 # H   
  5546      7  17.145467   9.210104  41.987500 # H   
  5547      8  17.936157   8.597887  41.987500 # O   
  5548      7  19.117275   3.478180  41.987500 # H   
  5549      7  17.535896   3.478180  41.987500 # H   
  5550      8  18.326586   2.865962  41.987500 # O   
  5551      7  -7.115796  17.807991  31.987500 # H   
  5552      7  -8.697176  17.807991  31.987500 # H   
  5553      8  -7.906486  17.195773  31.987500 # O   
  5554      7 -11.654682  35.003764  33.987500 # H   
  5555      7 -13.236062  35.003764  33.987500 # H   
  5556      8 -12.445372  34.391547  33.987500 # O   
  5557      7  -6.725368  12.076066  33.987500 # H   
  5558      7  -8.306747  12.076066  33.987500 # H   
  5559      8  -7.516057  11.463849  33.987500 # O   
  5560      7  22.094447   9.210104  29.987500 # H   
  5561      7  20.513067   9.210104  29.987500 # H   
  5562      8  21.303757   8.597887  29.987500 # O   
  5563      7   3.767861   6.344142  39.987500 # H   
  5564      7   2.186482   6.344142  39.987500 # H   
  5565      8   2.977171   5.731924  39.987500 # O   
  5566      7  22.094447   9.210104  31.987500 # H   
  5567      7  20.513067   9.210104  31.987500 # H   
  5568      8  21.303757   8.597887  31.987500 # O   
  5569      7   9.014475   3.478180  33.987500 # H   
  5570      7   7.433096   3.478180  33.987500 # H   
  5571      8   8.223786   2.865962  33.987500 # O   
  5572      7   9.722204  17.807991  33.987500 # H   
  5573      7   8.140824  17.807991  33.987500 # H   
  5574      8   8.931514  17.195773  33.987500 # O   
  5575      7   2.596575  23.539915  39.987500 # H   
  5576      7   1.015196  23.539915  39.987500 # H   
  5577      8   1.805885  22.927698  39.987500 # O   
  5578      7  17.945989  20.673953  35.987500 # H   
  5579      7  16.364610  20.673953  35.987500 # H   
  5580      8  17.155300  20.061736  35.987500 # O   
  5581      7 -14.241425  23.539915  37.987500 # H   
  5582      7 -15.822804  23.539915  37.987500 # H   
  5583      8 -15.032115  22.927698  37.987500 # O   
  5584      7   8.233618  14.942028  31.987500 # H   
  5585      7   6.652239  14.942028  31.987500 # H   
  5586      8   7.442928  14.329811  31.987500 # O   
  5587      7  23.192604  17.807991  33.987500 # H   
  5588      7  21.611224  17.807991  33.987500 # H   
  5589      8  22.401914  17.195773  33.987500 # O   
  5590      7  35.955275   3.478180  31.987500 # H   
  5591      7  34.373896   3.478180  31.987500 # H   
  5592      8  35.164586   2.865962  31.987500 # O   
  5593      7   1.888847   9.210104  33.987500 # H   
  5594      7   0.307467   9.210104  33.987500 # H   
  5595      8   1.098157   8.597887  33.987500 # O   
  5596      7  -2.967339   6.344142  41.987500 # H   
  5597      7  -4.548718   6.344142  41.987500 # H   
  5598      8  -3.758029   5.731924  41.987500 # O   
  5599      7  19.434575  23.539915  41.987500 # H   
  5600      7  17.853196  23.539915  41.987500 # H   
  5601      8  18.643885  22.927698  41.987500 # O   
  5602      7  20.605861   6.344142  33.987500 # H   
  5603      7  19.024482   6.344142  33.987500 # H   
  5604      8  19.815171   5.731924  33.987500 # O   
  5605      7  15.749675   3.478180  29.987500 # H   
  5606      7  14.168296   3.478180  29.987500 # H   
  5607      8  14.958986   2.865962  29.987500 # O   
  5608      7   0.717561  26.405877  39.987500 # H   
  5609      7  -0.863819  26.405877  39.987500 # H   
  5610      8  -0.073129  25.793660  39.987500 # O   
  5611      7   1.815718  35.003764  35.987500 # H   
  5612      7   0.234338  35.003764  35.987500 # H   
  5613      8   1.025028  34.391547  35.987500 # O   
  5614      7  17.555561  26.405877  39.987500 # H   
  5615      7  15.974181  26.405877  39.987500 # H   
  5616      8  16.764871  25.793660  39.987500 # O   
  5617      7  18.336418  14.942028  33.987500 # H   
  5618      7  16.755039  14.942028  33.987500 # H   
  5619      8  17.545728  14.329811  33.987500 # O   
  5620      7  -8.994811  20.673953  29.987500 # H   
  5621      7 -10.576190  20.673953  29.987500 # H   
  5622      8  -9.785500  20.061736  29.987500 # O   
  5623      7  23.583032  12.076066  35.987500 # H   
  5624      7  22.001653  12.076066  35.987500 # H   
  5625      8  22.792343  11.463849  35.987500 # O   
  5626      7  10.820361  26.405877  35.987500 # H   
  5627      7   9.238981  26.405877  35.987500 # H   
  5628      8  10.029671  25.793660  35.987500 # O   
  5629      7   7.525890   0.612217  39.987500 # H   
  5630      7   5.944510   0.612217  39.987500 # H   
  5631      8   6.735200   0.000000  39.987500 # O   
  5632      7  15.749675   3.478180  41.987500 # H   
  5633      7  14.168296   3.478180  41.987500 # H   
  5634      8  14.958986   2.865962  41.987500 # O   
  5635      7   6.354604  17.807991  41.987500 # H   
  5636      7   4.773224  17.807991  41.987500 # H   
  5637      8   5.563914  17.195773  41.987500 # O   
  5638      7  11.601218  14.942028  39.987500 # H   
  5639      7  10.019839  14.942028  39.987500 # H   
  5640      8  10.810528  14.329811  39.987500 # O   
  5641      7  23.583032  12.076066  33.987500 # H   
  5642      7  22.001653  12.076066  33.987500 # H   
  5643      8  22.792343  11.463849  33.987500 # O   
  5644      7  31.099090   0.612217  31.987500 # H   
  5645      7  29.517710   0.612217  31.987500 # H   
  5646      8  30.308400   0.000000  31.987500 # O   
  5647      7   3.694732  32.137802  39.987500 # H   
  5648      7   2.113353  32.137802  39.987500 # H   
  5649      8   2.904042  31.525585  39.987500 # O   
  5650      7  -0.771025  23.539915  37.987500 # H   
  5651      7  -2.352404  23.539915  37.987500 # H   
  5652      8  -1.561715  22.927698  37.987500 # O   
  5653      7   8.941346  29.271840  39.987500 # H   
  5654      7   7.359967  29.271840  39.987500 # H   
  5655      8   8.150657  28.659622  39.987500 # O   
  5656      7  -7.896654  29.271840  33.987500 # H   
  5657      7  -9.478033  29.271840  33.987500 # H   
  5658      8  -8.687343  28.659622  33.987500 # O   
  5659      7  26.950632  12.076066  41.987500 # H   
  5660      7  25.369253  12.076066  41.987500 # H   
  5661      8  26.159943  11.463849  41.987500 # O   
  5662      7   0.009832  12.076066  31.987500 # H   
  5663      7  -1.571547  12.076066  31.987500 # H   
  5664      8  -0.780857  11.463849  31.987500 # O   
  5665      7   0.400261   6.344142  35.987500 # H   
  5666      7  -1.181118   6.344142  35.987500 # H   
  5667      8  -0.390429   5.731924  35.987500 # O   
  5668      7 -12.752839  26.405877  29.987500 # H   
  5669      7 -14.334219  26.405877  29.987500 # H   
  5670      8 -13.543529  25.793660  29.987500 # O   
  5671      7  24.363890   0.612217  41.987500 # H   
  5672      7  22.782510   0.612217  41.987500 # H   
  5673      8  23.573200   0.000000  41.987500 # O   
  5674      7   5.256447   9.210104  29.987500 # H   
  5675      7   3.675067   9.210104  29.987500 # H   
  5676      8   4.465757   8.597887  29.987500 # O   
  5677      7  31.099090   0.612217  41.987500 # H   
  5678      7  29.517710   0.612217  41.987500 # H   
  5679      8  30.308400   0.000000  41.987500 # O   
  5680      7   2.206146  29.271840  39.987500 # H   
  5681      7   0.624767  29.271840  39.987500 # H   
  5682      8   1.415457  28.659622  39.987500 # O   
  5683      7  16.457404  17.807991  35.987500 # H   
  5684      7  14.876024  17.807991  35.987500 # H   
  5685      8  15.666714  17.195773  35.987500 # O   
  5686      7   1.498418  14.942028  31.987500 # H   
  5687      7  -0.082961  14.942028  31.987500 # H   
  5688      8   0.707728  14.329811  31.987500 # O   
  5689      7  23.192604  17.807991  29.987500 # H   
  5690      7  21.611224  17.807991  29.987500 # H   
  5691      8  22.401914  17.195773  29.987500 # O   
  5692      7 -14.631854  29.271840  31.987500 # H   
  5693      7 -16.213233  29.271840  31.987500 # H   
  5694      8 -15.422543  28.659622  31.987500 # O   
  5695      7  13.870661   6.344142  41.987500 # H   
  5696      7  12.289282   6.344142  41.987500 # H   
  5697      8  13.079971   5.731924  41.987500 # O   
  5698      7  34.466690   0.612217  37.987500 # H   
  5699      7  32.885310   0.612217  37.987500 # H   
  5700      8  33.676000   0.000000  37.987500 # O   
  5701      7  -6.408068  32.137802  33.987500 # H   
  5702      7  -7.989447  32.137802  33.987500 # H   
  5703      8  -7.198758  31.525585  33.987500 # O   
  5704      7  -2.259611  20.673953  35.987500 # H   
  5705      7  -3.840990  20.673953  35.987500 # H   
  5706      8  -3.050300  20.061736  35.987500 # O   
  5707      7  31.099090   0.612217  29.987500 # H   
  5708      7  29.517710   0.612217  29.987500 # H   
  5709      8  30.308400   0.000000  29.987500 # O   
  5710      7  11.918518  35.003764  41.987500 # H   
  5711      7  10.337138  35.003764  41.987500 # H   
  5712      8  11.127828  34.391547  41.987500 # O   
  5713      7   9.722204  17.807991  41.987500 # H   
  5714      7   8.140824  17.807991  41.987500 # H   
  5715      8   8.931514  17.195773  41.987500 # O   
  5716      7  -3.357768  12.076066  39.987500 # H   
  5717      7  -4.939147  12.076066  39.987500 # H   
  5718      8  -4.148457  11.463849  39.987500 # O   
  5719      7  -8.604382  14.942028  37.987500 # H   
  5720      7 -10.185761  14.942028  37.987500 # H   
  5721      8  -9.395072  14.329811  37.987500 # O   
  5722      7  25.071618  14.942028  37.987500 # H   
  5723      7  23.490239  14.942028  37.987500 # H   
  5724      8  24.280928  14.329811  37.987500 # O   
  5725      7  14.187961  26.405877  35.987500 # H   
  5726      7  12.606581  26.405877  35.987500 # H   
  5727      8  13.397271  25.793660  35.987500 # O   
  5728      7   3.377432  12.076066  41.987500 # H   
  5729      7   1.796053  12.076066  41.987500 # H   
  5730      8   2.586743  11.463849  41.987500 # O   
  5731      7 -14.241425  23.539915  39.987500 # H   
  5732      7 -15.822804  23.539915  39.987500 # H   
  5733      8 -15.032115  22.927698  39.987500 # O   
  5734      7  16.066975  23.539915  39.987500 # H   
  5735      7  14.485596  23.539915  39.987500 # H   
  5736      8  15.276285  22.927698  39.987500 # O   
  5737      7  20.215432  12.076066  37.987500 # H   
  5738      7  18.634053  12.076066  37.987500 # H   
  5739      8  19.424743  11.463849  37.987500 # O   
  5740      7   1.498418  14.942028  37.987500 # H   
  5741      7  -0.082961  14.942028  37.987500 # H   
  5742      8   0.707728  14.329811  37.987500 # O   
  5743      7  -3.357768  12.076066  33.987500 # H   
  5744      7  -4.939147  12.076066  33.987500 # H   
  5745      8  -4.148457  11.463849  33.987500 # O   
  5746      7  -8.604382  14.942028  35.987500 # H   
  5747      7 -10.185761  14.942028  35.987500 # H   
  5748      8  -9.395072  14.329811  35.987500 # O   
  5749      7  16.847832  12.076066  33.987500 # H   
  5750      7  15.266453  12.076066  33.987500 # H   
  5751      8  16.057143  11.463849  33.987500 # O   
  5752      7  11.991647   9.210104  33.987500 # H   
  5753      7  10.410267   9.210104  33.987500 # H   
  5754      8  11.200957   8.597887  33.987500 # O   
  5755      7 -12.752839  26.405877  37.987500 # H   
  5756      7 -14.334219  26.405877  37.987500 # H   
  5757      8 -13.543529  25.793660  37.987500 # O   
  5758      7  -8.287082  35.003764  29.987500 # H   
  5759      7  -9.868462  35.003764  29.987500 # H   
  5760      8  -9.077772  34.391547  29.987500 # O   
  5761      7   2.596575  23.539915  31.987500 # H   
  5762      7   1.015196  23.539915  31.987500 # H   
  5763      8   1.805885  22.927698  31.987500 # O   
  5764      7  34.076261   6.344142  29.987500 # H   
  5765      7  32.494882   6.344142  29.987500 # H   
  5766      8  33.285571   5.731924  29.987500 # O   
  5767      7  28.439218  14.942028  33.987500 # H   
  5768      7  26.857839  14.942028  33.987500 # H   
  5769      8  27.648528  14.329811  33.987500 # O   
  5770      7  12.382075   3.478180  33.987500 # H   
  5771      7  10.800696   3.478180  33.987500 # H   
  5772      8  11.591386   2.865962  33.987500 # O   
  5773      7 -13.143268  32.137802  37.987500 # H   
  5774      7 -14.724647  32.137802  37.987500 # H   
  5775      8 -13.933958  31.525585  37.987500 # O   
  5776      7  -2.259611  20.673953  33.987500 # H   
  5777      7  -3.840990  20.673953  33.987500 # H   
  5778      8  -3.050300  20.061736  33.987500 # O   
  5779      7 -19.878468  32.137802  39.987500 # H   
  5780      7 -21.459847  32.137802  39.987500 # H   
  5781      8 -20.669158  31.525585  39.987500 # O   
  5782      7  22.484875   3.478180  29.987500 # H   
  5783      7  20.903496   3.478180  29.987500 # H   
  5784      8  21.694186   2.865962  29.987500 # O   
  5785      7  13.797532  32.137802  39.987500 # H   
  5786      7  12.216153  32.137802  39.987500 # H   
  5787      8  13.006842  31.525585  39.987500 # O   
  5788      7 -21.757482  35.003764  39.987500 # H   
  5789      7 -23.338862  35.003764  39.987500 # H   
  5790      8 -22.548172  34.391547  39.987500 # O   
  5791      7   7.452761  26.405877  33.987500 # H   
  5792      7   5.871381  26.405877  33.987500 # H   
  5793      8   6.662071  25.793660  33.987500 # O   
  5794      7  12.382075   3.478180  31.987500 # H   
  5795      7  10.800696   3.478180  31.987500 # H   
  5796      8  11.591386   2.865962  31.987500 # O   
  5797      7   7.525890   0.612217  41.987500 # H   
  5798      7   5.944510   0.612217  41.987500 # H   
  5799      8   6.735200   0.000000  41.987500 # O   
  5800      7   7.843189  20.673953  29.987500 # H   
  5801      7   6.261810  20.673953  29.987500 # H   
  5802      8   7.052500  20.061736  29.987500 # O   
  5803      7  -6.408068  32.137802  39.987500 # H   
  5804      7  -7.989447  32.137802  39.987500 # H   
  5805      8  -7.198758  31.525585  39.987500 # O   
  5806      7  15.749675   3.478180  39.987500 # H   
  5807      7  14.168296   3.478180  39.987500 # H   
  5808      8  14.958986   2.865962  39.987500 # O   
  5809      7   1.888847   9.210104  41.987500 # H   
  5810      7   0.307467   9.210104  41.987500 # H   
  5811      8   1.098157   8.597887  41.987500 # O   
  5812      7  20.605861   6.344142  29.987500 # H   
  5813      7  19.024482   6.344142  29.987500 # H   
  5814      8  19.815171   5.731924  29.987500 # O   
  5815      7  -2.967339   6.344142  35.987500 # H   
  5816      7  -4.548718   6.344142  35.987500 # H   
  5817      8  -3.758029   5.731924  35.987500 # O   
  5818      7  -0.771025  23.539915  39.987500 # H   
  5819      7  -2.352404  23.539915  39.987500 # H   
  5820      8  -1.561715  22.927698  39.987500 # O   
  5821      7  -6.408068  32.137802  29.987500 # H   
  5822      7  -7.989447  32.137802  29.987500 # H   
  5823      8  -7.198758  31.525585  29.987500 # O   
  5824      7   7.135461   6.344142  29.987500 # H   
  5825      7   5.554082   6.344142  29.987500 # H   
  5826      8   6.344771   5.731924  29.987500 # O   
  5827      7  -2.259611  20.673953  39.987500 # H   
  5828      7  -3.840990  20.673953  39.987500 # H   
  5829      8  -3.050300  20.061736  39.987500 # O   
  5830      7  25.462047   9.210104  35.987500 # H   
  5831      7  23.880667   9.210104  35.987500 # H   
  5832      8  24.671357   8.597887  35.987500 # O   
  5833      7  34.076261   6.344142  33.987500 # H   
  5834      7  32.494882   6.344142  33.987500 # H   
  5835      8  33.285571   5.731924  33.987500 # O   
  5836      7  18.336418  14.942028  37.987500 # H   
  5837      7  16.755039  14.942028  37.987500 # H   
  5838      8  17.545728  14.329811  37.987500 # O   
  5839      7   3.377432  12.076066  35.987500 # H   
  5840      7   1.796053  12.076066  35.987500 # H   
  5841      8   2.586743  11.463849  35.987500 # O   
  5842      7   7.452761  26.405877  31.987500 # H   
  5843      7   5.871381  26.405877  31.987500 # H   
  5844      8   6.662071  25.793660  31.987500 # O   
  5845      7   9.722204  17.807991  31.987500 # H   
  5846      7   8.140824  17.807991  31.987500 # H   
  5847      8   8.931514  17.195773  31.987500 # O   
  5848      7  14.261090   0.612217  29.987500 # H   
  5849      7  12.679710   0.612217  29.987500 # H   
  5850      8  13.470400   0.000000  29.987500 # O   
  5851      7   8.233618  14.942028  33.987500 # H   
  5852      7   6.652239  14.942028  33.987500 # H   
  5853      8   7.442928  14.329811  33.987500 # O   
  5854      7  19.117275   3.478180  35.987500 # H   
  5855      7  17.535896   3.478180  35.987500 # H   
  5856      8  18.326586   2.865962  35.987500 # O   
  5857      7  25.852475   3.478180  29.987500 # H   
  5858      7  24.271096   3.478180  29.987500 # H   
  5859      8  25.061786   2.865962  29.987500 # O   
  5860      7  18.726847   9.210104  29.987500 # H   
  5861      7  17.145467   9.210104  29.987500 # H   
  5862      8  17.936157   8.597887  29.987500 # O   
  5863      7  15.286118  35.003764  41.987500 # H   
  5864      7  13.704738  35.003764  41.987500 # H   
  5865      8  14.495428  34.391547  41.987500 # O   
  5866      7  18.726847   9.210104  35.987500 # H   
  5867      7  17.145467   9.210104  35.987500 # H   
  5868      8  17.936157   8.597887  35.987500 # O   
  5869      7  18.336418  14.942028  29.987500 # H   
  5870      7  16.755039  14.942028  29.987500 # H   
  5871      8  17.545728  14.329811  29.987500 # O   
  5872      7 -17.999454  29.271840  31.987500 # H   
  5873      7 -19.580833  29.271840  31.987500 # H   
  5874      8 -18.790143  28.659622  31.987500 # O   
  5875      7  13.797532  32.137802  41.987500 # H   
  5876      7  12.216153  32.137802  41.987500 # H   
  5877      8  13.006842  31.525585  41.987500 # O   
  5878      7   6.745032  12.076066  39.987500 # H   
  5879      7   5.163653  12.076066  39.987500 # H   
  5880      8   5.954343  11.463849  39.987500 # O   
  5881      7  26.950632  12.076066  39.987500 # H   
  5882      7  25.369253  12.076066  39.987500 # H   
  5883      8  26.159943  11.463849  39.987500 # O   
  5884      7  28.829647   9.210104  39.987500 # H   
  5885      7  27.248267   9.210104  39.987500 # H   
  5886      8  28.038957   8.597887  39.987500 # O   
  5887      7  -9.385239  26.405877  37.987500 # H   
  5888      7 -10.966619  26.405877  37.987500 # H   
  5889      8 -10.175929  25.793660  37.987500 # O   
  5890      7  -7.506225  23.539915  35.987500 # H   
  5891      7  -9.087604  23.539915  35.987500 # H   
  5892      8  -8.296915  22.927698  35.987500 # O   
  5893      7 -11.654682  35.003764  35.987500 # H   
  5894      7 -13.236062  35.003764  35.987500 # H   
  5895      8 -12.445372  34.391547  35.987500 # O   
  5896      7  22.484875   3.478180  31.987500 # H   
  5897      7  20.903496   3.478180  31.987500 # H   
  5898      8  21.694186   2.865962  31.987500 # O   
  5899      7  13.870661   6.344142  37.987500 # H   
  5900      7  12.289282   6.344142  37.987500 # H   
  5901      8  13.079971   5.731924  37.987500 # O   
  5902      7   2.596575  23.539915  41.987500 # H   
  5903      7   1.015196  23.539915  41.987500 # H   
  5904      8   1.805885  22.927698  41.987500 # O   
  5905      7  23.583032  12.076066  29.987500 # H   
  5906      7  22.001653  12.076066  29.987500 # H   
  5907      8  22.792343  11.463849  29.987500 # O   
  5908      7  18.726847   9.210104  39.987500 # H   
  5909      7  17.145467   9.210104  39.987500 # H   
  5910      8  17.936157   8.597887  39.987500 # O   
  5911      7  -0.380596  17.807991  31.987500 # H   
  5912      7  -1.961976  17.807991  31.987500 # H   
  5913      8  -1.171286  17.195773  31.987500 # O   
  5914      7  17.628690   0.612217  39.987500 # H   
  5915      7  16.047310   0.612217  39.987500 # H   
  5916      8  16.838000   0.000000  39.987500 # O   
  5917      7  34.076261   6.344142  41.987500 # H   
  5918      7  32.494882   6.344142  41.987500 # H   
  5919      8  33.285571   5.731924  41.987500 # O   
  5920      7   2.987004  17.807991  37.987500 # H   
  5921      7   1.405624  17.807991  37.987500 # H   
  5922      8   2.196314  17.195773  37.987500 # O   
  5923      7  15.676546  29.271840  35.987500 # H   
  5924      7  14.095167  29.271840  35.987500 # H   
  5925      8  14.885857  28.659622  35.987500 # O   
  5926      7  13.089804  17.807991  35.987500 # H   
  5927      7  11.508424  17.807991  35.987500 # H   
  5928      8  12.299114  17.195773  35.987500 # O   
  5929      7   1.888847   9.210104  35.987500 # H   
  5930      7   0.307467   9.210104  35.987500 # H   
  5931      8   1.098157   8.597887  35.987500 # O   
  5932      7   5.256447   9.210104  35.987500 # H   
  5933      7   3.675067   9.210104  35.987500 # H   
  5934      8   4.465757   8.597887  35.987500 # O   
  5935      7 -16.510868  32.137802  35.987500 # H   
  5936      7 -18.092247  32.137802  35.987500 # H   
  5937      8 -17.301558  31.525585  35.987500 # O   
  5938      7 -21.757482  35.003764  33.987500 # H   
  5939      7 -23.338862  35.003764  33.987500 # H   
  5940      8 -22.548172  34.391547  33.987500 # O   
  5941      7  14.578389  20.673953  37.987500 # H   
  5942      7  12.997010  20.673953  37.987500 # H   
  5943      8  13.787700  20.061736  37.987500 # O   
  5944      7   5.183318  35.003764  31.987500 # H   
  5945      7   3.601938  35.003764  31.987500 # H   
  5946      8   4.392628  34.391547  31.987500 # O   
  5947      7  25.071618  14.942028  35.987500 # H   
  5948      7  23.490239  14.942028  35.987500 # H   
  5949      8  24.280928  14.329811  35.987500 # O   
  5950      7  10.503061   6.344142  35.987500 # H   
  5951      7   8.921682   6.344142  35.987500 # H   
  5952      8   9.712371   5.731924  35.987500 # O   
  5953      7  21.313589  20.673953  37.987500 # H   
  5954      7  19.732210  20.673953  37.987500 # H   
  5955      8  20.522900  20.061736  37.987500 # O   
  5956      7   4.085161  26.405877  41.987500 # H   
  5957      7   2.503781  26.405877  41.987500 # H   
  5958      8   3.294471  25.793660  41.987500 # O   
  5959      7  -2.967339   6.344142  33.987500 # H   
  5960      7  -4.548718   6.344142  33.987500 # H   
  5961      8  -3.758029   5.731924  33.987500 # O   
  5962      7  19.044146  29.271840  39.987500 # H   
  5963      7  17.462767  29.271840  39.987500 # H   
  5964      8  18.253457  28.659622  39.987500 # O   
  5965      7  -3.748196  17.807991  33.987500 # H   
  5966      7  -5.329576  17.807991  33.987500 # H   
  5967      8  -4.538886  17.195773  33.987500 # O   
  5968      7  16.066975  23.539915  37.987500 # H   
  5969      7  14.485596  23.539915  37.987500 # H   
  5970      8  15.276285  22.927698  37.987500 # O   
  5971      7   8.941346  29.271840  33.987500 # H   
  5972      7   7.359967  29.271840  33.987500 # H   
  5973      8   8.150657  28.659622  33.987500 # O   
  5974      7   2.596575  23.539915  33.987500 # H   
  5975      7   1.015196  23.539915  33.987500 # H   
  5976      8   1.805885  22.927698  33.987500 # O   
  5977      7  -8.994811  20.673953  37.987500 # H   
  5978      7 -10.576190  20.673953  37.987500 # H   
  5979      8  -9.785500  20.061736  37.987500 # O   
  5980      7 -12.362411  20.673953  41.987500 # H   
  5981      7 -13.943790  20.673953  41.987500 # H   
  5982      8 -13.153100  20.061736  41.987500 # O   
  5983      7  -7.896654  29.271840  29.987500 # H   
  5984      7  -9.478033  29.271840  29.987500 # H   
  5985      8  -8.687343  28.659622  29.987500 # O   
  5986      7  13.089804  17.807991  29.987500 # H   
  5987      7  11.508424  17.807991  29.987500 # H   
  5988      8  12.299114  17.195773  29.987500 # O   
  5989      7  23.583032  12.076066  37.987500 # H   
  5990      7  22.001653  12.076066  37.987500 # H   
  5991      8  22.792343  11.463849  37.987500 # O   
  5992      7   7.135461   6.344142  39.987500 # H   
  5993      7   5.554082   6.344142  39.987500 # H   
  5994      8   6.344771   5.731924  39.987500 # O   
  5995      7  25.852475   3.478180  41.987500 # H   
  5996      7  24.271096   3.478180  41.987500 # H   
  5997      8  25.061786   2.865962  41.987500 # O   
  5998      7  20.215432  12.076066  39.987500 # H   
  5999      7  18.634053  12.076066  39.987500 # H   
  6000      8  19.424743  11.463849  39.987500 # O   
  6001      7   0.790690   0.612217  37.987500 # H   
  6002      7  -0.790690   0.612217  37.987500 # H   
  6003      8   0.000000   0.000000  37.987500 # O   
  6004      7   4.475589  20.673953  41.987500 # H   
  6005      7   2.894210  20.673953  41.987500 # H   
  6006      8   3.684900  20.061736  41.987500 # O   
  6007      7   4.866018  14.942028  29.987500 # H   
  6008      7   3.284639  14.942028  29.987500 # H   
  6009      8   4.075328  14.329811  29.987500 # O   
  6010      7 -14.631854  29.271840  39.987500 # H   
  6011      7 -16.213233  29.271840  39.987500 # H   
  6012      8 -15.422543  28.659622  39.987500 # O   
  6013      7  22.802175  23.539915  29.987500 # H   
  6014      7  21.220796  23.539915  29.987500 # H   
  6015      8  22.011485  22.927698  29.987500 # O   
  6016      7  15.286118  35.003764  39.987500 # H   
  6017      7  13.704738  35.003764  39.987500 # H   
  6018      8  14.495428  34.391547  39.987500 # O   
  6019      7 -14.631854  29.271840  37.987500 # H   
  6020      7 -16.213233  29.271840  37.987500 # H   
  6021      8 -15.422543  28.659622  37.987500 # O   
  6022      7  -1.161454  29.271840  33.987500 # H   
  6023      7  -2.742833  29.271840  33.987500 # H   
  6024      8  -1.952143  28.659622  33.987500 # O   
  6025      7   1.107989  20.673953  29.987500 # H   
  6026      7  -0.473390  20.673953  29.987500 # H   
  6027      8   0.317300  20.061736  29.987500 # O   
  6028      7   4.085161  26.405877  39.987500 # H   
  6029      7   2.503781  26.405877  39.987500 # H   
  6030      8   3.294471  25.793660  39.987500 # O   
  6031      7  10.503061   6.344142  33.987500 # H   
  6032      7   8.921682   6.344142  33.987500 # H   
  6033      8   9.712371   5.731924  33.987500 # O   
  6034      7  -8.604382  14.942028  33.987500 # H   
  6035      7 -10.185761  14.942028  33.987500 # H   
  6036      8  -9.395072  14.329811  33.987500 # O   
  6037      7  -0.380596  17.807991  35.987500 # H   
  6038      7  -1.961976  17.807991  35.987500 # H   
  6039      8  -1.171286  17.195773  35.987500 # O   
  6040      7  -2.650039  26.405877  37.987500 # H   
  6041      7  -4.231419  26.405877  37.987500 # H   
  6042      8  -3.440729  25.793660  37.987500 # O   
  6043      7  14.968818  14.942028  35.987500 # H   
  6044      7  13.387439  14.942028  35.987500 # H   
  6045      8  14.178128  14.329811  35.987500 # O   
  6046      7  11.210789  20.673953  31.987500 # H   
  6047      7   9.629410  20.673953  31.987500 # H   
  6048      8  10.420100  20.061736  31.987500 # O   
  6049      7  14.261090   0.612217  41.987500 # H   
  6050      7  12.679710   0.612217  41.987500 # H   
  6051      8  13.470400   0.000000  41.987500 # O   
  6052      7  -3.040468  32.137802  33.987500 # H   
  6053      7  -4.621847  32.137802  33.987500 # H   
  6054      8  -3.831158  31.525585  33.987500 # O   
  6055      7 -11.264254  29.271840  33.987500 # H   
  6056      7 -12.845633  29.271840  33.987500 # H   
  6057      8 -12.054943  28.659622  33.987500 # O   
  6058      7   7.525890   0.612217  31.987500 # H   
  6059      7   5.944510   0.612217  31.987500 # H   
  6060      8   6.735200   0.000000  31.987500 # O   
  6061      7   5.256447   9.210104  31.987500 # H   
  6062      7   3.675067   9.210104  31.987500 # H   
  6063      8   4.465757   8.597887  31.987500 # O   
  6064      7  19.434575  23.539915  35.987500 # H   
  6065      7  17.853196  23.539915  35.987500 # H   
  6066      8  18.643885  22.927698  35.987500 # O   
  6067      7  -6.017639  26.405877  39.987500 # H   
  6068      7  -7.599019  26.405877  39.987500 # H   
  6069      8  -6.808329  25.793660  39.987500 # O   
  6070      7   1.498418  14.942028  41.987500 # H   
  6071      7  -0.082961  14.942028  41.987500 # H   
  6072      8   0.707728  14.329811  41.987500 # O   
  6073      7 -11.654682  35.003764  31.987500 # H   
  6074      7 -13.236062  35.003764  31.987500 # H   
  6075      8 -12.445372  34.391547  31.987500 # O   
  6076      7  23.973461   6.344142  35.987500 # H   
  6077      7  22.392082   6.344142  35.987500 # H   
  6078      8  23.182771   5.731924  35.987500 # O   
  6079      7  26.950632  12.076066  33.987500 # H   
  6080      7  25.369253  12.076066  33.987500 # H   
  6081      8  26.159943  11.463849  33.987500 # O   
  6082      7  15.676546  29.271840  41.987500 # H   
  6083      7  14.095167  29.271840  41.987500 # H   
  6084      8  14.885857  28.659622  41.987500 # O   
  6085      7 -12.752839  26.405877  35.987500 # H   
  6086      7 -14.334219  26.405877  35.987500 # H   
  6087      8 -13.543529  25.793660  35.987500 # O   
  6088      7   1.107989  20.673953  39.987500 # H   
  6089      7  -0.473390  20.673953  39.987500 # H   
  6090      8   0.317300  20.061736  39.987500 # O   
  6091      7  23.973461   6.344142  33.987500 # H   
  6092      7  22.392082   6.344142  33.987500 # H   
  6093      8  23.182771   5.731924  33.987500 # O   
  6094      7  -5.236782  14.942028  37.987500 # H   
  6095      7  -6.818161  14.942028  37.987500 # H   
  6096      8  -6.027472  14.329811  37.987500 # O   
  6097      7  -6.017639  26.405877  33.987500 # H   
  6098      7  -7.599019  26.405877  33.987500 # H   
  6099      8  -6.808329  25.793660  33.987500 # O   
  6100      7  28.439218  14.942028  37.987500 # H   
  6101      7  26.857839  14.942028  37.987500 # H   
  6102      8  27.648528  14.329811  37.987500 # O   
  6103      7 -19.878468  32.137802  33.987500 # H   
  6104      7 -21.459847  32.137802  33.987500 # H   
  6105      8 -20.669158  31.525585  33.987500 # O   
  6106      7  16.457404  17.807991  37.987500 # H   
  6107      7  14.876024  17.807991  37.987500 # H   
  6108      8  15.666714  17.195773  37.987500 # O   
  6109      7  30.708661   6.344142  29.987500 # H   
  6110      7  29.127282   6.344142  29.987500 # H   
  6111      8  29.917971   5.731924  29.987500 # O   
  6112      7 -17.999454  29.271840  39.987500 # H   
  6113      7 -19.580833  29.271840  39.987500 # H   
  6114      8 -18.790143  28.659622  39.987500 # O   
  6115      7  14.968818  14.942028  37.987500 # H   
  6116      7  13.387439  14.942028  37.987500 # H   
  6117      8  14.178128  14.329811  37.987500 # O   
  6118      7  20.996290   0.612217  39.987500 # H   
  6119      7  19.414910   0.612217  39.987500 # H   
  6120      8  20.205600   0.000000  39.987500 # O   
  6121      7  -1.869182  14.942028  35.987500 # H   
  6122      7  -3.450561  14.942028  35.987500 # H   
  6123      8  -2.659872  14.329811  35.987500 # O   
  6124      7  31.099090   0.612217  33.987500 # H   
  6125      7  29.517710   0.612217  33.987500 # H   
  6126      8  30.308400   0.000000  33.987500 # O   
  6127      7  -4.846353   9.210104  37.987500 # H   
  6128      7  -6.427733   9.210104  37.987500 # H   
  6129      8  -5.637043   8.597887  37.987500 # O   
  6130      7  35.955275   3.478180  37.987500 # H   
  6131      7  34.373896   3.478180  37.987500 # H   
  6132      8  35.164586   2.865962  37.987500 # O   
  6133      7  -6.408068  32.137802  31.987500 # H   
  6134      7  -7.989447  32.137802  31.987500 # H   
  6135      8  -7.198758  31.525585  31.987500 # O   
  6136      7   7.843189  20.673953  41.987500 # H   
  6137      7   6.261810  20.673953  41.987500 # H   
  6138      8   7.052500  20.061736  41.987500 # O   
  6139      7   7.062332  32.137802  41.987500 # H   
  6140      7   5.480953  32.137802  41.987500 # H   
  6141      8   6.271642  31.525585  41.987500 # O   
  6142      7   3.767861   6.344142  35.987500 # H   
  6143      7   2.186482   6.344142  35.987500 # H   
  6144      8   2.977171   5.731924  35.987500 # O   
  6145      7  23.192604  17.807991  41.987500 # H   
  6146      7  21.611224  17.807991  41.987500 # H   
  6147      8  22.401914  17.195773  41.987500 # O   
  6148      7  22.094447   9.210104  35.987500 # H   
  6149      7  20.513067   9.210104  35.987500 # H   
  6150      8  21.303757   8.597887  35.987500 # O   
  6151      7  19.434575  23.539915  33.987500 # H   
  6152      7  17.853196  23.539915  33.987500 # H   
  6153      8  18.643885  22.927698  33.987500 # O   
  6154      7  -9.385239  26.405877  33.987500 # H   
  6155      7 -10.966619  26.405877  33.987500 # H   
  6156      8 -10.175929  25.793660  33.987500 # O   
  6157      7  -8.604382  14.942028  31.987500 # H   
  6158      7 -10.185761  14.942028  31.987500 # H   
  6159      8  -9.395072  14.329811  31.987500 # O   
  6160      7  32.587675   3.478180  33.987500 # H   
  6161      7  31.006296   3.478180  33.987500 # H   
  6162      8  31.796986   2.865962  33.987500 # O   
  6163      7  -6.408068  32.137802  41.987500 # H   
  6164      7  -7.989447  32.137802  41.987500 # H   
  6165      8  -7.198758  31.525585  41.987500 # O   
  6166      7 -17.999454  29.271840  33.987500 # H   
  6167      7 -19.580833  29.271840  33.987500 # H   
  6168      8 -18.790143  28.659622  33.987500 # O   
  6169      7  20.923161  26.405877  29.987500 # H   
  6170      7  19.341781  26.405877  29.987500 # H   
  6171      8  20.132471  25.793660  29.987500 # O   
  6172      7 -10.483396  17.807991  41.987500 # H   
  6173      7 -12.064776  17.807991  41.987500 # H   
  6174      8 -11.274086  17.195773  41.987500 # O   
  6175      7  -9.385239  26.405877  35.987500 # H   
  6176      7 -10.966619  26.405877  35.987500 # H   
  6177      8 -10.175929  25.793660  35.987500 # O   
  6178      7  -2.650039  26.405877  29.987500 # H   
  6179      7  -4.231419  26.405877  29.987500 # H   
  6180      8  -3.440729  25.793660  29.987500 # O   
  6181      7  32.197247   9.210104  35.987500 # H   
  6182      7  30.615867   9.210104  35.987500 # H   
  6183      8  31.406557   8.597887  35.987500 # O   
  6184      7  -7.896654  29.271840  37.987500 # H   
  6185      7  -9.478033  29.271840  37.987500 # H   
  6186      8  -8.687343  28.659622  37.987500 # O   
  6187      7  17.165132  32.137802  41.987500 # H   
  6188      7  15.583753  32.137802  41.987500 # H   
  6189      8  16.374442  31.525585  41.987500 # O   
  6190      7  19.825004  17.807991  31.987500 # H   
  6191      7  18.243624  17.807991  31.987500 # H   
  6192      8  19.034314  17.195773  31.987500 # O   
  6193      7  -6.017639  26.405877  37.987500 # H   
  6194      7  -7.599019  26.405877  37.987500 # H   
  6195      8  -6.808329  25.793660  37.987500 # O   
  6196      7  10.112632  12.076066  35.987500 # H   
  6197      7   8.531253  12.076066  35.987500 # H   
  6198      8   9.321943  11.463849  35.987500 # O   
  6199      7 -18.389882  35.003764  35.987500 # H   
  6200      7 -19.971262  35.003764  35.987500 # H   
  6201      8 -19.180572  34.391547  35.987500 # O   
  6202      7  20.605861   6.344142  41.987500 # H   
  6203      7  19.024482   6.344142  41.987500 # H   
  6204      8  19.815171   5.731924  41.987500 # O   
  6205      7   5.256447   9.210104  41.987500 # H   
  6206      7   3.675067   9.210104  41.987500 # H   
  6207      8   4.465757   8.597887  41.987500 # O   
  6208      7   4.085161  26.405877  33.987500 # H   
  6209      7   2.503781  26.405877  33.987500 # H   
  6210      8   3.294471  25.793660  33.987500 # O   
  6211      7   3.767861   6.344142  41.987500 # H   
  6212      7   2.186482   6.344142  41.987500 # H   
  6213      8   2.977171   5.731924  41.987500 # O   
  6214      7  18.336418  14.942028  31.987500 # H   
  6215      7  16.755039  14.942028  31.987500 # H   
  6216      8  17.545728  14.329811  31.987500 # O   
  6217      7  15.676546  29.271840  37.987500 # H   
  6218      7  14.095167  29.271840  37.987500 # H   
  6219      8  14.885857  28.659622  37.987500 # O   
  6220      7  11.601218  14.942028  33.987500 # H   
  6221      7  10.019839  14.942028  33.987500 # H   
  6222      8  10.810528  14.329811  33.987500 # O   
  6223      7   2.206146  29.271840  29.987500 # H   
  6224      7   0.624767  29.271840  29.987500 # H   
  6225      8   1.415457  28.659622  29.987500 # O   
  6226      7   0.400261   6.344142  37.987500 # H   
  6227      7  -1.181118   6.344142  37.987500 # H   
  6228      8  -0.390429   5.731924  37.987500 # O   
  6229      7  19.825004  17.807991  29.987500 # H   
  6230      7  18.243624  17.807991  29.987500 # H   
  6231      8  19.034314  17.195773  29.987500 # O   
  6232      7   0.327132  32.137802  31.987500 # H   
  6233      7  -1.254247  32.137802  31.987500 # H   
  6234      8  -0.463558  31.525585  31.987500 # O   
  6235      7  15.286118  35.003764  35.987500 # H   
  6236      7  13.704738  35.003764  35.987500 # H   
  6237      8  14.495428  34.391547  35.987500 # O   
  6238      7  35.955275   3.478180  35.987500 # H   
  6239      7  34.373896   3.478180  35.987500 # H   
  6240      8  35.164586   2.865962  35.987500 # O   
  6241      7  13.797532  32.137802  35.987500 # H   
  6242      7  12.216153  32.137802  35.987500 # H   
  6243      8  13.006842  31.525585  35.987500 # O   
  6244      7  -0.380596  17.807991  39.987500 # H   
  6245      7  -1.961976  17.807991  39.987500 # H   
  6246      8  -1.171286  17.195773  39.987500 # O   
  6247      7  15.749675   3.478180  35.987500 # H   
  6248      7  14.168296   3.478180  35.987500 # H   
  6249      8  14.958986   2.865962  35.987500 # O   
  6250      7  -3.040468  32.137802  29.987500 # H   
  6251      7  -4.621847  32.137802  29.987500 # H   
  6252      8  -3.831158  31.525585  29.987500 # O   
  6253      7 -14.241425  23.539915  31.987500 # H   
  6254      7 -15.822804  23.539915  31.987500 # H   
  6255      8 -15.032115  22.927698  31.987500 # O   
  6256      7  -1.161454  29.271840  41.987500 # H   
  6257      7  -2.742833  29.271840  41.987500 # H   
  6258      8  -1.952143  28.659622  41.987500 # O   
  6259      7  -1.551882  35.003764  37.987500 # H   
  6260      7  -3.133262  35.003764  37.987500 # H   
  6261      8  -2.342572  34.391547  37.987500 # O   
  6262      7  27.731490   0.612217  39.987500 # H   
  6263      7  26.150110   0.612217  39.987500 # H   
  6264      8  26.940800   0.000000  39.987500 # O   
  6265      7  -4.138625  23.539915  41.987500 # H   
  6266      7  -5.720004  23.539915  41.987500 # H   
  6267      8  -4.929315  22.927698  41.987500 # O   
  6268      7 -16.510868  32.137802  39.987500 # H   
  6269      7 -18.092247  32.137802  39.987500 # H   
  6270      8 -17.301558  31.525585  39.987500 # O   
  6271      7  14.968818  14.942028  33.987500 # H   
  6272      7  13.387439  14.942028  33.987500 # H   
  6273      8  14.178128  14.329811  33.987500 # O   
  6274      7  29.220075   3.478180  33.987500 # H   
  6275      7  27.638696   3.478180  33.987500 # H   
  6276      8  28.429386   2.865962  33.987500 # O   
  6277      7  30.318232  12.076066  29.987500 # H   
  6278      7  28.736853  12.076066  29.987500 # H   
  6279      8  29.527543  11.463849  29.987500 # O   
  6280      7   2.987004  17.807991  41.987500 # H   
  6281      7   1.405624  17.807991  41.987500 # H   
  6282      8   2.196314  17.195773  41.987500 # O   
  6283      7   4.866018  14.942028  33.987500 # H   
  6284      7   3.284639  14.942028  33.987500 # H   
  6285      8   4.075328  14.329811  33.987500 # O   
  6286      7  16.066975  23.539915  29.987500 # H   
  6287      7  14.485596  23.539915  29.987500 # H   
  6288      8  15.276285  22.927698  29.987500 # O   
  6289      7   5.964175  23.539915  41.987500 # H   
  6290      7   4.382796  23.539915  41.987500 # H   
  6291      8   5.173485  22.927698  41.987500 # O   
  6292      7   7.135461   6.344142  33.987500 # H   
  6293      7   5.554082   6.344142  33.987500 # H   
  6294      8   6.344771   5.731924  33.987500 # O   
  6295      7 -11.654682  35.003764  39.987500 # H   
  6296      7 -13.236062  35.003764  39.987500 # H   
  6297      8 -12.445372  34.391547  39.987500 # O   
  6298      7 -19.878468  32.137802  29.987500 # H   
  6299      7 -21.459847  32.137802  29.987500 # H   
  6300      8 -20.669158  31.525585  29.987500 # O   
  6301      7   5.646875   3.478180  39.987500 # H   
  6302      7   4.065496   3.478180  39.987500 # H   
  6303      8   4.856186   2.865962  39.987500 # O   
  6304      7  -8.994811  20.673953  39.987500 # H   
  6305      7 -10.576190  20.673953  39.987500 # H   
  6306      8  -9.785500  20.061736  39.987500 # O   
  6307      7  16.847832  12.076066  41.987500 # H   
  6308      7  15.266453  12.076066  41.987500 # H   
  6309      8  16.057143  11.463849  41.987500 # O   
  6310      7  32.587675   3.478180  31.987500 # H   
  6311      7  31.006296   3.478180  31.987500 # H   
  6312      8  31.796986   2.865962  31.987500 # O   
  6313      7  20.923161  26.405877  31.987500 # H   
  6314      7  19.341781  26.405877  31.987500 # H   
  6315      8  20.132471  25.793660  31.987500 # O   
  6316      7   0.790690   0.612217  35.987500 # H   
  6317      7  -0.790690   0.612217  35.987500 # H   
  6318      8   0.000000   0.000000  35.987500 # O   
  6319      7  19.434575  23.539915  39.987500 # H   
  6320      7  17.853196  23.539915  39.987500 # H   
  6321      8  18.643885  22.927698  39.987500 # O   
  6322      7  17.238261   6.344142  41.987500 # H   
  6323      7  15.656882   6.344142  41.987500 # H   
  6324      8  16.447571   5.731924  41.987500 # O   
  6325      7   1.888847   9.210104  29.987500 # H   
  6326      7   0.307467   9.210104  29.987500 # H   
  6327      8   1.098157   8.597887  29.987500 # O   
  6328      7   8.941346  29.271840  41.987500 # H   
  6329      7   7.359967  29.271840  41.987500 # H   
  6330      8   8.150657  28.659622  41.987500 # O   
  6331      7  15.359247   9.210104  37.987500 # H   
  6332      7  13.777867   9.210104  37.987500 # H   
  6333      8  14.568557   8.597887  37.987500 # O   
  6334      7 -12.362411  20.673953  33.987500 # H   
  6335      7 -13.943790  20.673953  33.987500 # H   
  6336      8 -13.153100  20.061736  33.987500 # O   
  6337      7  12.699375  23.539915  29.987500 # H   
  6338      7  11.117996  23.539915  29.987500 # H   
  6339      8  11.908685  22.927698  29.987500 # O   
  6340      7  12.308946  29.271840  29.987500 # H   
  6341      7  10.727567  29.271840  29.987500 # H   
  6342      8  11.518257  28.659622  29.987500 # O   
  6343      7  34.076261   6.344142  35.987500 # H   
  6344      7  32.494882   6.344142  35.987500 # H   
  6345      8  33.285571   5.731924  35.987500 # O   
  6346      7   8.624047   9.210104  35.987500 # H   
  6347      7   7.042667   9.210104  35.987500 # H   
  6348      8   7.833357   8.597887  35.987500 # O   
  6349      7 -11.654682  35.003764  29.987500 # H   
  6350      7 -13.236062  35.003764  29.987500 # H   
  6351      8 -12.445372  34.391547  29.987500 # O   
  6352      7  25.852475   3.478180  35.987500 # H   
  6353      7  24.271096   3.478180  35.987500 # H   
  6354      8  25.061786   2.865962  35.987500 # O   
  6355      7  25.852475   3.478180  37.987500 # H   
  6356      7  24.271096   3.478180  37.987500 # H   
  6357      8  25.061786   2.865962  37.987500 # O   
  6358      7  11.991647   9.210104  31.987500 # H   
  6359      7  10.410267   9.210104  31.987500 # H   
  6360      8  11.200957   8.597887  31.987500 # O   
  6361      7  -4.529054  29.271840  37.987500 # H   
  6362      7  -6.110433  29.271840  37.987500 # H   
  6363      8  -5.319743  28.659622  37.987500 # O   
  6364      7  28.829647   9.210104  33.987500 # H   
  6365      7  27.248267   9.210104  33.987500 # H   
  6366      8  28.038957   8.597887  33.987500 # O   
  6367      7  12.699375  23.539915  33.987500 # H   
  6368      7  11.117996  23.539915  33.987500 # H   
  6369      8  11.908685  22.927698  33.987500 # O   
  6370      7  28.439218  14.942028  31.987500 # H   
  6371      7  26.857839  14.942028  31.987500 # H   
  6372      8  27.648528  14.329811  31.987500 # O   
  6373      7  37.834290   0.612217  33.987500 # H   
  6374      7  36.252910   0.612217  33.987500 # H   
  6375      8  37.043600   0.000000  33.987500 # O   
  6376      7   3.694732  32.137802  35.987500 # H   
  6377      7   2.113353  32.137802  35.987500 # H   
  6378      8   2.904042  31.525585  35.987500 # O   
  6379      7   2.206146  29.271840  31.987500 # H   
  6380      7   0.624767  29.271840  31.987500 # H   
  6381      8   1.415457  28.659622  31.987500 # O   
  6382      7   1.107989  20.673953  35.987500 # H   
  6383      7  -0.473390  20.673953  35.987500 # H   
  6384      8   0.317300  20.061736  35.987500 # O   
  6385      7  11.991647   9.210104  39.987500 # H   
  6386      7  10.410267   9.210104  39.987500 # H   
  6387      8  11.200957   8.597887  39.987500 # O   
  6388      7  32.197247   9.210104  39.987500 # H   
  6389      7  30.615867   9.210104  39.987500 # H   
  6390      8  31.406557   8.597887  39.987500 # O   
  6391      7  10.820361  26.405877  39.987500 # H   
  6392      7   9.238981  26.405877  39.987500 # H   
  6393      8  10.029671  25.793660  39.987500 # O   
  6394      7  -8.287082  35.003764  37.987500 # H   
  6395      7  -9.868462  35.003764  37.987500 # H   
  6396      8  -9.077772  34.391547  37.987500 # O   
  6397      7  22.094447   9.210104  33.987500 # H   
  6398      7  20.513067   9.210104  33.987500 # H   
  6399      8  21.303757   8.597887  33.987500 # O   
  6400      7  16.847832  12.076066  29.987500 # H   
  6401      7  15.266453  12.076066  29.987500 # H   
  6402      8  16.057143  11.463849  29.987500 # O   
  6403      7  25.852475   3.478180  39.987500 # H   
  6404      7  24.271096   3.478180  39.987500 # H   
  6405      8  25.061786   2.865962  39.987500 # O   
  6406      7   9.014475   3.478180  29.987500 # H   
  6407      7   7.433096   3.478180  29.987500 # H   
  6408      8   8.223786   2.865962  29.987500 # O   
  6409      7   7.843189  20.673953  35.987500 # H   
  6410      7   6.261810  20.673953  35.987500 # H   
  6411      8   7.052500  20.061736  35.987500 # O   
  6412      7   4.085161  26.405877  35.987500 # H   
  6413      7   2.503781  26.405877  35.987500 # H   
  6414      8   3.294471  25.793660  35.987500 # O   
  6415      7  -0.771025  23.539915  31.987500 # H   
  6416      7  -2.352404  23.539915  31.987500 # H   
  6417      8  -1.561715  22.927698  31.987500 # O   
  6418      7  -3.357768  12.076066  35.987500 # H   
  6419      7  -4.939147  12.076066  35.987500 # H   
  6420      8  -4.148457  11.463849  35.987500 # O   
  6421      7   0.400261   6.344142  31.987500 # H   
  6422      7  -1.181118   6.344142  31.987500 # H   
  6423      8  -0.390429   5.731924  31.987500 # O   
  6424      7  14.187961  26.405877  33.987500 # H   
  6425      7  12.606581  26.405877  33.987500 # H   
  6426      8  13.397271  25.793660  33.987500 # O   
  6427      7  13.089804  17.807991  41.987500 # H   
  6428      7  11.508424  17.807991  41.987500 # H   
  6429      8  12.299114  17.195773  41.987500 # O   
  6430      7  17.945989  20.673953  33.987500 # H   
  6431      7  16.364610  20.673953  33.987500 # H   
  6432      8  17.155300  20.061736  33.987500 # O   
  6433      7  19.825004  17.807991  37.987500 # H   
  6434      7  18.243624  17.807991  37.987500 # H   
  6435      8  19.034314  17.195773  37.987500 # O   
  6436      7 -14.631854  29.271840  33.987500 # H   
  6437      7 -16.213233  29.271840  33.987500 # H   
  6438      8 -15.422543  28.659622  33.987500 # O   
  6439      7  25.071618  14.942028  29.987500 # H   
  6440      7  23.490239  14.942028  29.987500 # H   
  6441      8  24.280928  14.329811  29.987500 # O   
  6442      7  -8.994811  20.673953  33.987500 # H   
  6443      7 -10.576190  20.673953  33.987500 # H   
  6444      8  -9.785500  20.061736  33.987500 # O   
  6445      7  -8.994811  20.673953  41.987500 # H   
  6446      7 -10.576190  20.673953  41.987500 # H   
  6447      8  -9.785500  20.061736  41.987500 # O   
  6448      7  -1.551882  35.003764  35.987500 # H   
  6449      7  -3.133262  35.003764  35.987500 # H   
  6450      8  -2.342572  34.391547  35.987500 # O   
  6451      7 -10.483396  17.807991  39.987500 # H   
  6452      7 -12.064776  17.807991  39.987500 # H   
  6453      8 -11.274086  17.195773  39.987500 # O   
  6454      7 -21.757482  35.003764  31.987500 # H   
  6455      7 -23.338862  35.003764  31.987500 # H   
  6456      8 -22.548172  34.391547  31.987500 # O   
  6457      7  30.318232  12.076066  33.987500 # H   
  6458      7  28.736853  12.076066  33.987500 # H   
  6459      8  29.527543  11.463849  33.987500 # O   
  6460      7  20.605861   6.344142  39.987500 # H   
  6461      7  19.024482   6.344142  39.987500 # H   
  6462      8  19.815171   5.731924  39.987500 # O   
  6463      7  34.076261   6.344142  37.987500 # H   
  6464      7  32.494882   6.344142  37.987500 # H   
  6465      8  33.285571   5.731924  37.987500 # O   
  6466      7   0.009832  12.076066  41.987500 # H   
  6467      7  -1.571547  12.076066  41.987500 # H   
  6468      8  -0.780857  11.463849  41.987500 # O   
