molecular system: BT.h.00.00.cif
2008 atoms
9 atom types

  0.000000  20.537214 xlo xhi
  0.000000  18.582695 ylo yhi
  0.000000  57.923605 zlo zhi
  8.121283   0.000000   0.000000 xy xz yz

Masses

1  40.080000 # cah 
2  12.010000 # co  
3   1.007800 # h*  
4   1.007800 # ho  
5  16.000000 # o*  
6  16.000000 # ob  
7  16.000000 # oc  
8  16.000000 # oh  
9  28.086000 # st  

Atoms

     1      9  17.080307   1.984050   3.358623 # st  
     2      9  16.139507   3.706360  22.888743 # st  
     3      9  14.631207   0.486779  18.489643 # st  
     4      9  11.585407   5.115610   7.896863 # st  
     5      9  16.377707   4.265400   1.447233 # st  
     6      9  27.521007  18.042570  24.839843 # st  
     7      9  13.867807   2.535700  16.446443 # st  
     8      9  14.584207   0.775731   9.855143 # st  
     9      9  14.603807   5.606910   3.560853 # st  
    10      9  17.697607   1.067940  22.901943 # st  
    11      9  12.195907   4.163330  18.479743 # st  
    12      9  13.263507   2.621710   7.815983 # st  
    13      1  16.765607   2.182460   6.597243 # cah 
    14      1  15.813607   4.005250  19.741043 # cah 
    15      1  14.493907   0.661342  21.791743 # cah 
    16      1  11.364407   5.405910   4.633763 # cah 
    17      1  13.405007   2.296800   4.303543 # cah 
    18      1  12.616507   4.155080  21.822443 # cah 
    19      1  18.121307   0.799148  19.228643 # cah 
    20      1  14.793907   5.471410   6.819993 # cah 
    21      1  22.521607  17.558570  13.066243 # cah 
    22      6  16.754407   2.903930   2.131943 # ob  
    23      6   7.429717  17.015170  23.735943 # ob  
    24      6  14.116007   1.176180  17.180443 # ob  
    25      6  15.644007   0.001293   8.927273 # ob  
    26      6  17.963007   0.778133   2.933333 # ob  
    27      6  17.031007   2.456230  23.280643 # ob  
    28      6  23.674107  17.818070  18.284143 # ob  
    29      6  12.560807   3.931670   8.223633 # ob  
    30      6  17.857407   2.863230   4.411923 # ob  
    31      6   8.711847  16.841070  21.611243 # ob  
    32      6  15.513107   1.537900  19.347143 # ob  
    33      6  24.929507  18.307970   6.767223 # ob  
    34      6  15.710607   1.556160   4.059923 # ob  
    35      6  14.863507   3.195740  22.075743 # ob  
    36      6  13.439507   0.042771  19.388343 # ob  
    37      6  10.279607   4.501300   7.231863 # ob  
    38      8  26.910007  17.217570  26.050043 # oh  
    39      8  15.783107   4.204980  57.907243 # oh  
    40      6  22.010707  18.499170  10.914543 # ob  
    41      6  13.303707   2.127760  15.034543 # ob  
    42      6  15.395807   4.947200   2.377693 # ob  
    43      6  18.508607   0.508797  24.116143 # ob  
    44      6  13.036107   3.485990  17.323343 # ob  
    45      6  13.652807   1.757990   9.095073 # ob  
    46      6  13.539607   4.678720   4.244713 # ob  
    47      6  16.691507  -0.012112  22.498043 # ob  
    48      6  11.268707   3.083000  19.110143 # ob  
    49      6  12.273407   1.793670   6.885963 # ob  
    50      6  28.017007  18.559370   4.404683 # ob  
    51      6  18.741907   1.355340  21.709043 # ob  
    52      6  25.738807  16.785270  19.469043 # ob  
    53      6  14.587207   2.931660   7.068693 # ob  
    54      8  10.245207   4.655240   0.589878 # oh  
    55      4   9.939377   5.134570  57.629943 # ho  
    56      8  13.467707   0.033016  26.026143 # oh  
    57      4  22.217007  18.067370  26.628343 # ho  
    58      8  15.300507   3.342070  16.246143 # oh  
    59      4  15.984907   2.987160  15.515443 # ho  
    60      8  15.582907   1.971060  10.691143 # oh  
    61      4  15.332307   1.901640  11.710143 # ho  
    62      5  13.732707   2.547000   1.786473 # o*  
    63      3  13.687807   3.479130   1.390353 # h*  
    64      3  13.071907   1.974230   1.309333 # h*  
    65      5  13.250707   2.555390  27.275643 # o*  
    66      3  14.172907   3.046100  27.363843 # h*  
    67      3  13.535007   1.688780  26.828443 # h*  
    68      5  18.336907   0.006316  16.769643 # o*  
    69      3  26.714807  17.608470  16.615843 # h*  
    70      3  18.834607   0.444359  15.994743 # h*  
    71      5  15.223207   4.394540   9.775243 # o*  
    72      3  15.396107   3.449630  10.172843 # h*  
    73      3  16.088107   4.682600   9.347373 # h*  
    74      5  13.079107   4.308170  12.073343 # o*  
    75      3  13.728707   4.781250  12.687643 # h*  
    76      3  13.678707   4.002800  11.286643 # h*  
    77      5  24.792907  16.564170  13.344843 # o*  
    78      3  24.893007  15.690370  13.866443 # h*  
    79      3  25.735107  16.809770  13.167743 # h*  
    80      5  15.008207   1.514060  13.307543 # o*  
    81      3   6.794157   4.222680  12.302543 # h*  
    82      3   7.812607   2.964520  12.048543 # h*  
    83      5  18.067007   1.000670  11.321543 # o*  
    84      3  17.243207   1.446900  10.976343 # h*  
    85      3  26.155107  18.573870  11.172443 # h*  
    86      5  11.109707   2.258440  13.293543 # o*  
    87      3  11.929307   2.115610  13.902643 # h*  
    88      3  11.150107   1.444570  12.715143 # h*  
    89      4  27.153307  16.185470  26.036243 # ho  
    90      4  15.956407   5.037380  57.276143 # ho  
    91      9  12.997407   8.194730   3.405723 # st  
    92      9  12.078907  10.006170  23.021243 # st  
    93      9  10.343307   6.678730  18.562443 # st  
    94      9   7.566187  11.329470   8.211453 # st  
    95      9  12.210707  10.480370   1.593233 # st  
    96      9  15.624807   5.967590  24.851243 # st  
    97      9   9.337947   8.445470  16.181343 # st  
    98      9  11.046707   7.229430  10.015343 # st  
    99      9  10.584607  11.805570   3.844733 # st  
   100      9  13.787007   7.546090  22.930543 # st  
   101      9   8.016747  10.316470  18.274743 # st  
   102      9   9.173897   8.709580   8.110433 # st  
   103      1  12.723007   8.407950   6.513363 # cah 
   104      1  11.670107   9.999170  19.766043 # cah 
   105      1  10.376607   7.129680  21.659943 # cah 
   106      1   7.336087  11.452270   4.874413 # cah 
   107      1   9.422117   8.450910   4.522623 # cah 
   108      1   8.541837  10.270470  21.804143 # cah 
   109      1  13.808007   7.006850  19.527243 # cah 
   110      1  10.767707  11.445470   7.155763 # cah 
   111      1  10.947707   4.739840  13.006143 # cah 
   112      6  12.649607   9.057160   2.120753 # ob  
   113      6  15.754207   4.526350  24.160843 # ob  
   114      6   9.971447   7.494090  17.322643 # ob  
   115      6  11.169207   5.915380   9.141803 # ob  
   116      6  13.778107   6.884710   3.041273 # ob  
   117      6  13.131807   8.890900  23.428543 # ob  
   118      6  11.295607   5.385430  18.100243 # ob  
   119      6   8.362217  10.019170   8.704473 # ob  
   120      6  13.886407   9.097780   4.328623 # ob  
   121      6  16.992207   4.575760  21.971943 # ob  
   122      6  11.266707   7.535000  19.512343 # ob  
   123      6  12.362407   6.018470   6.879303 # ob  
   124      6  11.704807   7.792620   4.193113 # ob  
   125      6  10.771307   9.488620  22.258343 # ob  
   126      6   9.118917   6.078980  19.305443 # ob  
   127      6   6.233117  10.943670   7.577593 # ob  
   128      8  15.476807   5.933090  26.426543 # oh  
   129      8  11.559007  10.290770   0.151530 # oh  
   130      6  10.899607   6.897370  11.535243 # ob  
   131      6   8.401537   7.607400  15.275643 # ob  
   132      6  11.081507  10.990370   2.585783 # ob  
   133      6  14.443307   6.725500  24.146043 # ob  
   134      6   8.576417   9.539810  16.984543 # ob  
   135      6   9.896967   8.055100   9.340293 # ob  
   136      6   9.627327  10.913570   4.640733 # ob  
   137      6  12.649807   6.700080  22.306343 # ob  
   138      6   7.162167   9.297690  19.090443 # ob  
   139      6   8.165257   7.685250   7.559023 # ob  
   140      6  15.624607   6.090610   4.628943 # ob  
   141      6  14.892907   7.825990  21.938643 # ob  
   142      6  13.209507   4.629860  19.585743 # ob  
   143      6  10.192907   9.156330   6.993473 # ob  
   144      8   6.468267  10.953470   0.954943 # oh  
   145      4   6.371657  11.951170   0.614001 # ho  
   146      8   9.443507   6.371390  26.006043 # oh  
   147      4  10.266807   5.742610  26.073543 # ho  
   148      8  10.478607   9.019730  15.263243 # oh  
   149      4  11.100707   8.380790  14.735743 # ho  
   150      8  12.351107   8.120780   9.862343 # oh  
   151      4  13.231307   7.851720  10.345843 # ho  
   152      5   8.809727   8.921860   1.931933 # o*  
   153      3   8.492437   8.563780   0.973263 # h*  
   154      3   9.156347   9.827550   1.711963 # h*  
   155      5   6.688117   8.531520  32.049943 # o*  
   156      3   6.323387   9.235500  31.412343 # h*  
   157      3   5.941377   7.847130  32.227143 # h*  
   158      5  12.548507   6.013190  15.834843 # o*  
   159      3  11.692907   5.872280  16.375943 # h*  
   160      3  12.300207   6.756970  15.181543 # h*  
   161      5  11.622507  11.050270   9.774743 # o*  
   162      3  11.839607  10.144670  10.171343 # h*  
   163      3  12.312707  11.025770   9.016403 # h*  
   164      5  10.275207  13.398370  10.771743 # o*  
   165      3  10.714807  12.510270  10.527443 # h*  
   166      3  11.023807  14.086170  10.702143 # h*  
   167      5   9.518357   5.434440  14.680843 # o*  
   168      3   9.191377   4.615100  15.194343 # h*  
   169      3   8.790177   6.117540  14.882143 # h*  
   170      5  12.122107   7.753150  13.702843 # o*  
   171      3   8.304777  10.460170  10.541243 # h*  
   172      3   8.379777   9.328970  11.717043 # h*  
   173      5  14.905407   5.711140  14.982843 # o*  
   174      3  15.154507   4.953340  15.633543 # h*  
   175      3  13.908907   5.862560  15.195743 # h*  
   176      5   8.353447   7.759470  12.467243 # o*  
   177      3   8.413967   7.761430  13.496543 # h*  
   178      3   9.300527   7.664880  12.168643 # h*  
   179      4  15.899707   6.671680  27.049043 # ho  
   180      4  11.086407  11.098770  57.612643 # ho  
   181      9   8.933397  14.405670   3.674503 # st  
   182      9   7.902887  16.036670  22.583443 # st  
   183      9   6.403267  12.883570  18.288843 # st  
   184      9  24.045607  17.465870   7.794073 # st  
   185      9   8.345407  16.386470   1.374953 # st  
   186      9  10.735207  11.876770  25.115143 # st  
   187      9  25.711507  14.877470  16.293343 # st  
   188      9   6.650677  13.493670  10.191343 # st  
   189      9  26.953807  18.044670   3.254453 # st  
   190      9   9.612757  13.623970  22.859043 # st  
   191      9  24.442607  16.479270  18.643143 # st  
   192      9  25.647807  14.945470   7.947263 # st  
   193      1   8.743147  14.563370   7.140003 # cah 
   194      1   7.530297  16.073570  19.465443 # cah 
   195      1   6.187137  13.014870  21.449143 # cah 
   196      1  23.538007  17.857570   4.645373 # cah 
   197      1  25.930807  14.621970   4.751913 # cah 
   198      1  24.613807  16.236170  21.684843 # cah 
   199      1   9.837307  13.289570  19.196743 # cah 
   200      1  27.165407  17.893070   6.592333 # cah 
   201      1   6.376027  11.128770  12.945143 # cah 
   202      6   8.751277  15.359370   2.383953 # ob  
   203      6  11.515907  10.774270  24.327343 # ob  
   204      6  26.426007  13.770270  17.046643 # ob  
   205      6   7.180997  12.225370   9.478683 # ob  
   206      6   9.840087  13.113770   3.291913 # ob  
   207      6   8.859527  14.954970  23.236343 # ob  
   208      6   7.071627  11.564170  17.960643 # ob  
   209      6  24.816407  16.238770   8.433113 # ob  
   210      6   9.681347  15.178570   4.781273 # ob  
   211      6  12.840407  10.881170  21.986243 # ob  
   212      6   7.421207  13.744070  19.208243 # ob  
   213      6   8.494287  12.121670   7.281723 # ob  
   214      6   7.563497  13.838770   4.195133 # ob  
   215      6   6.703747  15.426870  21.831543 # ob  
   216      6  25.694807  12.560470  19.238443 # ob  
   217      6  22.798507  17.103770   6.933733 # ob  
   218      8   9.379437  11.260570  25.623243 # oh  
   219      8   7.659717  15.769270   0.107799 # oh  
   220      6   6.064627  13.278370  11.608343 # ob  
   221      6  24.883407  14.470970  15.127443 # ob  
   222      6  27.867507  17.409770   2.119853 # ob  
   223      6  10.434007  13.073070  24.109443 # ob  
   224      6  24.882107  15.765370  17.300543 # ob  
   225      6  26.280407  14.198970   9.129793 # ob  
   226      6  26.014307  16.984270   3.849163 # ob  
   227      6   8.634227  12.578670  22.332543 # ob  
   228      6  23.474007  15.506370  19.407143 # ob  
   229      6  24.687507  14.117470   7.032163 # ob  
   230      6  11.772207  12.283870   4.640923 # ob  
   231      6  10.670507  14.053170  21.748543 # ob  
   232      6   9.233047  10.812570  19.081743 # ob  
   233      6  26.804507  15.500770   7.052503 # ob  
   234      8  22.853207  17.009170   0.601302 # oh  
   235      4  22.804507  17.646370  57.695343 # ho  
   236      8  25.612607  12.643870  25.834843 # oh  
   237      4   5.914057  12.220270  26.336543 # ho  
   238      8  26.869207  15.844970  15.632343 # oh  
   239      4  27.229607  15.601470  14.651643 # ho  
   240      8   7.953087  14.586770  10.305543 # oh  
   241      4   8.882997  14.096070  10.482943 # ho  
   242      5  23.114907  16.671270  53.261043 # o*  
   243      3  23.118807  17.601270  53.733843 # h*  
   244      3  24.083207  16.342470  53.313743 # h*  
   245      5  25.205307  15.207870  24.804943 # o*  
   246      3  25.713707  14.669170  25.499843 # h*  
   247      3  24.257207  15.423670  25.048943 # h*  
   248      5   9.072607  13.483370  15.966443 # o*  
   249      3   9.933677  13.877470  15.615443 # h*  
   250      3   8.465617  14.279470  16.013643 # h*  
   251      5   8.055897  17.398870  11.231143 # o*  
   252      3   8.024217  16.410370  10.904343 # h*  
   253      3   8.951147  17.679970  10.765543 # h*  
   254      5  23.876607  13.097870  10.817743 # o*  
   255      3  24.120607  12.283670  10.249243 # h*  
   256      3  24.757807  13.271070  11.295543 # h*  
   257      5   8.192987  11.203570  14.826943 # o*  
   258      3   8.451727  12.102670  15.239043 # h*  
   259      3   8.274217  10.498970  15.593543 # h*  
   260      5   6.847967  15.249670  13.069643 # o*  
   261      3  21.104107  14.967070  12.013343 # h*  
   262      3  20.644807  15.317370  13.608143 # h*  
   263      5  10.504307  10.906670  13.271043 # o*  
   264      3   9.511887  11.106370  13.233643 # h*  
   265      3  10.354307  10.087570  13.894943 # h*  
   266      5  23.053007  13.096970  13.549043 # o*  
   267      3  23.747807  13.624870  14.132643 # h*  
   268      3  22.849207  13.637470  12.722443 # h*  
   269      4   9.547427  10.248170  25.971843 # ho  
   270      4   7.609727  16.226470  57.086543 # ho  
   271      9   3.490667   1.945660   3.438173 # st  
   272      9   2.183707   3.770160  22.614743 # st  
   273      9   1.133603   0.566714  18.189443 # st  
   274      9  18.439307   5.187110   7.857623 # st  
   275      9   2.643427   3.889650   1.229523 # st  
   276      9  13.858107  18.253970  24.681943 # st  
   277      9  20.420607   2.467130  15.912343 # st  
   278      9   1.517227   1.341990   9.891643 # st  
   279      9  21.547307   5.669650   3.289253 # st  
   280      9   3.898667   1.301580  22.750443 # st  
   281      9  19.110007   4.240960  18.135343 # st  
   282      9  20.143507   2.632030   7.791583 # st  
   283      1   3.113027   2.168110   6.872293 # cah 
   284      1   2.075247   3.769310  19.420543 # cah 
   285      1   0.564169   0.756453  21.195343 # cah 
   286      1  18.103307   5.341000   4.752533 # cah 
   287      1  20.407507   2.358920   4.585363 # cah 
   288      1  19.337207   3.978970  21.265843 # cah 
   289      1   4.295917   0.812518  19.420743 # cah 
   290      1  21.517607   5.484080   6.405813 # cah 
   291      1  20.067407   0.606060  12.953943 # cah 
   292      6   3.256747   2.823480   2.144553 # ob  
   293      6  13.844607  16.936570  23.876143 # ob  
   294      6  21.126307   1.589570  16.993943 # ob  
   295      6   9.763557  18.359270   9.355263 # ob  
   296      6   4.633547   0.792117   3.190613 # ob  
   297      6   3.011167   2.491050  23.242643 # ob  
   298      6  10.141417  17.960170  17.593943 # ob  
   299      6  19.391107   4.029830   8.211503 # ob  
   300      6   4.204877   2.928860   4.475723 # ob  
   301      6  15.627007  16.843470  22.140543 # ob  
   302      6   1.886757   1.369000  19.231443 # ob  
   303      6  11.089407  18.273070   7.025293 # ob  
   304      6   2.240047   1.290330   3.962783 # ob  
   305      6  21.555207   3.300600  21.741343 # ob  
   306      6  28.538807  18.551870  18.988843 # ob  
   307      6  17.189107   4.663640   7.139273 # ob  
   308      8  13.393207  18.043570  26.206743 # oh  
   309      8   1.918977   3.404380  57.893443 # oh  
   310      6   1.278407   1.487540  11.337643 # ob  
   311      6  19.494907   1.670870  14.983543 # ob  
   312      6  22.121007   4.701740   2.126123 # ob  
   313      6   4.694907   0.584416  23.947143 # ob  
   314      6  19.609207   3.620860  16.740943 # ob  
   315      6  20.923807   1.976580   9.009103 # ob  
   316      6  20.590607   4.855270   4.154213 # ob  
   317      6   2.910207   0.276616  22.076543 # ob  
   318      6  18.364707   3.152430  19.015643 # ob  
   319      6  19.095907   1.717730   7.175683 # ob  
   320      6  14.375507  18.150470   4.655593 # ob  
   321      6   4.960587   1.656590  21.652243 # ob  
   322      6  12.000907  16.811670  18.970243 # ob  
   323      6  21.157607   3.065700   6.599303 # ob  
   324      8  17.684107   5.208200   1.269543 # oh  
   325      4  18.611807   4.813300   0.975283 # ho  
   326      8  20.564007   0.311046  25.523743 # oh  
   327      4   8.366217  18.719070  26.525043 # ho  
   328      8  21.635007   3.232720  15.105943 # oh  
   329      4   2.057717   3.022690  15.514443 # ho  
   330      8   2.910837   2.056790   9.454313 # oh  
   331      4   3.475267   2.441140  10.267343 # ho  
   332      5  19.289607   3.079730  57.653843 # o*  
   333      3  18.984707   3.188030  56.712643 # h*  
   334      3  19.835807   2.221260  57.617143 # h*  
   335      5  17.533107   2.747780  26.370743 # o*  
   336      3  16.879907   2.414750  25.689843 # h*  
   337      3  17.939307   1.967800  26.939443 # h*  
   338      5   3.514857   2.652150  15.857943 # o*  
   339      3   3.615797   2.680510  16.894343 # h*  
   340      3   4.411797   2.262920  15.538843 # h*  
   341      5  20.993207   6.291040  11.316743 # o*  
   342      3  22.003907   6.275200  11.253543 # h*  
   343      3  20.947607   5.382810  11.761343 # h*  
   344      5  17.836207   4.421440  12.043043 # o*  
   345      3  18.702607   3.964920  11.712743 # h*  
   346      3  17.870407   5.385430  11.675343 # h*  
   347      5   9.225487  17.845070  14.381243 # o*  
   348      3   9.806277  17.719270  15.178643 # h*  
   349      3   9.309097  16.930770  13.975043 # h*  
   350      5  20.793307   3.814040  12.369343 # o*  
   351      3  15.864007   1.845300  13.783343 # h*  
   352      3  14.241507   1.829710  13.944743 # h*  
   353      5   3.271657   0.313391  12.829243 # o*  
   354      3  11.459007  17.926470  12.441343 # h*  
   355      3   2.413287   0.791515  12.556743 # h*  
   356      5  17.168707   2.724620  14.248743 # o*  
   357      3  18.013607   2.282780  14.655943 # h*  
   358      3  17.379807   3.256180  13.401643 # h*  
   359      4  14.092507  17.888970  26.940043 # ho  
   360      4   2.216717   3.860720  56.996143 # ho  
   361      9  19.774607   8.276330   3.101213 # st  
   362      9  18.785907   9.814470  22.949343 # st  
   363      9  17.292507   6.812480  18.217843 # st  
   364      9  14.391207  11.470070   7.922183 # st  
   365      9  19.053007  10.301270   0.972373 # st  
   366      9  21.746307   5.524230  25.056843 # st  
   367      9  16.683507   9.011320  16.290743 # st  
   368      9  17.816807   7.316260   9.959843 # st  
   369      9  17.502707  11.798670   3.255293 # st  
   370      9  20.492407   7.257950  23.026543 # st  
   371      9  14.833807  10.329770  18.279943 # st  
   372      9  16.180307   9.021950   8.009073 # st  
   373      1  19.589007   8.659550   6.511953 # cah 
   374      1  18.391807  10.094370  19.372543 # cah 
   375      1  17.201607   7.018760  21.630743 # cah 
   376      1  14.267307  11.602070   4.380773 # cah 
   377      1  16.325407   8.470550   4.517463 # cah 
   378      1  15.376307  10.222070  21.602643 # cah 
   379      1  20.514307   7.011950  19.353643 # cah 
   380      1  17.599907  11.702470   6.435413 # cah 
   381      1  17.014307   6.458880  13.816543 # cah 
   382      6  19.726007   9.092590   1.732243 # ob  
   383      6  22.247407   4.666700  23.808543 # ob  
   384      6  16.809107   7.609430  16.991743 # ob  
   385      6  17.935307   6.037370   9.130933 # ob  
   386      6  20.786007   7.041880   2.928783 # ob  
   387      6  19.629807   8.554900  23.413843 # ob  
   388      6  18.202207   5.552900  17.884143 # ob  
   389      6  15.393407  10.327770   8.450263 # ob  
   390      6  20.397407   9.220710   4.205353 # ob  
   391      6   3.195117   4.580570  21.768743 # ob  
   392      6  18.152307   7.738960  19.111843 # ob  
   393      6  19.191607   6.216880   6.912553 # ob  
   394      6  18.413907   7.739400   3.602693 # ob  
   395      6  17.491207   9.416680  22.183143 # ob  
   396      6  16.124207   6.319220  19.129643 # ob  
   397      6  13.062107  10.812370   7.495823 # ob  
   398      8  21.260407   4.581650  26.158143 # oh  
   399      8  18.065307   9.639980  57.709343 # oh  
   400      6  17.378007   6.960290  11.453943 # ob  
   401      6  16.599607   8.780660  14.708043 # ob  
   402      6  18.162907  11.065770   1.998953 # ob  
   403      6  20.743007   6.522530  24.390943 # ob  
   404      6  15.442307   9.705960  16.939843 # ob  
   405      6  16.920607   8.407990   9.186423 # ob  
   406      6  16.559207  10.816870   4.012673 # ob  
   407      6  19.671207   6.398950  21.980943 # ob  
   408      6  13.814307   9.390890  18.979643 # ob  
   409      6  15.152907   8.003690   7.338763 # ob  
   410      6  22.720807   6.090290   4.185723 # ob  
   411      6  21.814307   7.774410  22.382443 # ob  
   412      6  20.320007   4.614090  19.015143 # ob  
   413      6  17.250807   9.428810   6.934173 # ob  
   414      8  13.310607  11.536170   1.711383 # oh  
   415      4  13.407507  12.278970   0.969013 # ho  
   416      8  17.025007   6.701090  24.534343 # oh  
   417      4  17.940207   6.354040  24.935443 # ho  
   418      8  17.928107   9.956070  16.593343 # oh  
   419      4  17.984807  10.954270  16.347843 # ho  
   420      8  19.283407   7.925800  10.024843 # oh  
   421      4  20.038907   7.284570  10.424943 # ho  
   422      5  16.364107   7.810560   0.903523 # o*  
   423      3  17.116107   7.152510   1.075413 # h*  
   424      3  15.746207   7.266910   0.367651 # h*  
   425      5  15.452207   9.166570  26.511743 # o*  
   426      3  15.376007   9.287980  27.497043 # h*  
   427      3  15.847607   9.998370  26.069343 # h*  
   428      5  21.038607   7.015000  16.945143 # o*  
   429      3  22.065707   6.910990  16.825743 # h*  
   430      3  20.730907   7.804860  16.412343 # h*  
   431      5  18.868507  10.441970  10.891343 # o*  
   432      3  19.612207  10.988770  10.510743 # h*  
   433      3  19.044707   9.469960  10.546143 # h*  
   434      5  14.622107   6.898840  11.270943 # o*  
   435      3  15.626707   7.015340  11.464643 # h*  
   436      3  14.604507   6.051830  10.726843 # h*  
   437      5  19.240407   5.970720  14.741843 # o*  
   438      3  20.193807   6.344880  14.602143 # h*  
   439      3  19.168907   5.328940  15.539043 # h*  
   440      5  15.557407  11.458270  12.072443 # o*  
   441      3  12.941207   8.338100  13.480943 # h*  
   442      3  11.657007   7.541080  12.794643 # h*  
   443      5  20.453007   9.223780  14.630143 # o*  
   444      3  20.736007  10.112470  15.013243 # h*  
   445      3  19.531707   9.534520  14.319643 # h*  
   446      5  14.388107   9.149110  13.210743 # o*  
   447      3  15.200207   9.087160  13.848743 # h*  
   448      3  14.842207   9.665210  12.459943 # h*  
   449      4  21.824207   3.676630  26.217343 # ho  
   450      4  17.151807   9.288710   0.159046 # ho  
   451      9  15.894707  14.397670   3.332293 # st  
   452      9  14.489707  16.047870  22.763643 # st  
   453      9  13.287007  12.897770  18.266043 # st  
   454      9  10.146857  17.507370   8.008963 # st  
   455      9  14.789707  16.516070   1.411143 # st  
   456      9  17.683407  11.917470  24.909243 # st  
   457      9  12.337207  14.632070  15.864643 # st  
   458      9  13.905607  13.813570   9.942243 # st  
   459      9  13.179807  17.878970   3.694003 # st  
   460      9  16.001207  13.457770  22.774843 # st  
   461      9  10.866307  16.546870  17.898343 # st  
   462      9  11.856907  14.908670   8.046563 # st  
   463      1  15.464907  14.650670   6.686063 # cah 
   464      1  14.479007  16.188470  19.626743 # cah 
   465      1  12.946307  13.245870  21.516243 # cah 
   466      1   9.788717  17.606670   4.788133 # cah 
   467      1  12.426407  14.696270   4.919193 # cah 
   468      1  11.201907  16.493870  21.266243 # cah 
   469      1  16.394707  13.100870  19.501943 # cah 
   470      1  13.649207  17.833770   7.126773 # cah 
   471      1  12.113607  12.738570  13.187143 # cah 
   472      6  15.672907  15.337370   2.137133 # ob  
   473      6  18.346307  10.718970  24.178643 # ob  
   474      6  12.699707  13.553470  16.974143 # ob  
   475      6  14.237507  12.533670   9.050933 # ob  
   476      6  16.553507  13.006470   2.834663 # ob  
   477      6  15.104707  14.661170  23.218643 # ob  
   478      6  14.207607  11.672170  17.938243 # ob  
   479      6  10.859807  16.154070   8.352553 # ob  
   480      6  16.742107  15.224070   4.394713 # ob  
   481      6  19.771207  10.649470  22.060643 # ob  
   482      6  14.156407  13.954370  19.093543 # ob  
   483      6  15.011207  12.096270   6.692133 # ob  
   484      6  14.555407  14.030870   4.043233 # ob  
   485      6  13.428307  15.704670  21.663243 # ob  
   486      6  12.147807  12.377270  19.157343 # ob  
   487      6   8.813157  17.206370   7.292483 # ob  
   488      8  17.035407  11.442170  26.288643 # oh  
   489      8  14.013407  15.764470   0.185242 # oh  
   490      6  13.786007  13.390770  11.382343 # ob  
   491      6  11.343507  14.109770  14.865743 # ob  
   492      6  13.728007  17.060670   2.392713 # ob  
   493      6  16.571207  12.497570  23.945343 # ob  
   494      6  11.538007  15.923170  16.565043 # ob  
   495      6  12.596507  14.455270   9.389983 # ob  
   496      6  12.038107  16.997370   4.290453 # ob  
   497      6  15.264507  12.571370  21.709543 # ob  
   498      6   9.822737  15.602670  18.537543 # ob  
   499      6  11.145907  13.682870   7.334263 # ob  
   500      6  18.706707  12.312170   4.171793 # ob  
   501      6  17.258907  13.970570  22.017543 # ob  
   502      6  16.051107  10.622470  19.264843 # ob  
   503      6  12.881107  15.574170   7.098093 # ob  
   504      8   9.697897  17.307670   0.921783 # oh  
   505      4   9.584897  18.297770   0.603740 # ho  
   506      8  11.600007  12.370970  26.314443 # oh  
   507      4  12.319807  13.006970  25.904543 # ho  
   508      8  13.669007  15.176170  15.125343 # oh  
   509      4  13.719307  15.913770  14.430843 # ho  
   510      8  15.095107  14.890470   9.648163 # oh  
   511      4  15.944607  14.801770  10.272143 # ho  
   512      5  10.687607  13.878070   0.739514 # o*  
   513      3  10.545007  13.786170   1.751583 # h*  
   514      3  11.190807  14.705970   0.448165 # h*  
   515      5   7.478957  13.066970  29.248643 # o*  
   516      3   8.235367  13.002770  29.903343 # h*  
   517      3   6.710417  13.625770  29.656243 # h*  
   518      5  15.706807  14.281470  16.749343 # o*  
   519      3  15.110307  14.871770  16.195343 # h*  
   520      3  15.945807  14.882070  17.532843 # h*  
   521      5  13.425607  17.109870   9.705543 # o*  
   522      3  14.161907  16.395970   9.650223 # h*  
   523      3  13.819907  17.769770  10.413443 # h*  
   524      5  11.589207  16.244370  11.644243 # o*  
   525      3  12.598407  16.242670  11.799243 # h*  
   526      3  11.585207  16.394770  10.646843 # h*  
   527      5  13.249307  11.352470  14.831443 # o*  
   528      3  13.199407  11.303170  15.843143 # h*  
   529      3  13.705907  10.566570  14.359243 # h*  
   530      5  14.237107  16.386770  12.617343 # o*  
   531      3   7.857237  15.127970  13.099943 # h*  
   532      3   6.406217  14.540870  12.439643 # h*  
   533      5  17.087807  12.491570  15.250643 # o*  
   534      3  16.692707  13.013270  16.045343 # h*  
   535      3  16.285407  12.083670  14.818843 # h*  
   536      5   9.695437  15.464170  13.363143 # o*  
   537      3  10.271407  14.837270  13.935843 # h*  
   538      3  10.317507  15.590570  12.534943 # h*  
   539      4  16.435007  12.127070  26.775543 # ho  
   540      4  13.008307  16.020170  57.859343 # ho  
   541      9  10.126397   1.977260   3.563943 # st  
   542      9   9.309707   3.668920  22.977443 # st  
   543      9   7.896617   0.661114  18.453143 # st  
   544      9   4.740867   5.038530   7.966703 # st  
   545      9   9.094607   3.899680   1.455083 # st  
   546      9  20.469407  17.929770  25.201643 # st  
   547      9   7.086437   2.595150  16.191643 # st  
   548      9   7.735417   0.768130  10.263643 # st  
   549      9   7.953837   5.641340   3.695513 # st  
   550      9  11.009607   1.132650  23.088043 # st  
   551      9   5.411467   4.176800  18.114143 # st  
   552      9   6.510937   2.538920   7.955623 # st  
   553      1   9.992557   2.221760   6.679093 # cah 
   554      1   8.851847   3.627330  19.907343 # cah 
   555      1   7.855767   0.743410  22.015243 # cah 
   556      1   4.385367   5.256120   4.883553 # cah 
   557      1   6.576697   2.060580   4.768773 # cah 
   558      1   5.840897   3.962420  21.766543 # cah 
   559      1  11.216007   0.766158  20.040943 # cah 
   560      1   7.944867   5.352000   6.708363 # cah 
   561      1   5.506737   1.268050  12.968643 # cah 
   562      6   9.620477   2.738690   2.322683 # ob  
   563      6  20.949907  16.789870  24.197543 # ob  
   564      6   7.627517   1.587870  17.287943 # ob  
   565      6  16.671207  18.266870   9.386693 # ob  
   566      6  11.181107   0.784324   3.117973 # ob  
   567      6  10.167107   2.424130  23.434543 # ob  
   568      6  17.097907  18.067870  18.026343 # ob  
   569      6   5.689627   3.859820   8.339513 # ob  
   570      6  10.866007   2.970420   4.427093 # ob  
   571      6  22.152007  16.912570  21.876143 # ob  
   572      6   8.579337   1.336350  19.650743 # ob  
   573      6  18.109207  18.359970   7.158073 # ob  
   574      6   8.934887   1.365220   4.343503 # ob  
   575      6   7.991047   3.204490  22.214643 # ob  
   576      6   6.554227   0.034719  18.889243 # ob  
   577      6   3.509877   4.525440   7.204063 # ob  
   578      8  19.301407  17.425070  26.219343 # oh  
   579      8   8.027847   3.391320   0.442854 # oh  
   580      6   6.738227   0.147154  11.333043 # ob  
   581      6   6.057257   1.909680  15.260843 # ob  
   582      6   8.474747   5.021420   2.381583 # ob  
   583      6  11.618007   0.516709  24.373643 # ob  
   584      6   6.401347   3.757060  17.016243 # ob  
   585      6   6.941967   1.676920   9.263573 # ob  
   586      6   7.134757   4.543990   4.488663 # ob  
   587      6  10.143417   0.210907  22.223843 # ob  
   588      6   4.344227   3.116110  18.371143 # ob  
   589      6   5.567287   1.670160   7.106813 # ob  
   590      6  21.198507  18.262670   4.373983 # ob  
   591      6  12.273107   1.539950  22.227943 # ob  
   592      6  18.971907  16.926370  19.352543 # ob  
   593      6   7.738987   3.003940   7.184653 # ob  
   594      8   3.780577   4.986950   0.873033 # oh  
   595      4   3.423437   5.965580   0.910533 # ho  
   596      8   7.145887   0.297898  24.557543 # oh  
   597      4   7.704247   0.622978  25.394743 # ho  
   598      8   8.248587   3.157870  15.295943 # oh  
   599      4   8.038917   3.136180  14.256343 # ho  
   600      8   8.780327   1.650410  11.032643 # oh  
   601      4   9.560507   1.059120  11.375343 # ho  
   602      5   6.764717   1.417710   1.803923 # o*  
   603      3   7.285437   0.649416   1.412533 # h*  
   604      3   5.829847   1.037870   1.995843 # h*  
   605      5   5.042157   3.925210  24.339343 # o*  
   606      3   4.409087   4.687660  24.152543 # h*  
   607      3   4.859847   3.604310  25.270943 # h*  
   608      5  20.882707  18.180970  14.698443 # o*  
   609      3  19.883207  18.255670  14.921143 # h*  
   610      3  13.130807   0.504470  15.016143 # h*  
   611      5   8.580317   4.536310   9.488003 # o*  
   612      3   8.496667   3.844390   8.706333 # h*  
   613      3   9.540577   4.845990   9.641873 # h*  
   614      5   4.295627   3.624170  11.362043 # o*  
   615      3   3.764737   4.308170  11.877743 # h*  
   616      3   4.837307   4.256030  10.748743 # h*  
   617      5  10.408407   0.285412  15.477543 # o*  
   618      3  10.119607   1.242910  15.526343 # h*  
   619      3  18.059607  18.477970  16.236543 # h*  
   620      5   7.138397   3.356190  12.695943 # o*  
   621      3  21.044807   3.842250  13.363543 # h*  
   622      3  21.339507   3.016220  12.012143 # h*  
   623      5  10.973207   0.026819  11.546243 # o*  
   624      3  20.046107  18.426470  11.259443 # h*  
   625      3  18.842807  17.817870  12.150243 # h*  
   626      5   4.162147   5.975010  13.675643 # o*  
   627      3   5.105267   5.705240  13.545543 # h*  
   628      3   3.677087   6.190910  12.750143 # h*  
   629      4  19.181107  18.236870  26.892243 # ho  
   630      4   7.341157   2.683080   0.738986 # ho  
   631      9   6.180167   8.192550   3.821823 # st  
   632      9   5.142247   9.948840  22.922843 # st  
   633      9   3.832997   6.718190  18.324543 # st  
   634      9  21.084707  11.240470   8.287123 # st  
   635      9   5.199047  10.147270   1.551333 # st  
   636      9   8.279867   5.691630  25.238443 # st  
   637      9  23.783907   9.173950  16.538743 # st  
   638      9   3.721667   6.984410  10.129443 # st  
   639      9  24.198207  11.757670   3.590463 # st  
   640      9   6.861387   7.416060  23.126743 # st  
   641      9  21.785507  10.424570  18.470243 # st  
   642      9  22.738607   8.663920   8.124963 # st  
   643      1   5.926497   8.405360   7.006903 # cah 
   644      1   4.997887  10.110770  19.779943 # cah 
   645      1   3.282957   6.983690  21.592743 # cah 
   646      1  20.955507  11.681670   4.975903 # cah 
   647      1  23.145307   8.520890   4.680253 # cah 
   648      1  22.110507  10.088370  21.711043 # cah 
   649      1   6.929367   7.043590  19.913443 # cah 
   650      1  24.418307  11.693970   6.815583 # cah 
   651      1  22.065607   8.082290  13.251343 # cah 
   652      6   5.749597   9.037310   2.565753 # ob  
   653      6   8.846277   4.668160  24.224043 # ob  
   654      6   3.346827   7.674850  17.104143 # ob  
   655      6   4.275347   5.839720   9.326093 # ob  
   656      6   6.991817   6.891610   3.507023 # ob  
   657      6   5.900677   8.616870  23.376243 # ob  
   658      6   4.728707   5.508530  17.884443 # ob  
   659      6  21.903407   9.918200   8.635913 # ob  
   660      6   7.116487   9.130660   4.752503 # ob  
   661      6  10.120917   4.573770  22.012643 # ob  
   662      6   4.672737   7.607610  19.376643 # ob  
   663      6   5.487797   6.066150   7.108413 # ob  
   664      6   4.885637   7.785220   4.668333 # ob  
   665      6  24.460407   9.560630  22.083143 # ob  
   666      6  23.115007   6.252320  19.146543 # ob  
   667      6  19.889407  10.911770   7.323613 # ob  
   668      8   7.229947   5.025580  26.282143 # oh  
   669      8   4.498717   9.458190   0.267150 # oh  
   670      6   3.078247   6.491120  11.433543 # ob  
   671      6  23.615707   9.149430  15.038243 # ob  
   672      6  24.705607  10.965270   2.324633 # ob  
   673      6   7.440937   6.792210  24.411143 # ob  
   674      6  22.589107   9.847760  17.286143 # ob  
   675      6  23.215907   7.810480   9.301353 # ob  
   676      6  23.119607  11.019570   4.416623 # ob  
   677      6   6.093407   6.433700  22.131643 # ob  
   678      6  20.803707   9.414370  19.177843 # ob  
   679      6  21.769207   7.859610   7.169563 # ob  
   680      6   9.155717   6.073510   4.579183 # ob  
   681      6   8.096777   7.917690  22.238743 # ob  
   682      6   6.377817   4.314360  19.419843 # ob  
   683      6  23.939807   9.163290   7.236543 # ob  
   684      8  20.066207  11.264270   0.365056 # oh  
   685      4  19.949307  12.286870   0.553099 # ho  
   686      8  22.965807   6.374170  25.599743 # oh  
   687      4  22.914607   7.322100  26.060843 # ho  
   688      8   4.626017   9.939030  16.916543 # oh  
   689      4   5.507387   9.698000  16.426743 # ho  
   690      8   4.926257   7.961360  10.444043 # oh  
   691      4   5.831987   7.565740  10.717243 # ho  
   692      5  23.486707   7.491070   1.017423 # o*  
   693      3  22.653607   8.035330   0.866873 # h*  
   694      3   3.704247   8.073350   0.654081 # h*  
   695      5  20.751807   9.454890  25.814843 # o*  
   696      3  21.281607   8.921190  26.481643 # h*  
   697      3  20.305607   8.807680  25.173243 # h*  
   698      5   6.057427   8.859620  14.828143 # o*  
   699      3   5.386777   8.093170  14.819643 # h*  
   700      3   6.964857   8.377020  14.934143 # h*  
   701      5  25.015507  10.838070   9.660913 # o*  
   702      3   4.448887   9.898940  10.021443 # h*  
   703      3   5.065797  10.867970   8.841393 # h*  
   704      5  22.191807   9.864770  11.520243 # o*  
   705      3  22.890407  10.568570  11.668643 # h*  
   706      3  22.154807   9.648560  10.523143 # h*  
   707      5  22.083907   6.013980  14.582443 # o*  
   708      3  21.735007   5.116970  14.926043 # h*  
   709      3  23.082207   5.871860  14.479843 # h*  
   710      5   8.209837  10.325770  11.532843 # o*  
   711      3  14.958407  12.234770  11.813343 # h*  
   712      3  16.476307  11.740670  11.864243 # h*  
   713      5   6.676827   5.720470  11.326443 # o*  
   714      3   7.219087   5.251490  10.607443 # h*  
   715      3   7.338897   6.283880  11.838943 # h*  
   716      5  18.244307  10.291570  13.528943 # o*  
   717      3  18.161907  10.167270  12.485943 # h*  
   718      3  17.455307   9.697920  13.854343 # h*  
   719      4   6.291547   5.477570  26.291743 # ho  
   720      4  24.892207  10.085370  57.378643 # ho  
   721      9  22.659207  14.472170   3.471393 # st  
   722      9  21.370607  15.989170  22.954743 # st  
   723      9  20.060007  13.023470  18.479743 # st  
   724      9  17.085907  17.481570   8.037353 # st  
   725      9  21.556107  16.441370   1.223073 # st  
   726      9  24.546207  11.758170  25.134143 # st  
   727      9  19.742707  15.287770  16.314943 # st  
   728      9  20.111607  13.345870  10.219043 # st  
   729      9  20.052407  18.018070   3.478903 # st  
   730      9  23.056807  13.405970  23.037943 # st  
   731      9  17.862707  16.699770  18.280743 # st  
   732      9  18.661007  14.810370   7.986593 # st  
   733      1  22.219307  14.482170   6.656333 # cah 
   734      1  21.120007  16.172270  19.855843 # cah 
   735      1  19.826607  13.091070  21.634843 # cah 
   736      1  16.743807  17.635970   4.824473 # cah 
   737      1  19.122307  14.859970   4.692073 # cah 
   738      1  17.977007  16.457370  21.752543 # cah 
   739      1  23.352507  13.173470  19.708243 # cah 
   740      1  20.545307  17.784870   6.818793 # cah 
   741      1  19.167507  12.591170  13.916643 # cah 
   742      6  21.975307  15.237470   2.225033 # ob  
   743      6   4.700007  10.819870  24.131743 # ob  
   744      6  19.838407  13.897970  17.168143 # ob  
   745      6  20.533907  12.006970   9.563743 # ob  
   746      6  23.526507  13.192570   3.136723 # ob  
   747      6  22.278307  14.744470  23.410343 # ob  
   748      6  20.883507  11.672070  18.094543 # ob  
   749      6  17.914707  16.160270   8.398213 # ob  
   750      6  23.595907  15.480870   4.214203 # ob  
   751      6   6.068277  10.764770  21.982043 # ob  
   752      6  20.795107  13.879570  19.471643 # ob  
   753      6  22.041907  12.249670   7.471153 # ob  
   754      6  21.519507  13.994170   4.443053 # ob  
   755      6  20.125607  15.487670  22.201643 # ob  
   756      6  18.690107  12.524570  19.154443 # ob  
   757      6  15.873507  17.088670   7.167053 # ob  
   758      8  23.806007  10.981270  26.295543 # oh  
   759      8  20.704607  15.936270  57.872843 # oh  
   760      6  19.635907  13.207070  11.663643 # ob  
   761      6  19.675807  15.042570  14.797343 # ob  
   762      6  20.624107  17.402270   2.137413 # ob  
   763      6  23.504607  12.717470  24.388443 # ob  
   764      6  18.536907  16.081570  16.999843 # ob  
   765      6  19.167407  14.121570   9.263193 # ob  
   766      6  19.067607  17.060170   4.220133 # ob  
   767      6  22.079307  12.448970  22.292043 # ob  
   768      6  16.792207  15.626470  18.778343 # ob  
   769      6  17.645007  13.901870   7.182983 # ob  
   770      6  25.379807  12.070970   4.508983 # ob  
   771      6  24.273907  13.735070  22.122343 # ob  
   772      6  22.793707  10.874970  19.611943 # ob  
   773      6  19.835007  15.051170   7.056593 # ob  
   774      8  15.798507  17.602070   0.985683 # oh  
   775      4  16.711307  17.230570   0.628363 # ho  
   776      8  18.755807  13.063470  25.226043 # oh  
   777      4  19.776007  12.857970  25.364843 # ho  
   778      8  21.008407  16.133770  16.747143 # oh  
   779      4  21.330607  16.940970  16.150043 # ho  
   780      8  21.456507  14.261070  10.221343 # oh  
   781      4  22.437607  13.812670  10.180543 # ho  
   782      5  21.937907  15.765670  55.517843 # o*  
   783      3  22.439507  16.043970  54.675643 # h*  
   784      3  22.766207  15.350470  55.960343 # h*  
   785      5  17.780507  15.400170  26.200243 # o*  
   786      3  18.322807  16.288570  26.178043 # h*  
   787      3  18.372407  14.612970  25.902143 # h*  
   788      5  23.368707  12.975270  17.032243 # o*  
   789      3  23.717107  12.608870  16.167043 # h*  
   790      3  23.448907  13.997070  16.944743 # h*  
   791      5  21.116407  16.754170   9.212273 # o*  
   792      3  21.383207  17.265170  10.065743 # h*  
   793      3  21.305507  15.790870   9.500593 # h*  
   794      5  17.280907  14.618970  11.565543 # o*  
   795      3  18.132007  14.073270  11.415643 # h*  
   796      3  17.663107  15.336070  12.199543 # h*  
   797      5  21.245807  11.781870  15.336243 # o*  
   798      3  21.456007  11.828070  16.337143 # h*  
   799      3  21.983607  12.352870  14.940943 # h*  
   800      5  21.253907  15.574870  12.820343 # o*  
   801      3  14.672507  17.244670  12.338643 # h*  
   802      3  14.877207  15.649870  12.345743 # h*  
   803      5  24.474407  10.717270  13.331843 # o*  
   804      3  23.976207  10.137670  14.025343 # h*  
   805      3  23.964207  11.602770  13.394943 # h*  
   806      5  18.151707  16.643570  13.179043 # o*  
   807      3  18.634107  15.922770  13.783243 # h*  
   808      3  17.897307  17.500770  13.694443 # h*  
   809      4  23.285007  11.603670  26.922443 # ho  
   810      4  21.161207  16.111270  56.940343 # ho  
   811      3   7.733287   4.304940  48.361143 # h*  
   812      3   8.458597   3.285300  49.103843 # h*  
   813      5   7.501307   3.412560  48.824543 # o*  
   814      3  26.102207  17.084470  41.168743 # h*  
   815      3  27.512907  16.122470  41.209143 # h*  
   816      5  26.648007  16.390770  41.714443 # o*  
   817      3  17.216007  15.356670  57.579543 # h*  
   818      3  16.552307  14.295970   0.637966 # h*  
   819      5  16.893007  14.406570  57.607543 # o*  
   820      3  17.868407  13.104670  48.871643 # h*  
   821      3  16.542307  14.001170  49.029843 # h*  
   822      5  17.385907  13.682470  49.529943 # o*  
   823      3  22.142707  10.035870  43.592543 # h*  
   824      3  22.805607  11.349170  44.090843 # h*  
   825      5  23.082507  10.440070  43.675243 # o*  
   826      3  16.657007  11.151770  56.391843 # h*  
   827      3  16.726307  12.729270  56.487243 # h*  
   828      5  16.759607  11.969170  55.802143 # o*  
   829      3  12.622207   3.217980  25.198243 # h*  
   830      3  12.684407   4.760240  24.979343 # h*  
   831      5  12.685207   3.897390  24.444843 # o*  
   832      3  19.100907   0.407749  43.972343 # h*  
   833      3  27.086907  17.528570  43.209143 # h*  
   834      5  27.700207  18.140870  43.747443 # o*  
   835      3   7.462137   9.983070  52.927343 # h*  
   836      3   6.972047   9.023190  54.067943 # h*  
   837      5   7.000457   9.083160  53.061543 # o*  
   838      3  16.202307  16.781770  34.979743 # h*  
   839      3  16.183107  18.035170  34.033843 # h*  
   840      5  16.138007  17.016070  33.990043 # o*  
   841      3  18.907107   6.534260  31.283243 # h*  
   842      3  19.516307   7.014800  32.690143 # h*  
   843      5  18.702507   6.519580  32.276243 # o*  
   844      3  16.861607  14.170970  41.800343 # h*  
   845      3  17.428507  12.613370  41.741943 # h*  
   846      5  16.702407  13.251870  41.386743 # o*  
   847      3   7.540517   3.256030  56.510243 # h*  
   848      3   7.516467   2.842260  55.006643 # h*  
   849      5   7.051437   2.578880  55.887343 # o*  
   850      3  19.044407  12.587570  46.007543 # h*  
   851      3  20.296607  11.524770  46.119543 # h*  
   852      5  19.646907  12.079870  46.682843 # o*  
   853      3  19.705007  10.882670  52.197043 # h*  
   854      3  20.539307  11.990270  51.473843 # h*  
   855      5  20.033307  11.140070  51.271143 # o*  
   856      3  16.093707   4.168820  42.913843 # h*  
   857      3  14.783307   5.184430  42.627843 # h*  
   858      5  15.796707   5.126750  42.675443 # o*  
   859      3  21.865907   7.111340  29.943743 # h*  
   860      3  23.355207   7.723600  30.377343 # h*  
   861      5  22.422007   7.484520  30.697243 # o*  
   862      3  16.691007  15.763170  51.927943 # h*  
   863      3  16.975807  14.705070  50.757543 # h*  
   864      5  16.340007  15.458670  51.037243 # o*  
   865      3   8.234677  15.079970  45.715643 # h*  
   866      3   7.432747  16.070870  44.729843 # h*  
   867      5   7.518747  15.092170  44.966643 # o*  
   868      3  20.242907  15.701170  46.475743 # h*  
   869      3  18.964207  16.533170  46.385043 # h*  
   870      5  19.362807  15.689470  45.931043 # o*  
   871      3  19.991707   3.873080  41.887343 # h*  
   872      3  19.245507   3.394260  43.174543 # h*  
   873      5  19.859107   3.038160  42.464143 # o*  
   874      3   8.124557  14.838170  24.855243 # h*  
   875      3   8.098677  14.274570  26.347243 # h*  
   876      5   7.530697  14.791970  25.691243 # o*  
   877      3   7.180867  10.064070  44.796243 # h*  
   878      3   7.791347  11.287470  44.126143 # h*  
   879      5   8.114277  10.414870  44.536043 # o*  
   880      3  22.941407   9.416750  54.449443 # h*  
   881      3  23.209707  10.685170  55.409843 # h*  
   882      5  23.279407  10.369570  54.443043 # o*  
   883      3  14.688407  -0.071386  34.166343 # h*  
   884      3  23.470107  17.082470  34.829643 # h*  
   885      5  23.424907  17.683670  34.026143 # o*  
   886      3  15.222107   5.606870  48.395943 # h*  
   887      3  14.861907   4.138920  48.766843 # h*  
   888      5  15.656207   4.693490  48.508743 # o*  
   889      3  20.274507  13.161970  28.728943 # h*  
   890      3  20.919507  12.469070  27.478643 # h*  
   891      5  20.576707  12.266170  28.405043 # o*  
   892      3  10.518407  17.191770  32.878643 # h*  
   893      3  11.878107  16.955870  33.723543 # h*  
   894      5  10.874907  17.145870  33.851343 # o*  
   895      3  27.021907  17.664870  55.665643 # h*  
   896      3   7.852447  17.556670  54.955743 # h*  
   897      5  27.736207  16.946770  55.456843 # o*  
   898      3   8.835077  13.509870  28.095243 # h*  
   899      3  10.406907  13.776170  27.431443 # h*  
   900      5   9.470407  14.108370  27.570043 # o*  
   901      3   3.708057   1.384920  28.180143 # h*  
   902      3   3.217647   2.322240  27.107143 # h*  
   903      5   3.985567   2.286940  27.776743 # o*  
   904      3  24.771307  12.020770  54.542043 # h*  
   905      3  24.949007  12.582670  52.973143 # h*  
   906      5  25.112107  12.805070  53.952143 # o*  
   907      3   6.545837  13.557370  50.420543 # h*  
   908      3   7.880427  14.340670  50.202443 # h*  
   909      5   7.306937  13.961470  50.938043 # o*  
   910      3  15.927207   2.217910  44.130743 # h*  
   911      3  17.435507   2.631410  43.855543 # h*  
   912      5  16.546907   2.561750  43.395643 # o*  
   913      3  16.351007   5.786730  55.376843 # h*  
   914      3  15.222207   6.797870  55.837043 # h*  
   915      5  16.028707   6.298920  56.201343 # o*  
   916      3   1.602247  -0.044268  50.761443 # h*  
   917      3   2.795387   0.664705  49.846843 # h*  
   918      5   2.631657   0.065092  50.652543 # o*  
   919      3  18.655807  17.508270  44.801443 # h*  
   920      3  10.175807  -0.032339  43.506543 # h*  
   921      5  18.811307  17.703770  43.831243 # o*  
   922      3  11.106207  16.749170  58.031543 # h*  
   923      3  11.894707  17.238070  56.726243 # h*  
   924      5  11.765307  16.404470  57.297943 # o*  
   925      3  12.697207  15.432670  49.288243 # h*  
   926      3  11.963607  16.024670  48.040843 # h*  
   927      5  12.027607  15.146870  48.569943 # o*  
   928      3  24.131007  12.081970  36.927643 # h*  
   929      3  25.386107  11.186370  36.556343 # h*  
   930      5  24.709207  11.819270  36.142143 # o*  
   931      3  14.752307  15.532170  50.616543 # h*  
   932      3  13.717107  16.770270  50.373643 # h*  
   933      5  13.792207  15.754370  50.385943 # o*  
   934      3  21.205607   9.621520  38.209943 # h*  
   935      3  20.692607  11.036870  37.876743 # h*  
   936      5  21.458207  10.620670  38.381243 # o*  
   937      3   8.663597   2.810550  36.840843 # h*  
   938      3   9.486937   1.390370  37.168743 # h*  
   939      5   8.702817   1.934570  37.415843 # o*  
   940      3  14.638407  14.892170  39.870543 # h*  
   941      3  15.385507  14.350770  41.079643 # h*  
   942      5  14.484607  14.782770  40.853343 # o*  
   943      3  24.213907  14.130770  28.250043 # h*  
   944      3  22.900007  15.095770  27.925243 # h*  
   945      5  23.203807  14.147970  28.217743 # o*  
   946      3  23.071007  15.025670  35.383343 # h*  
   947      3  23.156007  15.610570  36.863843 # h*  
   948      5  23.447607  15.806670  35.921243 # o*  
   949      3  25.928007  15.900970  52.348743 # h*  
   950      3  27.294507  15.679270  51.506343 # h*  
   951      5  26.548407  16.381870  51.678943 # o*  
   952      3   9.502587  12.224470  31.276543 # h*  
   953      3   9.746347  13.720970  31.464943 # h*  
   954      5   9.033447  13.014070  31.651943 # o*  
   955      3  11.603807   1.673770  46.461143 # h*  
   956      3  10.571207   0.645408  46.993543 # h*  
   957      5  10.741907   1.639190  46.981043 # o*  
   958      3  25.805707  15.679070  29.429743 # h*  
   959      3  25.299607  14.919370  30.727943 # h*  
   960      5  25.946207  14.791570  29.944443 # o*  
   961      3  21.925307   7.306780  40.974043 # h*  
   962      3  22.753107   6.353530  39.844943 # h*  
   963      5  21.970707   6.965880  39.993143 # o*  
   964      3  17.898007   5.124050  50.802543 # h*  
   965      3  16.752407   5.470070  49.756343 # h*  
   966      5  17.124207   5.755650  50.671843 # o*  
   967      3  14.574807   1.802740   0.008816 # h*  
   968      3  15.452707   2.808920  57.080643 # h*  
   969      5  15.034407   1.872720  57.028343 # o*  
   970      3  20.469607   3.575300  38.149343 # h*  
   971      3  19.024007   3.542360  37.682043 # h*  
   972      5  19.539907   3.630040  38.571843 # o*  
   973      3   9.740957   0.239270  30.052543 # h*  
   974      3  17.514207  17.339870  30.462543 # h*  
   975      5  17.079007  18.205770  30.174743 # o*  
   976      3   7.314177   7.311140  52.100143 # h*  
   977      3   8.056577   7.133060  50.796943 # h*  
   978      5   7.637317   6.557620  51.495143 # o*  
   979      3   2.952557   0.734819  37.969043 # h*  
   980      3   2.993507   1.920670  39.017543 # h*  
   981      5   2.344337   1.371110  38.471043 # o*  
   982      3  17.446407   0.207318  32.084543 # h*  
   983      3  18.084707   0.923544  33.368643 # h*  
   984      5  17.715807   1.116930  32.457843 # o*  
   985      3  17.654407   7.882630  28.106543 # h*  
   986      3  18.153407   6.337500  28.054543 # h*  
   987      5  17.392707   6.914910  28.349543 # o*  
   988      3  13.316007   8.124540  27.580243 # h*  
   989      3  13.686207   8.567540  26.089043 # h*  
   990      5  12.916107   8.214440  26.641943 # o*  
   991      3  16.346707   6.370460  29.410443 # h*  
   992      3  15.601807   7.153600  30.644943 # h*  
   993      5  15.760807   6.221670  30.236543 # o*  
   994      3   7.900717   2.168040  38.890043 # h*  
   995      3   6.892587   1.163820  39.645043 # h*  
   996      5   7.273997   2.088660  39.698143 # o*  
   997      3  20.116207   6.518100  48.688043 # h*  
   998      3  19.685207   8.034030  48.116043 # h*  
   999      5  20.274907   7.234200  48.003343 # o*  
  1000      3   2.431007   2.210850  24.739443 # h*  
  1001      3   1.535877   1.284680  25.647343 # h*  
  1002      5   2.154427   2.104550  25.722543 # o*  
  1003      3  13.761107   7.018420  29.091943 # h*  
  1004      3  14.305107   8.190160  30.048743 # h*  
  1005      5  13.925707   8.008200  29.127843 # o*  
  1006      3   9.785247  10.254170  35.669243 # h*  
  1007      3   9.930307   9.994770  34.123543 # h*  
  1008      5  10.353107   9.748490  35.033143 # o*  
  1009      3  20.030307   1.050360  34.934543 # h*  
  1010      3  20.392007   2.527690  34.375643 # h*  
  1011      5  20.703907   1.793060  35.017243 # o*  
  1012      3  14.235807   7.427320  51.867243 # h*  
  1013      3  14.038307   6.099520  52.897443 # h*  
  1014      5  13.645407   6.651170  52.190243 # o*  
  1015      3  19.623607   5.538260  35.831743 # h*  
  1016      3  18.230107   6.080580  36.199643 # h*  
  1017      5  18.676507   5.206850  35.875943 # o*  
  1018      3   8.110377   7.883210  38.511543 # h*  
  1019      3   7.342717   7.657630  37.069043 # h*  
  1020      5   7.888327   7.164080  37.814543 # o*  
  1021      3  10.796907   1.540060  55.310643 # h*  
  1022      3  11.001407   3.009780  55.858443 # h*  
  1023      5  10.537907   2.168220  56.055143 # o*  
  1024      3  12.780007   2.451330  49.334843 # h*  
  1025      3  13.472107   2.802540  47.842643 # h*  
  1026      5  13.193607   3.200370  48.762343 # o*  
  1027      3   4.563897   3.287530  31.380743 # h*  
  1028      3   4.758757   1.753290  30.824443 # h*  
  1029      5   4.106107   2.531950  30.848343 # o*  
  1030      3  16.877407  14.207470  38.579243 # h*  
  1031      3  17.486107  15.414470  37.581443 # h*  
  1032      5  17.556807  14.957570  38.489043 # o*  
  1033      3   4.916437   5.397450  39.324643 # h*  
  1034      3   3.635167   4.526400  39.725343 # h*  
  1035      5   3.886297   5.385550  39.213443 # o*  
  1036      3  22.394707  13.128570  45.043043 # h*  
  1037      3  21.224807  12.921270  43.866343 # h*  
  1038      5  21.690507  12.493570  44.653843 # o*  
  1039      3  13.262207   4.602200  54.281243 # h*  
  1040      3  12.508807   4.319190  52.855943 # h*  
  1041      5  13.369007   4.115400  53.380243 # o*  
  1042      3   6.267137  13.683270  57.053443 # h*  
  1043      3   6.170917  14.431970   0.407135 # h*  
  1044      5  26.262007  13.606270  57.908943 # o*  
  1045      3   2.579667   2.353170  33.881543 # h*  
  1046      3   3.918257   1.647750  34.127443 # h*  
  1047      5   3.331817   2.374050  34.527543 # o*  
  1048      3  20.616707   3.835000  32.163243 # h*  
  1049      3  19.651807   4.343100  33.273543 # h*  
  1050      5  20.430507   3.689660  33.162943 # o*  
  1051      3   1.834027   4.410250  33.682843 # h*  
  1052      3   2.827277   4.670280  34.941043 # h*  
  1053      5   2.440397   5.118810  34.109143 # o*  
  1054      3  10.820707  17.906470  30.629143 # h*  
  1055      3  10.986707  16.390070  30.978843 # h*  
  1056      5  10.359907  17.163270  31.156443 # o*  
  1057      3  25.039207  16.199370  35.964343 # h*  
  1058      3  26.674607  16.268970  35.837743 # h*  
  1059      5  25.857707  16.737070  36.240443 # o*  
  1060      3  26.044807  14.599470  41.528143 # h*  
  1061      3  24.909307  13.607270  41.857143 # h*  
  1062      5  25.854407  13.609770  41.485043 # o*  
  1063      3  10.115017   2.590020  42.948443 # h*  
  1064      3   9.941047   1.443460  41.764943 # h*  
  1065      5   9.842217   1.628860  42.764543 # o*  
  1066      3  20.178407   4.619730  49.995343 # h*  
  1067      3  20.635207   4.872270  51.483143 # h*  
  1068      5  20.030107   5.260820  50.737843 # o*  
  1069      3  20.712207   5.753310  40.344443 # h*  
  1070      3  19.878407   4.395430  39.972043 # h*  
  1071      5  19.966607   5.108560  40.702243 # o*  
  1072      3   6.771097   0.087505  46.355743 # h*  
  1073      3  14.243407  17.279270  45.833543 # h*  
  1074      5  15.148407  17.713370  46.049743 # o*  
  1075      3  12.926307   4.982490  41.737643 # h*  
  1076      3  11.869907   5.144430  42.983943 # h*  
  1077      5  12.843407   5.151390  42.740343 # o*  
  1078      3  11.945307  17.754470  54.588943 # h*  
  1079      3   4.247427   0.578229  55.328343 # h*  
  1080      5  12.353007  18.182970  55.424043 # o*  
  1081      3  17.698407   2.028170  29.224743 # h*  
  1082      3  18.482707   0.574510  29.119143 # h*  
  1083      5  17.848507   1.201100  28.642043 # o*  
  1084      3  16.059507   6.105370  46.614143 # h*  
  1085      3  16.410307   7.198690  45.431343 # h*  
  1086      5  16.412107   6.230330  45.695443 # o*  
  1087      3  16.618307   8.488880  52.114043 # h*  
  1088      3  15.428107   9.319330  52.683343 # h*  
  1089      5  15.674607   8.747220  51.870243 # o*  
  1090      3  18.917907  16.799970   0.299250 # h*  
  1091      3  17.972007  17.184570  56.836643 # h*  
  1092      5  18.005407  16.905770  57.815643 # o*  
  1093      3  16.153207   5.296770  31.650343 # h*  
  1094      3  17.150607   5.579980  32.860843 # h*  
  1095      5  16.600007   4.827780  32.421043 # o*  
  1096      3  16.841307  11.306170  32.172543 # h*  
  1097      3  17.895407  10.659370  31.165343 # h*  
  1098      5  17.170107  10.387770  31.867243 # o*  
  1099      3   7.144967  12.267970  27.892443 # h*  
  1100      3   7.994397  11.613670  26.597643 # h*  
  1101      5   7.159907  11.506770  27.183243 # o*  
  1102      3  15.536307  14.278270  27.788243 # h*  
  1103      3  16.442707  14.554370  26.561743 # h*  
  1104      5  15.599007  14.006270  26.811643 # o*  
  1105      3  24.681607  13.043470  34.836943 # h*  
  1106      3  25.882007  13.340570  33.854243 # h*  
  1107      5  24.859607  13.441070  33.900043 # o*  
  1108      3   3.914147   3.156400  41.115743 # h*  
  1109      3   2.757977   2.060780  40.776243 # h*  
  1110      5   3.342317   2.792760  40.362643 # o*  
  1111      3   5.806817  11.595670  46.402343 # h*  
  1112      3   6.502177  13.017270  45.924243 # h*  
  1113      5   5.694777  12.598170  46.403243 # o*  
  1114      3  14.870707   2.119920  42.200143 # h*  
  1115      3  14.063607   0.733746  42.029443 # h*  
  1116      5  14.139407   1.669410  41.662343 # o*  
  1117      3  10.978807   6.631200  31.536043 # h*  
  1118      3  11.941107   7.501990  32.574243 # h*  
  1119      5  11.046507   7.011070  32.512243 # o*  
  1120      3  18.833007   1.137370  45.596543 # h*  
  1121      3  18.045907   2.402460  46.187143 # h*  
  1122      5  18.359907   1.968960  45.296043 # o*  
  1123      3   3.601287   5.525170  55.954343 # h*  
  1124      3  22.767107   6.018470  55.427943 # h*  
  1125      5   2.651507   5.191550  55.844243 # o*  
  1126      3  18.521307   9.632670  35.234143 # h*  
  1127      3  19.831907   9.567980  36.333543 # h*  
  1128      5  19.271207  10.124470  35.727343 # o*  
  1129      3  15.501907  11.240170  53.027743 # h*  
  1130      3  15.856207  11.419270  54.515543 # h*  
  1131      5  15.255607  10.832470  53.925143 # o*  
  1132      3  20.419907  14.847770  43.966543 # h*  
  1133      3  20.438807  15.604670  42.544243 # h*  
  1134      5  20.825707  14.838770  43.045543 # o*  
  1135      3  20.298707  17.904370  42.807143 # h*  
  1136      3  20.897207  17.406070  41.384043 # h*  
  1137      5  21.150007  17.706670  42.319443 # o*  
  1138      3  20.595507  13.675570  39.673643 # h*  
  1139      3  19.941807  14.496270  38.401543 # h*  
  1140      5  20.655807  14.498170  39.086043 # o*  
  1141      3  16.981807   4.699800  53.299643 # h*  
  1142      3  17.456807   6.140130  52.873343 # h*  
  1143      5  17.081407   5.638330  53.680543 # o*  
  1144      3  22.665807  17.351970  42.774343 # h*  
  1145      3  24.138707  17.594270  42.260043 # h*  
  1146      5  23.636907  17.133970  43.011343 # o*  
  1147      3   3.266977   4.455750  47.493843 # h*  
  1148      3   3.373717   5.451000  48.736943 # h*  
  1149      5   2.792397   4.697620  48.337343 # o*  
  1150      3  10.888107  15.095570  41.226843 # h*  
  1151      3  10.662307  16.709570  41.722843 # h*  
  1152      5  10.403507  15.942870  41.073143 # o*  
  1153      3  20.978607  11.320270  25.645243 # h*  
  1154      3  22.068207  12.591270  25.303143 # h*  
  1155      5  21.206707  12.308170  25.775043 # o*  
  1156      3   9.090417   5.398890  55.345443 # h*  
  1157      3   9.979607   6.489950  56.113843 # h*  
  1158      5   9.291907   5.755940  56.256443 # o*  
  1159      3   6.706417  10.393770  40.277243 # h*  
  1160      3   5.221147   9.941550  40.761243 # h*  
  1161      5   6.076477   9.605350  40.356543 # o*  
  1162      3  13.984507   3.781470  33.139243 # h*  
  1163      3  14.431007   4.906940  34.232143 # h*  
  1164      5  13.648107   4.607800  33.638843 # o*  
  1165      3  12.507007   0.652980  57.270743 # h*  
  1166      3  13.845707   0.467636  56.278043 # h*  
  1167      5  21.161807  18.580370  56.704643 # o*  
  1168      3   5.463917   1.311450  41.123943 # h*  
  1169      3   6.423267   0.052314  41.445443 # h*  
  1170      5   5.508197   0.316487  41.130543 # o*  
  1171      3   3.896407   3.607800  55.383643 # h*  
  1172      3   5.251037   2.695920  55.294043 # h*  
  1173      5   4.223837   2.658720  55.305943 # o*  
  1174      3  13.641407  18.258170  30.077243 # h*  
  1175      3   6.517567   0.979500  30.364043 # h*  
  1176      5   5.678577   0.489623  30.640643 # o*  
  1177      3  10.973707   0.190532  39.855943 # h*  
  1178      3   9.532437   0.366371  40.456343 # h*  
  1179      5  10.354207   0.897618  40.157643 # o*  
  1180      3   9.913827   7.703480  49.146043 # h*  
  1181      3   8.941287   8.932520  49.671943 # h*  
  1182      5   8.929127   7.960470  49.272043 # o*  
  1183      3  21.908007  12.431170  40.794743 # h*  
  1184      3  21.232307  11.530070  39.772443 # h*  
  1185      5  20.974807  12.189170  40.497343 # o*  
  1186      3  15.331207   0.288862  48.771843 # h*  
  1187      3  16.074807   1.666140  48.269643 # h*  
  1188      5  15.755307   0.760539  47.949843 # o*  
  1189      3  15.817407   1.335910  54.595343 # h*  
  1190      3  14.388907   0.911179  54.138243 # h*  
  1191      5  15.224507   0.530167  54.589043 # o*  
  1192      3  13.096207   2.223100  40.487643 # h*  
  1193      3  11.587307   2.164040  39.919143 # h*  
  1194      5  12.463407   2.671880  39.804943 # o*  
  1195      3  13.227507  12.821170  28.029143 # h*  
  1196      3  13.056707  11.899470  29.198143 # h*  
  1197      5  13.480307  12.787870  29.008043 # o*  
  1198      3  15.675407  16.246870  44.894443 # h*  
  1199      3  15.166607  14.678470  44.529543 # h*  
  1200      5  15.901007  15.399070  44.367043 # o*  
  1201      3  22.466207   7.451520  45.488943 # h*  
  1202      3  21.306007   7.092250  46.504943 # h*  
  1203      5  21.571607   7.033200  45.534243 # o*  
  1204      3   4.585627   9.760110  29.998543 # h*  
  1205      3   4.877777   8.460860  29.264843 # h*  
  1206      5   4.121887   8.882380  29.757043 # o*  
  1207      3  13.188807  13.408770  44.852743 # h*  
  1208      3  14.411607  12.619770  44.364043 # h*  
  1209      5  14.164207  13.537670  44.671043 # o*  
  1210      3  11.724207   5.602990  39.858343 # h*  
  1211      3  12.465607   4.181040  39.855643 # h*  
  1212      5  12.633807   5.194920  40.060443 # o*  
  1213      3  19.255007   5.908690  54.754343 # h*  
  1214      3  19.513707   4.499660  54.571243 # h*  
  1215      5  20.068807   5.348100  54.562343 # o*  
  1216      3   6.551897  11.399370  29.702643 # h*  
  1217      3   5.129617  11.292170  30.504243 # h*  
  1218      5   5.933227  10.758070  30.173243 # o*  
  1219      3  14.457007   8.675250  32.174443 # h*  
  1220      3  15.779007   9.412810  31.617443 # h*  
  1221      5  15.213207   8.563820  31.485443 # o*  
  1222      3  11.771807  10.878270  40.914343 # h*  
  1223      3  10.544707   9.912370  41.514943 # h*  
  1224      5  11.508307  10.189870  41.611943 # o*  
  1225      3  20.481207  10.947970  34.392743 # h*  
  1226      3  21.105807  10.982470  32.887043 # h*  
  1227      5  20.961407  11.528270  33.748743 # o*  
  1228      3   3.510217   1.134740  35.865743 # h*  
  1229      3  11.138207  18.184170  35.774743 # h*  
  1230      5   3.656317   0.206493  36.282443 # o*  
  1231      3  25.120707  12.449670  57.284843 # h*  
  1232      3  23.702107  11.963670  56.838543 # h*  
  1233      5  24.694907  11.667070  56.787943 # o*  
  1234      3   6.927717   0.825701  56.147643 # h*  
  1235      3  14.648907  17.768770  56.158243 # h*  
  1236      5  15.303607  18.472970  55.888043 # o*  
  1237      3  22.746907  14.759770  41.829543 # h*  
  1238      3  23.727607  15.040870  42.988443 # h*  
  1239      5  23.457707  14.302570  42.353343 # o*  
  1240      3  10.848307  14.312670  34.266843 # h*  
  1241      3  10.540507  15.721070  34.683443 # h*  
  1242      5  10.521507  14.783370  35.088943 # o*  
  1243      3  21.749407  15.745470  52.333343 # h*  
  1244      3  20.635707  14.653370  52.267643 # h*  
  1245      5  21.270807  15.136770  51.665843 # o*  
  1246      3   9.251707  16.027070  49.365143 # h*  
  1247      3   9.205577  14.994070  48.127543 # h*  
  1248      5   9.105977  15.085870  49.135143 # o*  
  1249      3  15.403707  10.792370  38.327843 # h*  
  1250      3  14.705607  10.245770  37.001243 # h*  
  1251      5  15.434207  10.876770  37.305543 # o*  
  1252      3  13.180807  18.218670  33.344143 # h*  
  1253      3   5.570917   0.824466  32.452343 # h*  
  1254      5   4.977987   0.636723  33.276643 # o*  
  1255      3  19.809607  11.652770  54.196843 # h*  
  1256      3  18.312307  11.143270  54.658443 # h*  
  1257      5  19.028107  11.057170  53.952843 # o*  
  1258      3   9.807747  17.828070  53.825643 # h*  
  1259      3   1.416167   0.818753  53.922143 # h*  
  1260      5   9.156107  18.480370  54.224743 # o*  
  1261      3  24.237407  14.282670  32.778443 # h*  
  1262      3  23.063507  14.536470  31.705343 # h*  
  1263      5  23.978507  14.892070  31.965143 # o*  
  1264      3  11.132407   1.344140  31.001043 # h*  
  1265      3  12.483507   0.600857  30.716043 # h*  
  1266      5  11.478207   0.523359  30.518643 # o*  
  1267      3  15.530607  18.307970  54.069443 # h*  
  1268      3  14.961007  17.770270  52.608243 # h*  
  1269      5  15.752607  18.170470  53.080143 # o*  
  1270      3  12.605007  11.713470  38.896943 # h*  
  1271      3  13.784807  11.696270  40.074643 # h*  
  1272      5  12.792507  11.869870  39.908643 # o*  
  1273      3   6.131937   2.919830  50.099643 # h*  
  1274      3   4.754787   2.820930  50.912543 # h*  
  1275      5   5.769837   2.616610  51.000543 # o*  
  1276      3   8.407257  10.651470  51.044143 # h*  
  1277      3   9.928267  10.151270  51.175643 # h*  
  1278      5   9.138167  10.137870  50.530143 # o*  
  1279      3  18.925607   9.486640  53.583143 # h*  
  1280      3  18.063807   8.211510  54.039743 # h*  
  1281      5  18.596607   8.591230  53.246643 # o*  
  1282      3   5.089637   9.285040  45.890543 # h*  
  1283      3   6.269857   9.470090  46.784143 # h*  
  1284      5   6.060007   9.635100  45.817543 # o*  
  1285      3   7.570307   8.341060  56.898143 # h*  
  1286      3   7.189897   7.161060  57.918643 # h*  
  1287      5   7.777237   7.982740  57.812043 # o*  
  1288      3  15.273707   7.860120  48.746943 # h*  
  1289      3  14.148207   7.483360  47.536143 # h*  
  1290      5  14.765207   7.101500  48.266343 # o*  
  1291      3  15.964607   2.870040  52.179843 # h*  
  1292      3  17.130207   1.879790  52.336843 # h*  
  1293      5  16.847907   2.785310  52.657443 # o*  
  1294      3  18.323307  10.157170  45.403743 # h*  
  1295      3  18.569307   9.310810  46.794743 # h*  
  1296      5  18.335407   9.230360  45.810643 # o*  
  1297      3   9.971207   8.397080  32.797743 # h*  
  1298      3   8.588047   9.040150  32.170543 # h*  
  1299      5   9.553637   9.231420  32.413943 # o*  
  1300      3  26.255507  17.075570  47.066643 # h*  
  1301      3  26.584607  15.492370  46.814443 # h*  
  1302      5  25.862707  16.152070  47.044743 # o*  
  1303      3   6.647497  13.203270  42.567343 # h*  
  1304      3   7.449937  13.705970  43.957443 # h*  
  1305      5   7.244597  12.913570  43.351943 # o*  
  1306      3   7.725747  13.423670  32.712443 # h*  
  1307      3   7.144127  12.271370  33.566443 # h*  
  1308      5   7.022727  13.276170  33.463843 # o*  
  1309      3  14.899907  14.918770  30.383843 # h*  
  1310      3  13.859107  13.815570  30.237443 # h*  
  1311      5  14.105607  14.542170  30.923243 # o*  
  1312      3   6.879917   5.082970  38.577543 # h*  
  1313      3   6.669157   3.865130  39.665543 # h*  
  1314      5   6.444857   4.846880  39.462443 # o*  
  1315      3  12.728707   1.232850  50.990543 # h*  
  1316      3  12.303907   0.019533  50.143843 # h*  
  1317      5  12.674507   0.972275  50.002843 # o*  
  1318      3   8.595677   9.223360  40.323743 # h*  
  1319      3   8.695657   9.812270  38.735743 # h*  
  1320      5   8.981167   9.055820  39.369543 # o*  
  1321      3   6.708927   4.937940   0.227079 # h*  
  1322      3   5.188307   5.506880   0.228981 # h*  
  1323      5   6.152267   5.723920  57.869143 # o*  
  1324      3  10.872807   1.095790   0.930313 # h*  
  1325      3  11.087807   1.681040  57.426243 # h*  
  1326      5  11.626607   1.395750   0.367553 # o*  
  1327      3  22.680407  10.783070  48.354843 # h*  
  1328      3  22.416407   9.399630  49.143743 # h*  
  1329      5  22.911907   9.809690  48.344243 # o*  
  1330      3  18.237007   2.106990  41.182543 # h*  
  1331      3  18.379007   2.926590  39.804743 # h*  
  1332      5  17.693307   2.428840  40.389143 # o*  
  1333      3  23.454907   9.532960  46.785143 # h*  
  1334      3  23.639207   9.420190  45.066243 # h*  
  1335      5  23.979207   9.120770  45.983443 # o*  
  1336      3   6.109657   7.846650  47.969243 # h*  
  1337      3   5.018027   6.663450  48.441443 # h*  
  1338      5   5.970477   6.850620  48.143343 # o*  
  1339      3  24.113807  15.866970  38.759043 # h*  
  1340      3  24.923407  16.707970  37.647343 # h*  
  1341      5  24.569807  16.777370  38.609543 # o*  
  1342      3  11.028007   8.682400  26.269543 # h*  
  1343      3   9.732957   7.934020  26.072243 # h*  
  1344      5  10.038197   8.854570  26.419643 # o*  
  1345      3  10.763607  10.662870  37.592043 # h*  
  1346      3  12.048307  10.279770  36.910043 # h*  
  1347      5  11.692207  11.039970  37.464643 # o*  
  1348      3  21.462007   8.455100  42.830443 # h*  
  1349      3  21.764707   7.037630  43.387243 # h*  
  1350      5  21.683107   7.521450  42.521443 # o*  
  1351      3  18.829007   8.177660  41.928543 # h*  
  1352      3  18.006807   8.898620  40.842243 # h*  
  1353      5  18.679807   9.129390  41.565643 # o*  
  1354      3  18.390207  13.795070   0.295435 # h*  
  1355      3  19.877007  14.560570   0.568554 # h*  
  1356      5  19.295907  13.717670   0.759893 # o*  
  1357      3  23.979507  10.700470  42.384443 # h*  
  1358      3  25.286707  11.474570  41.854243 # h*  
  1359      5  24.428807  11.077770  41.531143 # o*  
  1360      3  12.947607   5.145260  56.738943 # h*  
  1361      3  12.481007   6.164140  55.734643 # h*  
  1362      5  13.074407   5.359470  55.767443 # o*  
  1363      3  20.271107  16.280770  39.741043 # h*  
  1364      3  21.190807  17.642070  39.384443 # h*  
  1365      5  20.457407  17.237070  39.982743 # o*  
  1366      3  14.615607   1.963200  34.843743 # h*  
  1367      3  13.782707   2.000230  36.153343 # h*  
  1368      5  14.091607   1.324280  35.443543 # o*  
  1369      3  20.176907  17.796470  30.040943 # h*  
  1370      3  21.001807  16.379370  30.441343 # h*  
  1371      5  20.646607  16.939270  29.695343 # o*  
  1372      3  23.601507  16.963870  28.241643 # h*  
  1373      3  21.972607  16.888270  28.641243 # h*  
  1374      5  22.668407  16.800470  27.879543 # o*  
  1375      3  11.013007  12.107470  44.575443 # h*  
  1376      3  11.391807  13.351670  43.536043 # h*  
  1377      5  11.084007  13.097470  44.476543 # o*  
  1378      3  12.226707  12.352770  32.910043 # h*  
  1379      3  12.137107  12.690670  34.602243 # h*  
  1380      5  11.706707  12.801570  33.682643 # o*  
  1381      3  13.676307  11.442370  31.134643 # h*  
  1382      3  14.622207  12.081570  32.296343 # h*  
  1383      5  13.687907  11.678470  32.144043 # o*  
  1384      3  10.837507  17.723570  46.776843 # h*  
  1385      3  12.235107  17.265170  46.060543 # h*  
  1386      5  11.743507  17.346870  46.964343 # o*  
  1387      3   8.025737   3.723910  29.325243 # h*  
  1388      3   8.178837   5.205870  29.964143 # h*  
  1389      5   8.530627   4.258390  30.024343 # o*  
  1390      3   9.112787  16.531170  27.619443 # h*  
  1391      3   8.376917  17.516870  28.723543 # h*  
  1392      5   8.978897  17.479870  27.905943 # o*  
  1393      3  16.706207   7.896030  36.181943 # h*  
  1394      3  16.502707   7.840610  37.763343 # h*  
  1395      5  16.811607   7.281020  36.968143 # o*  
  1396      3   4.509977   5.686530  27.829043 # h*  
  1397      3   3.872347   6.142760  26.559443 # h*  
  1398      5   4.771157   5.838720  26.872843 # o*  
  1399      3   7.843497   8.676740  48.596843 # h*  
  1400      3   6.818317   9.853110  49.112643 # h*  
  1401      5   7.084457   9.318940  48.299943 # o*  
  1402      3   3.953597   7.975920  33.718943 # h*  
  1403      3   3.684777   6.319010  33.859943 # h*  
  1404      5   4.327827   7.055870  33.504743 # o*  
  1405      3   9.919507   4.300910  44.277543 # h*  
  1406      3   9.439007   5.019820  42.951243 # h*  
  1407      5  10.267907   4.637200  43.359143 # o*  
  1408      3  24.503907  14.275970  48.973443 # h*  
  1409      3  24.829207  15.600170  48.232243 # h*  
  1410      5  24.115807  15.202370  48.854643 # o*  
  1411      3   4.470617  10.412870  34.565743 # h*  
  1412      3  24.245307  10.562970  33.106343 # h*  
  1413      5  24.456907   9.917570  33.855443 # o*  
  1414      3  12.955607   9.195140  33.726843 # h*  
  1415      3  12.865107  10.187070  32.444543 # h*  
  1416      5  12.836807   9.207120  32.701343 # o*  
  1417      3  13.375107   4.866790  44.871843 # h*  
  1418      3  14.877407   5.337640  45.360143 # h*  
  1419      5  14.170207   4.605790  45.431943 # o*  
  1420      3  11.767907   8.220090  55.372743 # h*  
  1421      3  11.846407   8.182290  56.916543 # h*  
  1422      5  11.481207   7.612240  56.165743 # o*  
  1423      3   1.844147   0.791158  47.025343 # h*  
  1424      3   1.596807   0.721775  45.415343 # h*  
  1425      5   1.535017   0.207581  46.283943 # o*  
  1426      3  21.451307  11.196970  57.603243 # h*  
  1427      3  21.756207  10.016770  56.732643 # h*  
  1428      5  22.142207  10.944270  56.901643 # o*  
  1429      3  10.063697   6.422730  33.701143 # h*  
  1430      3   9.534417   5.776090  34.956043 # h*  
  1431      5   9.164947   6.166280  34.127543 # o*  
  1432      3  18.650007   6.041330  41.475443 # h*  
  1433      3  17.188607   6.019800  42.146343 # h*  
  1434      5  18.132507   6.389450  42.249743 # o*  
  1435      3  20.099807  15.335670  28.895943 # h*  
  1436      3  18.943707  15.428470  27.780543 # h*  
  1437      5  19.408607  14.758170  28.400443 # o*  
  1438      3   7.036477   2.122450  47.344843 # h*  
  1439      3   5.829237   2.090270  46.407343 # h*  
  1440      5   6.661927   1.562710  46.564743 # o*  
  1441      3   9.914427  10.047970  31.166843 # h*  
  1442      3   9.625787  10.073570  29.559443 # h*  
  1443      5  10.085837  10.605770  30.322643 # o*  
  1444      3  13.561407   3.214110  45.905243 # h*  
  1445      3  14.015807   1.656570  45.928943 # h*  
  1446      5  13.265907   2.271150  46.219443 # o*  
  1447      3   9.304547   1.439480  34.229843 # h*  
  1448      3   8.254817   2.113230  33.384443 # h*  
  1449      5   8.383447   1.234870  33.885043 # o*  
  1450      3  17.031207   9.188520  49.036243 # h*  
  1451      3  15.876207   9.498100  50.175843 # h*  
  1452      5  16.035407   9.357090  49.169043 # o*  
  1453      3  22.393307  13.793270  50.685743 # h*  
  1454      3  22.628307  12.800270  49.512943 # h*  
  1455      5  22.577307  12.804670  50.524343 # o*  
  1456      3   8.671197  12.035170  37.571443 # h*  
  1457      3   8.121967  10.704670  36.749743 # h*  
  1458      5   8.790657  11.026170  37.439043 # o*  
  1459      3   7.996847   5.241800  52.581043 # h*  
  1460      3   8.331767   3.892040  53.274843 # h*  
  1461      5   8.567457   4.871360  53.339043 # o*  
  1462      3   3.823097   3.810040  28.661643 # h*  
  1463      3   3.282547   4.502940  29.994543 # h*  
  1464      5   3.513447   4.711470  29.019343 # o*  
  1465      3  11.487907   5.518620  47.664543 # h*  
  1466      3  12.420107   4.572370  48.692543 # h*  
  1467      5  11.657207   5.298060  48.653443 # o*  
  1468      3   7.279787  14.717070  34.134343 # h*  
  1469      3   8.334697  15.274470  35.158743 # h*  
  1470      5   7.477287  15.551770  34.698743 # o*  
  1471      3  28.472107  18.179770  46.774543 # h*  
  1472      3  27.396207  18.751170  47.756643 # h*  
  1473      5  27.474607  18.325270  46.851943 # o*  
  1474      3   7.262107   1.743110  44.819943 # h*  
  1475      3   8.271157   1.685450  43.460243 # h*  
  1476      5   7.345617   1.938660  43.838643 # o*  
  1477      3  13.603707   2.426960  53.146043 # h*  
  1478      3  12.320507   1.418710  53.173743 # h*  
  1479      5  13.321807   1.457170  53.045343 # o*  
  1480      3  23.789707   8.378850  27.933043 # h*  
  1481      3  23.466907   9.373680  26.680943 # h*  
  1482      5  23.197507   8.493230  27.121743 # o*  
  1483      3  17.590107   0.391189  57.218243 # h*  
  1484      3  16.677707   0.281115  56.023843 # h*  
  1485      5  17.666107   0.161655  56.246443 # o*  
  1486      3  15.403907   4.586980  27.439243 # h*  
  1487      3  16.375407   3.494250  28.039243 # h*  
  1488      5  15.396107   3.752670  28.038243 # o*  
  1489      3  13.825007  14.129670  57.844043 # h*  
  1490      3  12.839307  13.364370  56.860143 # h*  
  1491      5  13.317907  13.255770  57.753043 # o*  
  1492      3  20.813007   5.271140  29.302843 # h*  
  1493      3  21.093807   5.593120  27.674143 # h*  
  1494      5  20.976107   6.013450  28.616143 # o*  
  1495      3   5.676157   0.997090  51.123943 # h*  
  1496      3   4.357537   0.114010  51.159543 # h*  
  1497      5   5.346177   0.066456  51.366243 # o*  
  1498      3   6.243717   4.325600  32.723543 # h*  
  1499      3   4.890667   5.222450  32.923843 # h*  
  1500      5   5.324777   4.504760  32.368643 # o*  
  1501      3  15.668707  18.106870  28.021743 # h*  
  1502      3  15.858907  17.318670  29.317843 # h*  
  1503      5  15.181407  17.386070  28.545643 # o*  
  1504      3   0.513520   0.349738  42.783843 # h*  
  1505      3  21.106507   1.775000  42.086243 # h*  
  1506      5   1.177697   1.070770  42.447743 # o*  
  1507      3   7.395687  16.301870  32.822643 # h*  
  1508      3   8.629767  17.072670  31.948343 # h*  
  1509      5   7.626577  17.029870  32.163943 # o*  
  1510      3  21.195107   7.472190  37.169143 # h*  
  1511      3  21.244107   7.752590  38.675943 # h*  
  1512      5  20.897807   8.188490  37.812443 # o*  
  1513      3  11.266207   3.274570  34.561543 # h*  
  1514      3  11.449107   2.699830  33.190443 # h*  
  1515      5  10.996607   2.420330  34.059843 # o*  
  1516      3   8.667427  14.135670  39.095643 # h*  
  1517      3  10.006757  14.040270  38.424043 # h*  
  1518      5   9.183457  13.504670  38.509143 # o*  
  1519      3  16.890707   3.144450  37.234143 # h*  
  1520      3  17.729207   3.661910  35.912643 # h*  
  1521      5  17.431607   2.846180  36.425643 # o*  
  1522      3  19.458807   4.835290  26.309943 # h*  
  1523      3  18.115307   4.202960  26.526643 # h*  
  1524      5  18.523807   5.135110  26.507343 # o*  
  1525      3  13.050907   9.508260  29.520743 # h*  
  1526      3  11.902107  10.410270  30.176343 # h*  
  1527      5  12.897307  10.408970  29.991643 # o*  
  1528      3  18.069507   7.270260  50.379343 # h*  
  1529      3  18.883207   8.264930  51.238543 # h*  
  1530      5  18.714407   8.028180  50.261943 # o*  
  1531      3  23.634507  10.762370  52.747443 # h*  
  1532      3  23.377307  11.548970  51.324343 # h*  
  1533      5  23.976307  10.857870  51.787943 # o*  
  1534      3  20.030807   0.043040  50.115243 # h*  
  1535      3  27.978907  17.841970  51.388543 # h*  
  1536      5   8.208507  18.088270  50.766943 # o*  
  1537      3  18.072507   2.939020  54.122543 # h*  
  1538      3  18.168207   1.894930  55.277643 # h*  
  1539      5  18.299807   2.850850  55.118043 # o*  
  1540      3  13.637807  10.693570  48.473943 # h*  
  1541      3  15.080107  10.244970  47.876943 # h*  
  1542      5  14.182907  10.694270  47.641443 # o*  
  1543      3  16.951807  15.535770  43.108043 # h*  
  1544      3  18.426507  15.744370  42.889143 # h*  
  1545      5  17.650507  15.393070  42.378443 # o*  
  1546      3  12.599707   3.189920  31.101743 # h*  
  1547      3  11.206307   3.879100  31.597443 # h*  
  1548      5  11.696607   2.976320  31.488243 # o*  
  1549      3  10.303507  10.650070  46.587543 # h*  
  1550      3   9.031307  11.180270  47.299243 # h*  
  1551      5   9.974877  11.496370  47.031443 # o*  
  1552      3  17.666807  10.295070  27.144943 # h*  
  1553      3  18.880007   9.434820  27.253843 # h*  
  1554      5  18.053807   9.620740  27.815343 # o*  
  1555      3  20.122507   8.070700  56.357443 # h*  
  1556      3  21.506007   7.906760  55.536743 # h*  
  1557      5  21.094907   8.343290  56.375443 # o*  
  1558      3  17.456507  17.704470  36.414243 # h*  
  1559      3  15.964407  17.196870  36.827943 # h*  
  1560      5  16.891707  16.866870  36.578843 # o*  
  1561      3  23.773907  16.946270  49.609943 # h*  
  1562      3  22.493707  17.335870  50.451343 # h*  
  1563      5  23.333207  17.732470  50.070943 # o*  
  1564      3   9.044977   9.193340  27.714243 # h*  
  1565      3   7.534817   9.711420  27.897143 # h*  
  1566      5   8.296827   9.293980  28.409343 # o*  
  1567      3  17.258707  12.370470  44.720543 # h*  
  1568      3  17.794007  11.556270  43.686743 # h*  
  1569      5  17.127607  11.401970  44.430743 # o*  
  1570      3  19.217107   9.807060  49.224643 # h*  
  1571      3  19.072807  10.921570  48.038243 # h*  
  1572      5  18.847107   9.961300  48.317943 # o*  
  1573      3   3.460327   7.220000  50.167043 # h*  
  1574      3  23.473207   7.519210  48.653443 # h*  
  1575      5   3.525077   6.892340  49.185543 # o*  
  1576      3  26.185807  18.343270  35.808743 # h*  
  1577      3  17.591607   1.266170  35.639743 # h*  
  1578      5  18.183407   0.559129  35.200643 # o*  
  1579      3   4.895597  10.353470  50.860443 # h*  
  1580      3   6.394807  10.605970  51.237743 # h*  
  1581      5   5.798437  10.592770  50.439043 # o*  
  1582      3   7.606967  13.936970  54.245743 # h*  
  1583      3   7.397617  15.052970  55.411243 # h*  
  1584      5   7.276457  14.073070  55.189743 # o*  
  1585      3  16.815707  17.598170  46.337243 # h*  
  1586      3  17.555907  17.334770  47.780443 # h*  
  1587      5  17.741207  17.612170  46.797543 # o*  
  1588      3  10.034357   3.048810  46.259643 # h*  
  1589      3   9.054637   4.319340  46.384543 # h*  
  1590      5   9.654987   3.813400  45.715943 # o*  
  1591      3  10.626607   3.937380  48.927043 # h*  
  1592      3  10.574607   2.490810  48.365543 # h*  
  1593      5  10.234707   3.030860  49.147843 # o*  
  1594      3  10.690807   6.149230  29.339143 # h*  
  1595      3  11.784107   5.141640  29.545043 # h*  
  1596      5  11.384007   5.937740  30.030343 # o*  
  1597      3  14.422807   4.780580  30.393643 # h*  
  1598      3  14.749907   3.601020  29.552143 # h*  
  1599      5  14.199207   3.804070  30.363843 # o*  
  1600      3  10.027157   7.622940  39.724543 # h*  
  1601      3   9.651897   6.175720  40.447943 # h*  
  1602      5  10.337907   6.662080  39.842043 # o*  
  1603      3  11.423807  13.170770  50.563643 # h*  
  1604      3   9.849277  13.089870  50.968543 # h*  
  1605      5  10.789607  13.092770  51.374643 # o*  
  1606      3   2.768597   4.099560  51.550843 # h*  
  1607      3   3.021787   3.631360  50.030243 # h*  
  1608      5   3.011427   3.293630  50.993443 # o*  
  1609      3   2.863617   2.106800  52.571343 # h*  
  1610      3   3.069657   2.229510  54.075543 # h*  
  1611      5   2.333337   1.962460  53.420643 # o*  
  1612      3  11.797407   9.376720  35.276143 # h*  
  1613      3  12.479507   8.612120  36.509443 # h*  
  1614      5  12.735307   9.239030  35.746043 # o*  
  1615      3   1.305407   2.033970  57.463743 # h*  
  1616      3   1.289367   0.776575  56.389043 # h*  
  1617      5   0.963163   1.074910  57.277343 # o*  
  1618      3   2.477907   1.947270  30.729943 # h*  
  1619      3   1.711087   0.752024  29.944943 # h*  
  1620      5   1.545487   1.598180  30.458543 # o*  
  1621      3  14.305907   5.659970  39.889243 # h*  
  1622      3  15.328707   6.255090  40.971843 # h*  
  1623      5  15.216707   6.115740  39.996243 # o*  
  1624      3  13.263707   5.503430  27.182343 # h*  
  1625      3  12.697807   6.546220  26.095243 # h*  
  1626      5  12.590607   5.614220  26.472943 # o*  
  1627      3  10.538507  14.926670  46.151243 # h*  
  1628      3   9.681427  13.508270  46.406643 # h*  
  1629      5   9.697347  14.513170  46.531443 # o*  
  1630      3  15.701707  12.837270  33.606043 # h*  
  1631      3  16.459207  13.578770  32.498543 # h*  
  1632      5  16.113207  12.662470  32.682643 # o*  
  1633      3  11.999107  18.226870  41.910543 # h*  
  1634      3   2.471757   0.161024  42.639943 # h*  
  1635      5  11.300107  17.964970  42.621243 # o*  
  1636      3  21.635607   7.096480  32.659143 # h*  
  1637      3  21.534507   7.740150  34.103043 # h*  
  1638      5  20.964407   7.422780  33.308543 # o*  
  1639      3  22.567707   7.259480  53.376443 # h*  
  1640      3  21.270607   6.543400  54.073443 # h*  
  1641      5  22.047507   7.214600  54.246243 # o*  
  1642      3  11.932007  18.039170  27.674943 # h*  
  1643      3  10.473807  18.172870  28.190943 # h*  
  1644      5  11.426007  18.336370  28.508243 # o*  
  1645      3  18.539907  10.310570  29.371843 # h*  
  1646      3  19.698507  11.457670  29.523543 # h*  
  1647      5  18.986907  10.937370  30.057543 # o*  
  1648      3   6.197707   8.011270  40.643143 # h*  
  1649      3   6.281227   6.439540  40.312543 # h*  
  1650      5   6.256957   7.094800  41.081043 # o*  
  1651      3  17.095607   9.286650  33.778043 # h*  
  1652      3  18.010307   7.984320  33.742743 # h*  
  1653      5  17.397407   8.513880  34.350443 # o*  
  1654      3  24.306007  16.610070  31.669243 # h*  
  1655      3  24.062107  17.638070  32.573943 # h*  
  1656      5  24.300207  17.615770  31.593443 # o*  
  1657      3  13.945207  14.545370  24.595843 # h*  
  1658      3  14.112107  13.902170  26.018043 # h*  
  1659      5  13.390107  14.044670  25.280243 # o*  
  1660      3  10.996207   1.200430  35.287243 # h*  
  1661      3  19.201107  18.270070  36.002343 # h*  
  1662      5  10.592207   0.540501  35.943343 # o*  
  1663      3  16.736707  15.937270  32.800243 # h*  
  1664      3  17.916407  14.959670  32.412143 # h*  
  1665      5  17.038507  15.292870  32.049543 # o*  
  1666      3  22.509007   8.337100  51.264443 # h*  
  1667      3  23.911807   8.841600  51.904143 # h*  
  1668      5  23.384107   7.974790  51.673543 # o*  
  1669      3  14.105007   1.461630  31.385143 # h*  
  1670      3  23.036607  18.650070  31.066643 # h*  
  1671      5  14.025507   0.546396  30.944243 # o*  
  1672      3  16.696707  14.789970  30.508743 # h*  
  1673      3  17.502907  14.100370  29.190643 # h*  
  1674      5  16.615807  14.364170  29.589843 # o*  
  1675      3  22.982807  17.876770  38.189043 # h*  
  1676      3  14.023107  -0.209443  36.909343 # h*  
  1677      5  22.034007  18.128670  37.893643 # o*  
  1678      3  18.888607  16.820070  49.531643 # h*  
  1679      3  20.211107  16.220370  50.240143 # h*  
  1680      5  19.876207  16.980070  49.688943 # o*  
  1681      3  13.210307   8.254910  45.260943 # h*  
  1682      3  12.717007   6.974530  46.231443 # h*  
  1683      5  13.492307   7.579000  45.981643 # o*  
  1684      3  16.667807  11.873570  36.694143 # h*  
  1685      3  18.225707  11.913270  36.042243 # h*  
  1686      5  17.399107  12.470270  36.302643 # o*  
  1687      3  10.138127   5.147110  36.911343 # h*  
  1688      3   8.890527   6.017760  37.330243 # h*  
  1689      5   9.144297   5.079080  36.983943 # o*  
  1690      3   7.870677  16.670970  39.269643 # h*  
  1691      3   8.964077  15.907570  40.192243 # h*  
  1692      5   7.975667  15.848870  39.912743 # o*  
  1693      3  11.316507   6.934750  38.495143 # h*  
  1694      3  11.962407   6.402440  37.010143 # h*  
  1695      5  11.694807   7.224700  37.585243 # o*  
  1696      3  18.519007   5.870240  43.666943 # h*  
  1697      3  17.820607   5.617390  44.869843 # h*  
  1698      5  18.666907   5.237380  44.441443 # o*  
  1699      3   7.389867  12.578270  52.076543 # h*  
  1700      3   8.417327  11.714470  52.963143 # h*  
  1701      5   7.648917  11.632170  52.323343 # o*  
  1702      3  19.862607  17.127870  55.648243 # h*  
  1703      3  18.862507  17.854670  54.643143 # h*  
  1704      5  18.906107  17.057770  55.292943 # o*  
  1705      3   8.723947   6.576160  48.287943 # h*  
  1706      3   7.576107   6.228880  47.562643 # h*  
  1707      5   8.429597   5.748350  47.775643 # o*  
  1708      3  16.912607  12.467870  50.927143 # h*  
  1709      3  17.453507  11.412770  52.015843 # h*  
  1710      5  16.589207  11.813970  51.660943 # o*  
  1711      3  10.111907   1.081680  52.789543 # h*  
  1712      3   9.285927  -0.015566  53.522543 # h*  
  1713      5  10.136267   0.538276  53.650443 # o*  
  1714      3  23.515807  12.275370  31.358543 # h*  
  1715      3  24.704207  12.519970  32.337743 # h*  
  1716      5  24.349907  11.795270  31.751743 # o*  
  1717      3  11.339707  17.510270  52.206843 # h*  
  1718      3  11.818607  16.156270  53.038143 # h*  
  1719      5  11.330607  17.048970  53.139343 # o*  
  1720      3  22.994607  11.385570  38.985643 # h*  
  1721      3  24.155507  11.831470  39.960043 # h*  
  1722      5  23.796307  12.010970  39.029543 # o*  
  1723      3  14.838707   3.579520  37.513743 # h*  
  1724      3  13.525207   3.006310  38.153143 # h*  
  1725      5  13.879807   3.377550  37.270843 # o*  
  1726      3  11.525707  10.311570  43.301243 # h*  
  1727      3  12.770707  10.427570  44.377943 # h*  
  1728      5  11.761507  10.166770  44.265143 # o*  
  1729      3  16.642107  16.524170  40.279243 # h*  
  1730      3  17.284507  17.394170  39.211643 # h*  
  1731      5  16.567107  17.480070  39.914843 # o*  
  1732      3   7.212617   9.605380  34.756843 # h*  
  1733      3   7.031407   9.875310  33.191843 # h*  
  1734      5   7.229437  10.380170  34.064943 # o*  
  1735      3   4.433837   3.956400  46.268143 # h*  
  1736      3   3.334087   2.936500  45.637443 # h*  
  1737      5   4.018457   3.013460  46.400043 # o*  
  1738      3  19.543707  12.184270  41.673543 # h*  
  1739      3  18.552807  10.830070  41.697843 # h*  
  1740      5  18.681207  11.781070  42.091843 # o*  
  1741      3  15.915707   4.790480  39.064243 # h*  
  1742      3  16.497907   3.309140  39.516243 # h*  
  1743      5  16.144007   3.837150  38.735743 # o*  
  1744      3  21.157807  16.856670  33.151043 # h*  
  1745      3  22.513107  16.426170  32.239443 # h*  
  1746      5  21.536507  16.287270  32.410043 # o*  
  1747      3  11.192907  12.158570  48.265943 # h*  
  1748      3  11.901207  13.582370  49.012743 # h*  
  1749      5  11.781907  12.570270  48.988543 # o*  
  1750      3  24.554807  18.504670  50.876343 # h*  
  1751      3  25.988107  17.914270  51.377143 # h*  
  1752      5  17.287707   0.187854  51.330543 # o*  
  1753      3  12.524807   4.432620  36.646343 # h*  
  1754      3  12.676707   4.989390  35.158543 # h*  
  1755      5  11.996607   4.835810  35.887943 # o*  
  1756      3  10.517207  12.907770  57.564343 # h*  
  1757      3  10.924507  13.069170  56.010343 # h*  
  1758      5  10.598207  12.344970  56.678643 # o*  
  1759      3   6.612537  10.546270  56.509243 # h*  
  1760      3   7.667037  10.948670  55.303143 # h*  
  1761      5   7.293277  10.173070  55.808443 # o*  
  1762      3  14.787607   9.333670  54.494143 # h*  
  1763      3  13.713607   8.205880  54.233543 # h*  
  1764      5  14.627707   8.346670  54.685243 # o*  
  1765      3   3.759847   7.072500  38.162643 # h*  
  1766      3   4.472137   6.633100  36.793243 # h*  
  1767      5   4.136967   7.442000  37.320443 # o*  
  1768      3  17.046107   3.449770  48.107743 # h*  
  1769      3  18.696307   3.427850  48.334443 # h*  
  1770      5  17.915907   2.947330  47.895743 # o*  
  1771      3  15.760407  12.050770  40.759243 # h*  
  1772      3  15.556907  10.647770  41.241243 # h*  
  1773      5  15.218507  11.228570  40.476243 # o*  
  1774      3  22.053207   3.457600  52.620843 # h*  
  1775      3  21.156407   4.624830  53.461243 # h*  
  1776      5  21.654807   4.381220  52.627343 # o*  
  1777      3  10.836207   1.234220  28.818543 # h*  
  1778      3  11.696907   1.578550  27.524043 # h*  
  1779      5  10.919207   0.997220  27.838543 # o*  
  1780      3   7.341967   6.007650  41.405043 # h*  
  1781      3   7.854357   4.501980  41.676843 # h*  
  1782      5   8.159157   5.470970  41.663443 # o*  
  1783      3   7.663017   7.482490  34.656543 # h*  
  1784      3   6.001427   7.441930  34.744543 # h*  
  1785      5   6.861537   7.905600  35.054343 # o*  
  1786      3  25.757107  15.576970  54.974643 # h*  
  1787      3  25.338207  14.281470  54.126643 # h*  
  1788      5  25.311607  15.312270  54.087543 # o*  
  1789      3   3.915257   4.575050  37.224143 # h*  
  1790      3   4.959867   4.113590  36.242343 # h*  
  1791      5   4.402717   4.960660  36.402643 # o*  
  1792      3  17.012507  14.356370  45.384643 # h*  
  1793      3  18.558307  14.586770  45.499143 # h*  
  1794      5  17.864407  13.845670  45.174143 # o*  
  1795      3   1.835997   2.400050  43.602243 # h*  
  1796      3  21.982607   3.686640  44.573543 # h*  
  1797      5   2.195187   3.007840  44.331543 # o*  
  1798      3  20.415707  10.611970  30.711043 # h*  
  1799      3  21.752807   9.667390  31.069543 # h*  
  1800      5  21.293707  10.544970  31.228643 # o*  
  1801      3  20.699707   9.718820  50.515943 # h*  
  1802      3  20.790007   8.223830  49.923043 # h*  
  1803      5  21.369307   9.039340  50.176043 # o*  
  1804      3   9.750257  12.059170  55.199043 # h*  
  1805      3  10.252707  11.199470  53.896543 # h*  
  1806      5   9.500767  11.819970  54.248243 # o*  
  1807      3  17.862207  14.675770  53.783043 # h*  
  1808      3  18.493707  16.183870  53.528243 # h*  
  1809      5  18.580107  15.214170  53.264643 # o*  
  1810      3   9.050567  18.618970  38.662843 # h*  
  1811      3  20.033807  -0.164881  37.900143 # h*  
  1812      5   8.171397  18.142070  38.685143 # o*  
  1813      3  13.117007  14.099170  41.467843 # h*  
  1814      3  12.342307  12.765370  41.257643 # h*  
  1815      5  12.275807  13.626070  41.817343 # o*  
  1816      3   6.853787   3.566200  27.292143 # h*  
  1817      3   5.841487   2.628060  28.108243 # h*  
  1818      5   6.825387   2.832250  28.005343 # o*  
  1819      3  16.063107  13.059070  35.614743 # h*  
  1820      3  14.775107  14.032070  35.550843 # h*  
  1821      5  15.326307  13.407970  34.984943 # o*  
  1822      3  11.392807  14.247170  36.490943 # h*  
  1823      3  11.902107  12.805170  37.322043 # h*  
  1824      5  12.043107  13.810270  37.174543 # o*  
  1825      3  10.768107   9.346890  45.036243 # h*  
  1826      3   9.202657   9.465780  45.216443 # h*  
  1827      5   9.999327   8.912250  45.549143 # o*  
  1828      3  10.566307   7.324650  45.926043 # h*  
  1829      3  10.633107   6.174650  44.947243 # h*  
  1830      5  10.876607   6.339060  45.906043 # o*  
  1831      3  17.967707   2.501450  31.616343 # h*  
  1832      3  17.680607   4.070550  31.325143 # h*  
  1833      5  18.127207   3.229290  30.910843 # o*  
  1834      3   1.713267   2.534640  37.587943 # h*  
  1835      3  21.646207   2.828220  36.092943 # h*  
  1836      5  21.785407   3.236090  37.017843 # o*  
  1837      3  11.569507  14.253670  32.393743 # h*  
  1838      3  12.557607  14.447070  31.224443 # h*  
  1839      5  11.555107  14.516970  31.415443 # o*  
  1840      3   7.561807   1.487410  53.137643 # h*  
  1841      3   6.631497   2.601330  52.451843 # h*  
  1842      5   7.365537   2.475290  53.162943 # o*  
  1843      3  15.977707   7.850790  39.541743 # h*  
  1844      3  16.107507   9.210790  40.321643 # h*  
  1845      5  16.627007   8.645530  39.661143 # o*  
  1846      3  14.484007  12.823870  48.011943 # h*  
  1847      3  14.584907  14.258270  47.407543 # h*  
  1848      5  15.051307  13.683070  48.098243 # o*  
  1849      3  11.083007   5.763370  51.696743 # h*  
  1850      3   9.990087   4.908970  52.658143 # h*  
  1851      5  10.942107   4.903070  52.224743 # o*  
  1852      3  24.099707  14.784070  45.564743 # h*  
  1853      3  24.705707  13.341970  46.065043 # h*  
  1854      5  23.853007  13.870570  45.934443 # o*  
  1855      3  26.006107  17.161270  27.408043 # h*  
  1856      3  25.377307  18.134870  28.532243 # h*  
  1857      5  25.331707  17.177570  28.176043 # o*  
  1858      3  15.720307  14.512570  54.894843 # h*  
  1859      3  15.226007  14.064270  53.420243 # h*  
  1860      5  15.876207  14.652070  53.925643 # o*  
  1861      3   6.648157   2.139270  36.737943 # h*  
  1862      3   5.889367   1.975670  35.305143 # h*  
  1863      5   5.984777   2.567340  36.105543 # o*  
  1864      3   8.722447  10.429270  42.897643 # h*  
  1865      3   8.621337  11.177570  41.413543 # h*  
  1866      5   8.712057  10.292170  41.886143 # o*  
  1867      3  19.581907   0.433296  30.720943 # h*  
  1868      3  27.976807  17.563770  30.589343 # h*  
  1869      5  27.810207  18.360070  29.950143 # o*  
  1870      3   8.065287  12.292870  39.621543 # h*  
  1871      3   6.543907  12.795870  40.085143 # h*  
  1872      5   7.222987  11.999870  40.078543 # o*  
  1873      3  14.014207  17.964270  38.151843 # h*  
  1874      3  13.198307  17.986570  36.910143 # h*  
  1875      5  14.080907  17.600770  37.228843 # o*  
  1876      3  12.382307   6.985600  50.876043 # h*  
  1877      3  11.480907   6.223430  49.831943 # h*  
  1878      5  11.404207   6.967460  50.542343 # o*  
  1879      3   5.486527   5.969860  46.894443 # h*  
  1880      3   5.172777   6.004040  45.256843 # h*  
  1881      5   4.912527   5.561300  46.132343 # o*  
  1882      3  25.790507  12.854470  48.021643 # h*  
  1883      3  25.791807  12.167770  49.474743 # h*  
  1884      5  25.667907  13.067070  49.002043 # o*  
  1885      3  20.985107   2.863720  30.341543 # h*  
  1886      3  19.553607   3.642350  30.492843 # h*  
  1887      5  20.544307   3.805750  30.297643 # o*  
  1888      3  13.715407  15.768270  32.340943 # h*  
  1889      3  14.655907  16.685670  33.275043 # h*  
  1890      5  13.686207  16.370470  33.149043 # o*  
  1891      3   7.955457   7.797540  29.568143 # h*  
  1892      3   7.732077   7.335310  31.098843 # h*  
  1893      5   7.998937   6.979200  30.176143 # o*  
  1894      3  24.832007  14.508970  57.425743 # h*  
  1895      3  23.968107  15.744970  57.630843 # h*  
  1896      5  24.089907  15.019570  56.945543 # o*  
  1897      3   6.408347   5.577170  54.959143 # h*  
  1898      3   5.693997   5.541480  56.368143 # h*  
  1899      5   5.485207   5.562980  55.365643 # o*  
  1900      3  20.598807   4.113880  47.100243 # h*  
  1901      3  21.511507   4.459920  48.322443 # h*  
  1902      5  20.583407   4.088840  48.130543 # o*  
  1903      3  23.450807   7.757680  35.953243 # h*  
  1904      3  23.162207   9.300220  35.413443 # h*  
  1905      5  22.856407   8.345010  35.412243 # o*  
  1906      3  22.409907  15.590170  47.926743 # h*  
  1907      3  21.091407  16.523170  48.388543 # h*  
  1908      5  21.547607  16.018370  47.619443 # o*  
  1909      3  18.872307  14.269970  34.551143 # h*  
  1910      3  18.216507  14.052870  36.038343 # h*  
  1911      5  18.987307  14.464670  35.540343 # o*  
  1912      3  15.285207  10.484570  44.696243 # h*  
  1913      3  14.409807  10.390670  46.054443 # h*  
  1914      5  14.347107  10.570470  45.034843 # o*  
  1915      3  12.327607  14.371970  54.191343 # h*  
  1916      3  11.992707  15.109370  55.559343 # h*  
  1917      5  12.033807  14.169670  55.165143 # o*  
  1918      3  11.147107   8.133430  53.227343 # h*  
  1919      3  12.499807   7.375310  53.040443 # h*  
  1920      5  12.075007   8.105730  53.621143 # o*  
  1921      3  20.051007   9.109690  44.463143 # h*  
  1922      3  19.836207   9.917430  43.065843 # h*  
  1923      5  20.524007   9.701100  43.777943 # o*  
  1924      3  21.820507   5.931890  35.364543 # h*  
  1925      3  21.536007   4.949700  36.661843 # h*  
  1926      5  21.337107   5.867610  36.252543 # o*  
  1927      3  16.797107  16.466570  49.816443 # h*  
  1928      3  16.912007  18.052270  49.419943 # h*  
  1929      5  17.184007  17.118270  49.145443 # o*  
  1930      3  22.248107  13.541170  29.885043 # h*  
  1931      3  21.844107  12.219470  30.827343 # h*  
  1932      5  22.246407  13.177770  30.826743 # o*  
  1933      3   8.370457   4.388810  33.192443 # h*  
  1934      3   8.397837   3.835020  31.604743 # h*  
  1935      5   8.264547   3.563470  32.605243 # o*  
  1936      3  10.537607   2.505170  50.746143 # h*  
  1937      3  11.034307   3.157140  52.069043 # h*  
  1938      5  10.623007   2.275100  51.737543 # o*  
  1939      3  19.963307   4.494230  45.113443 # h*  
  1940      3  21.054907   5.441180  45.617943 # h*  
  1941      5  20.853807   4.417600  45.625743 # o*  
  1942      3  15.747607   0.723282  46.159843 # h*  
  1943      3  23.262307  18.503270  44.862743 # h*  
  1944      5  15.404607   0.808020  45.199543 # o*  
  1945      3  20.195807  13.591370  33.067443 # h*  
  1946      3  20.457007  15.173170  32.673543 # h*  
  1947      5  19.728907  14.445170  32.819443 # o*  
  1948      3  21.368107  13.623070  54.837743 # h*  
  1949      3  19.989707  14.202870  54.393443 # h*  
  1950      5  20.553607  13.363170  54.289843 # o*  
  1951      3   5.594087   9.785160  38.421543 # h*  
  1952      3   5.630487   8.795460  37.092043 # h*  
  1953      5   5.792247   9.762710  37.399043 # o*  
  1954      3  18.698707   1.717560  48.754043 # h*  
  1955      3  18.220907   0.830291  49.920643 # h*  
  1956      5  18.984207   0.891673  49.264143 # o*  
  1957      3  16.128907   1.738270  32.898243 # h*  
  1958      3  15.787507   3.289050  32.744543 # h*  
  1959      5  15.391907   2.423050  33.030943 # o*  
  1960      3  20.905907  13.914770  35.774143 # h*  
  1961      3  21.632907  12.693070  34.895943 # h*  
  1962      5  21.809107  13.479770  35.506443 # o*  
  1963      3  13.430407  15.933670  44.233543 # h*  
  1964      3  12.263807  17.047570  43.826243 # h*  
  1965      5  13.032107  16.855770  44.483043 # o*  
  1966      3   3.814107   0.419336  48.073743 # h*  
  1967      3   3.496397   1.991360  47.562043 # h*  
  1968      5   3.302777   1.279730  48.270743 # o*  
  1969      3  11.028007  11.299170  51.619943 # h*  
  1970      3  11.947907  10.029270  51.937543 # h*  
  1971      5  11.021007  10.441570  52.159543 # o*  
  1972      3  18.203907   8.395540  56.563043 # h*  
  1973      3  17.442707   7.105130  55.899743 # h*  
  1974      5  18.346707   7.625130  55.863943 # o*  
  1975      3   4.313227   3.342290  43.541243 # h*  
  1976      3   5.701297   2.559830  43.211943 # h*  
  1977      5   4.803367   2.882050  42.813143 # o*  
  1978      3  16.892907   0.580009  40.495243 # h*  
  1979      3  24.625307  17.709470  39.994043 # h*  
  1980      5  24.929107  18.214770  40.864543 # o*  
  1981      3  12.984707   6.049040   1.263073 # h*  
  1982      3  11.729307   5.153340   0.745583 # h*  
  1983      5  12.789907   5.240190   0.744988 # o*  
  1984      3  12.957007  14.974770  51.795843 # h*  
  1985      3  11.757107  14.013270  52.336643 # h*  
  1986      5  12.472207  14.690570  52.673443 # o*  
  1987      3   4.451207   7.367000  42.806343 # h*  
  1988      3   5.694057   6.514690  42.724343 # h*  
  1989      5   5.073067   6.882740  43.445143 # o*  
  1990      3  13.425707  14.400870  37.561943 # h*  
  1991      3  14.202507  15.808870  37.197743 # h*  
  1992      5  14.353107  14.822070  37.407143 # o*  
  1993      3  22.225107  14.351770  38.524543 # h*  
  1994      3  23.650907  13.639270  38.620543 # h*  
  1995      5  23.209807  14.531170  38.439543 # o*  
  1996      3  15.462207   6.095330  36.126243 # h*  
  1997      3  16.268007   4.718090  35.789243 # h*  
  1998      5  15.448307   5.256900  35.556043 # o*  
  1999      3   7.806767   1.807170  27.231443 # h*  
  2000      3   9.236977   0.969723  27.255743 # h*  
  2001      5   8.242367   0.898592  26.995243 # o*  
  2002      3  22.962207  13.137370  46.934043 # h*  
  2003      3  21.456207  12.920570  47.232243 # h*  
  2004      5  22.334007  12.680070  47.619243 # o*  
  2005      7  14.329248  10.491347  42.136412 # oc  
  2006      7  15.368479   8.691347  42.136412 # oc  
  2007      7  13.290018   8.691347  42.136412 # oc  
  2008      2  14.329248   9.291347  42.136412 # co  
