LAMMPS data file via write_data, version 2 Aug 2023, timestep = 10000, units = metal

2008 atoms
9 atom types

-0.09242933063847403 20.629643330638515 xlo xhi
0.13657165112358882 18.446123348876213 ylo yhi
0.4474771625144136 57.47612783748633 zlo zhi
7.823026535679572 0.10163710476924019 -1.177322583835987 xy xz yz

Masses

1 40.08
2 12.01
3 1.0078
4 1.0078
5 16
6 16
7 16
8 16
9 28.086

Atoms # atomic

271 9 1.6471518476159028 3.4358804564628382 1.9307233693253663 0 0 0
896 3 1.9300707408609359 2.263750997181198 1.5043826310487136 0 1 1
505 4 0.5544018386746052 1.262845159385431 1.827641007031582 0 1 0
304 6 1.0377405522025605 2.256358625217899 2.648298981144555 0 0 0
287 1 0.6088948452175447 0.8272089873888056 3.4053145306162067 1 0 0
504 8 1.9491654651804504 0.797037744642814 2.445719639655292 0 1 0
333 3 21.468949000404596 2.468342586644839 1.1289099225329964 0 0 1
1617 5 1.6520848370006767 0.9638198331949758 0.713173291825687 0 0 1
496 6 2.9983365616035296 0.6469036828950154 4.955733644879225 0 1 0
579 8 8.460678443885397 2.5029385897709044 4.496136081854634 0 0 0
1234 3 5.819574522752307 1.7810556312359502 5.198271851838489 0 0 1
296 6 4.460814572099347 0.25501433342919344 4.528810489247849 0 0 0
492 6 6.30880047373239 0.22195764470575904 4.703400878594673 0 1 0
582 6 9.614088001473515 3.1416865702074332 4.568657407859787 0 0 0
545 9 9.976886523182147 3.0802056941740052 3.3415252504159647 0 0 0
62 5 11.759629299785924 2.1095518906722366 2.334825142389294 0 0 0
562 6 9.262256480909395 3.299491764991997 2.271027592422191 0 0 0
1324 3 10.117945180908356 1.9863677969584508 2.283907745157327 0 0 0
1166 3 12.744395817560171 1.5851233371848137 1.5696402093885025 0 0 1
1325 3 10.726809202402759 3.407115378528938 2.0982200956430965 0 0 1
64 3 13.385100642251675 2.8351677753568785 2.2895021742925628 0 0 0
1702 3 11.359538631905952 1.4177524081185593 1.4314190515300171 0 1 1
1022 3 9.944053076695692 2.823987949518818 0.989141029667122 0 0 1
1165 3 11.118878348842824 2.17024851184845 1.3586178608956627 0 0 1
1167 5 10.190447661817648 1.4380080693061854 1.076834124944039 0 1 1
967 3 13.45883999407205 3.024604007150722 0.8269718398474929 0 0 0
235 4 12.152507811812889 3.13227565939088 1.4675377909263159 0 1 1
969 5 12.075383496103319 2.134883462156254 0.6453690523861308 0 0 1
1021 3 10.604467863921434 0.3276272242349192 1.983677793656453 0 0 1
1326 5 11.06864406466188 3.321702590743236 0.873004943083804 0 0 0
140 6 14.736132647905412 3.2200602291138223 2.7674328226480784 0 0 0
5 9 14.512217284976389 3.294758468333357 1.5630299016990914 0 0 0
45 6 14.994446493370793 3.4776925011648268 4.162575864719872 0 0 0
196 1 18.314917431123757 3.6405251647891053 4.656463385711098 0 1 0
39 8 14.7369007996306 2.5308307330835644 57.376860692071176 0 0 0
332 5 20.62543473009628 2.7340736533153995 0.7044702295100627 0 0 1
26 6 20.402182707621176 2.138105355687797 5.1970378107310005 0 0 0
594 8 3.1259352672659633 6.658703932877159 0.8252555614105523 0 0 0
656 6 4.6996401201729885 7.804451287722534 1.6040280052458589 0 0 0
1322 3 4.6424910280844465 6.394826299393234 0.8568869739290592 0 0 0
54 8 8.818713741603037 4.267301317412575 1.147237892727859 0 0 0
847 3 8.00115944979057 5.870899046804995 0.8667678568276931 0 0 1
1285 3 6.258879414738164 8.148679499350774 2.110461531165835 0 0 1
1287 5 7.2526917839703025 8.278728375015312 2.3510720321172096 0 0 1
1321 3 7.212078035774454 7.218036143726498 1.3022406967106501 0 0 0
1323 5 5.722797100597317 7.260765517483742 1.1755044025643495 0 0 1
1898 3 6.213024542847202 6.105972847835471 0.6653964087030951 0 0 1
55 4 8.7378583468916 7.311250374300964 0.9817136277899349 0 0 1
1158 5 9.447341755728072 8.238043554302932 1.6216843393313958 0 0 1
91 9 13.49610470051364 8.418965123314795 4.106223445083582 0 0 0
1983 5 11.311844060483093 8.01370708537397 1.2248088885167037 0 0 0
123 6 14.01338768367212 5.864905242459885 4.589544228961327 0 0 0
1157 3 10.254470787028684 7.453547644117734 1.2403626701414314 0 0 1
1360 3 10.559583928597752 8.79465735732646 1.5692736082628802 0 0 1
423 3 13.864509932793618 4.413075131140061 1.546117535469632 0 0 0
1982 3 9.696572357687415 8.614668520277322 0.452545792327289 0 0 0
390 6 14.025282200287696 7.315787822379809 4.181087225208871 0 0 0
63 3 15.972801002331764 4.0829138112003305 3.383288646427571 0 0 0
968 3 15.535616949212363 4.036593255592468 1.6670002610015981 0 0 1
17 1 14.349557892917971 4.510452225644037 4.7736662251954485 0 0 0
30 6 17.451023715805654 4.592075498899915 4.048064276073935 0 0 0
22 6 16.24687374986438 5.635770757701315 3.2327360288442457 0 0 0
116 6 14.813082455915048 5.169725362594981 2.65700210869185 0 0 0
42 6 14.582943127546823 6.447939723342288 3.244407462072273 0 0 0
394 6 15.95474530636849 6.39040231218358 1.885606830044397 0 0 0
361 9 14.737185550442906 6.922405331489256 2.100846772858527 0 0 0
1973 3 16.773477590812135 7.331124695153984 0.8243837335834616 0 0 1
90 4 14.928324682495665 5.467627441498302 0.8543616405889434 0 0 1
913 3 16.530238616936824 4.593940620753516 57.42443477299332 0 0 0
324 8 15.680279405262514 8.257376497550938 0.7769593827983254 0 0 0
424 3 15.25212063332753 6.949500210107966 0.6013446626829357 0 0 0
46 6 15.207568423942392 5.978720455803734 4.279829333356287 0 0 0
34 6 16.315510764461866 5.176633857045933 4.760831940455457 0 0 0
307 6 18.501853310261936 5.704037170801471 4.911283622710754 0 0 0
275 9 22.91255282883846 5.470889990517723 1.2258119210910465 -1 0 0
292 6 22.441606086604985 4.620265419877397 1.9097897748155943 -1 0 0
279 9 21.843941794888213 7.14956592738259 4.301830996477527 0 0 0
316 6 22.071698998993075 6.489039364516107 3.338646501822486 0 0 0
373 1 20.762912688096065 7.575023331822122 5.531082914949262 0 0 0
290 1 21.082467420079034 6.251583364857837 4.480539664737704 0 0 0
319 6 20.12764139149431 4.219603902029178 4.828528097121799 0 0 0
274 9 19.441301144897494 6.312945492813057 5.18207195230854 0 0 0
386 6 22.184872168227198 7.027905228103683 5.483675566989303 0 0 0
692 5 21.755868233785648 6.73672485051162 57.37347730039555 0 0 -1
672 6 5.052020505230796 9.068716040934872 2.5339051901172835 1 0 0
770 6 5.335762631269839 9.447227868361765 4.035102438152684 1 0 0
153 3 7.781508424264782 11.018028016033574 4.709835597628013 0 0 0
652 6 6.111697090791293 9.760304715804288 3.021532178809083 0 0 0
660 6 4.595343281156736 10.217400395772726 3.18995409982523 0 0 0
214 6 6.716353867801226 11.933769653569978 4.89735201392547 0 0 0
106 1 6.380055589617781 10.561842964227267 4.2975775948892965 0 0 0
206 6 7.982481177206395 12.51784835791136 4.8314712446298245 0 0 0
181 9 6.801684370392166 13.124033631811109 5.3313605512769495 0 0 0
152 5 8.690382151647734 12.10429423890115 3.3675366478739566 0 0 0
132 6 9.10180858147966 11.615520508962899 4.126653019574759 0 0 0
120 6 11.326284582545863 10.400380031902804 2.753278764055003 0 0 0
154 3 10.719374536728353 10.817710000160133 4.0185058660667945 0 0 0
95 9 11.296492829357682 9.867199424952176 1.6064017764433725 0 0 0
99 9 11.899915268994432 10.306201918519658 4.066441362574794 0 0 0
129 8 10.331879757734388 11.59472006589103 3.080969904398434 0 0 0
414 8 12.843107994416515 12.44757880146218 2.3854872474935096 0 0 0
415 4 12.354324750016152 11.005349778841081 1.9593204148139653 0 0 0
513 3 11.997547851838004 11.404755009302644 3.4485149602925946 0 0 0
180 4 11.724080245881844 12.362746259359449 2.0280485797719052 0 0 1
376 1 13.546343801719782 10.812348472757943 3.164114129088175 0 0 0
1758 5 12.565629306835117 12.074153020330721 1.1957850474467104 0 0 1
484 6 13.679694437470644 11.552041978912868 1.605028760501012 0 0 0
112 6 11.256103231272427 9.229659407691878 0.5432352529787754 0 0 0
20 1 14.450505096752488 9.341350828406378 4.6771199052789045 0 0 0
1917 5 10.38487867832078 13.782293208432257 0.7800743925712417 0 0 1
365 9 15.673801214925644 9.56105468507986 1.0670447217413042 0 0 0
369 9 15.513916948408557 11.683962242676367 3.5816494850192164 0 0 0
402 6 14.95388789490939 10.54558586417716 1.799582409514601 0 0 0
406 6 14.60245348253712 11.747925158725083 2.709257351339384 0 0 0
476 6 15.820668913074874 11.57242398259255 2.3764731344162966 0 0 0
684 8 16.29028516922435 11.011754504557226 1.1513998599977282 0 0 0
472 6 15.486560726922846 12.920459522056996 2.8881536328624007 0 0 0
382 6 16.95557338384766 8.073984928430772 57.46508299386042 0 0 -1
1756 3 14.292645685320684 12.854754441577906 1.86811041411719 0 0 1
1491 5 14.62853703103835 13.02738327761876 0.9732866867040714 0 0 1
1759 3 23.805512535698625 10.60763911394768 1.0774540930822711 -1 0 1
650 1 3.9814725219452445 9.148370521715433 4.423712600291298 1 0 0
1286 3 24.57488994155545 9.458598939158446 1.6921861669495135 -1 0 1
635 9 24.598839975689017 10.698829332852332 2.2909503592113514 -1 0 0
1044 5 25.243661696453174 13.501800905754788 2.4137828178691354 0 0 1
669 8 23.95470713529373 12.059206720093483 1.473061260184386 -1 0 0
1804 3 11.735357819524 13.849989357200236 1.7565417481542638 0 0 1
922 3 10.70952038544925 17.912372610446912 2.255986063538876 0 0 1
774 8 13.379411192081218 17.323412508860105 3.8907923806086795 0 0 0
540 4 12.63798213568967 16.34466284373629 2.7414909000778054 0 0 1
1235 3 11.773142824087012 17.630396385215366 3.191217825601303 0 0 1
514 3 11.817817082141234 15.393564036170211 2.008573017091764 0 0 0
923 3 9.93634830323938 18.062615447112428 0.7820178245201845 0 0 1
924 5 11.377087696988584 16.713246594945343 2.1814012614630074 0 0 1
1916 3 10.617903983250034 16.553163943589958 1.1657895234861697 0 0 1
1490 3 10.849870486056389 14.647719067246552 0.939066800062164 0 0 1
512 5 14.264142604591411 15.372041880731059 3.734115816575499 0 0 0
1757 3 14.218795711277766 16.011998226366266 2.9911428370051234 0 0 1
818 3 15.309563178237433 14.576528237508253 2.3389679188902477 0 0 0
1354 3 15.859040002024527 16.210631126789632 2.0648512198341766 0 0 0
1356 5 16.907728286394185 16.031559739394815 1.6997288637616845 0 0 0
489 8 15.511765719630498 16.89208091533332 3.259110244441972 0 0 0
451 9 16.49583425964963 14.08257955973405 2.65922482844705 0 0 0
455 9 14.617512890230135 17.563454722886558 3.912379400256438 0 0 0
775 4 16.91725389997618 16.574440061991464 3.1084998281397795 0 0 0
1090 3 18.10307444038161 15.76401197158614 2.443885271998089 0 0 0
1355 3 17.00600065095751 15.202005546043054 2.494106209368084 0 0 0
1489 3 15.820407133770582 15.413154880549795 3.3321615718949187 0 0 1
817 3 17.3961903414418 16.970955450803164 1.8526543679291023 0 0 1
819 5 16.292124080448374 17.26512246803659 2.3087145390921986 0 0 1
1704 5 18.34829943405962 17.65019585958895 1.2403530918271009 0 0 1
1091 3 18.63712758870356 17.182729415506724 2.288278494482971 0 0 1
1092 5 18.582876428504015 16.348941084756834 1.3232178921101125 0 0 1
1231 3 23.875075609738932 13.602648109606465 1.5684621561786147 0 0 1
1023 5 19.381769607052384 18.034204107126165 2.6968838557826995 0 -1 1
566 6 19.681692870128476 15.942431540242932 2.187521825825235 0 -1 0
725 9 21.088271757326073 16.14602876525787 3.099312327864607 0 0 0
742 6 22.021023255168075 16.120148014448425 3.872048252421947 0 0 0
762 6 20.61438856312009 17.198141207584364 2.215842444849249 0 0 0
759 8 19.26316115169587 17.174264834788296 1.8176294537084325 0 0 1
750 6 20.997372973509286 15.863841524122511 1.7817860042463667 0 0 0
234 8 23.60984344004516 15.237717211451065 2.2030012652577513 0 0 0
746 6 19.79431657953527 18.394645089636743 1.483924604957218 0 0 0
1895 3 22.2571698453305 15.34253360815674 1.5377566018286863 0 0 1
197 1 23.632830091539248 16.142787929158604 3.6920269926208884 0 0 0
185 9 26.21451493751762 14.826815255679021 4.8529799131876405 -1 0 0
50 6 28.055174981745253 18.15295420499374 4.02461558506971 0 0 0
189 9 27.077228097447744 17.461942897672177 4.126838781469337 0 0 0
222 6 26.423475654734673 16.344515944228448 4.237350681209858 0 0 0
270 4 25.39960845913307 15.77150138092328 4.8564827354995765 -1 0 1
226 6 24.963142222771868 16.652968917864516 3.672620531234998 0 0 0
1043 3 25.438176160538575 14.94006600104827 3.6891162361890193 -1 0 0
895 3 25.806887612254766 17.57951740877 4.290273856735549 0 0 1
1894 3 24.67413719044987 14.23879618125545 2.6001320217128177 0 0 1
219 8 24.496055492334637 16.983069990998235 4.949114243320104 -1 0 0
210 6 0.8318913749871757 0.7331342119474874 5.605580937743473 0 1 0
466 1 0.5945243442176494 0.8573327049969652 7.0053516883348435 0 1 0
467 1 1.5620581024670896 1.8909927770227586 6.065336874431644 0 1 0
470 1 2.9999240072329365 2.94407986774185 8.297087848477627 0 1 0
487 6 1.8234694149638804 2.3388955932791595 9.945112589829016 0 1 0
552 9 3.1760291400928162 1.2861365040419717 8.804271941001936 0 0 0
459 9 3.9728950841921087 0.8333467709781976 5.639447778894369 0 1 0
323 6 0.995092648976093 2.2786049818470566 7.314513559204209 1 0 0
315 6 2.847509524997706 3.3649196005844177 9.712335673252651 1 0 0
283 1 4.094668605536867 1.9650453711842268 8.168351196337737 0 0 0
310 6 0.3102719364634051 -0.022138000700851312 9.420931334759391 0 0 0
713 5 1.8160661535325173 3.2098650608489914 9.208037484841451 0 0 0
193 1 2.238720520196913 0.3183137399258422 6.231379880219112 0 1 0
462 9 11.960951013790126 17.947550369212358 9.570142625698276 0 0 0
353 5 1.107700864375454 1.581216070398585 9.562434710846798 0 0 0
630 4 8.452781381597713 3.5984396820423696 5.508520238440143 0 0 0
570 6 7.082572257098987 1.122552803836434 4.999858550299378 0 0 0
604 3 7.161112503553555 2.6199076274325623 5.05386863224928 0 0 0
541 9 8.011043784070962 1.4301431804939213 4.239749020464312 0 0 0
603 3 5.319469677270739 0.667351025788946 5.575293728297161 0 0 0
574 6 7.949716185636586 2.2132458689274106 5.867580400410964 0 0 0
320 6 6.637574039439699 1.711361590255401 6.241133417118078 0 1 0
557 1 5.010867208210187 1.7465944045731623 6.706146612122861 0 0 0
560 1 7.115227735427931 3.464617247444073 6.211085257052854 0 0 0
602 5 6.422772211308945 0.6119507424784173 5.887650372831762 0 0 0
586 6 9.30548477390917 2.5077527031245537 5.825604031302377 0 0 0
12 9 13.411725781147206 3.1947437520049613 8.0683982241279 0 0 0
49 6 11.672201458424395 3.0404316024014526 6.789152268246027 0 0 0
184 9 12.761521054000795 3.294917719253663 7.268036094824292 0 1 0
553 1 11.533164577570792 2.841423820244943 8.230545476241149 0 0 0
217 6 12.835409713574176 2.0726393729001877 7.788056726454655 0 1 0
573 6 11.534703160208792 1.9399951652259202 6.333111306942517 0 1 0
724 9 12.186116418882236 0.8709536630474501 6.354002953160737 0 1 0
740 1 12.883316181268556 1.9339507323682703 5.871571503034812 0 1 0
8 9 14.435230056775879 2.1925336808804707 9.191669890271362 0 0 0
53 6 16.147301422005544 3.6814547794290746 5.008323070930292 0 0 0
84 3 15.380168381230918 0.7192321677712672 9.07815297027691 0 0 0
25 6 15.49026965368516 2.053914511861926 9.634906163248775 0 0 0
33 6 18.06919137290646 3.403047556405901 6.137081283760138 0 1 0
300 6 21.18420634997321 2.7232112841963527 9.45085042820339 -1 0 0
13 1 19.270879642101697 2.8157176307275074 5.462559220883209 0 0 0
1 9 20.606320326054217 3.4858950900159518 5.75950485862598 0 0 0
282 9 20.68517257858334 2.6195542425864247 6.289190940122866 0 0 0
251 5 27.93583354098877 17.73485195315216 9.72557156448005 -1 0 0
569 6 3.4320281978599634 4.376037189504844 9.012497443443097 0 0 0
303 6 4.453811372507359 5.896235421307441 9.311192308182767 0 1 0
616 3 1.9289370781456099 4.2865284652881135 9.677792798137492 0 0 0
577 6 2.945253346993917 5.6862664581271325 9.21011001585285 0 0 0
593 6 4.620100015261182 5.4514011298842595 7.952194549098934 0 0 0
639 9 5.114021453396008 8.285809875919362 7.373120572004592 1 0 0
139 6 5.2593915421465605 4.762921506082422 8.928492963782881 0 0 0
107 1 7.239107108307876 5.12293378826482 8.470946735956915 0 0 0
410 6 4.73343793939612 6.8941613088496645 8.212728629343202 1 0 0
544 9 4.518492694904999 4.128620415544964 8.321199216316344 0 0 0
556 1 6.517804963262199 5.204074321559112 6.974698939537827 0 0 0
631 9 8.326711026564299 5.343946844123851 8.80389368662489 0 0 0
664 6 8.135586366863556 4.9350802280368615 7.3853430624525105 0 0 0
643 1 7.578605543390127 6.451483379337484 7.699799504805821 0 0 0
663 6 5.7845875794100845 6.11227604875113 8.610395821523044 0 0 0
124 6 13.610256784227458 8.016685167914028 5.241437005402528 0 0 0
549 9 9.897300026744285 3.4782329044876863 5.842248268658711 0 0 0
680 6 12.16291325361351 5.20311709093424 5.604271152271328 0 0 0
16 1 11.767163676156827 6.579585249866589 6.281456473254227 0 0 0
230 6 13.217743400387999 6.790707536812529 5.525252595589318 0 0 0
9 9 13.100530656151264 5.690280894873032 6.241880829664027 0 0 0
4 9 12.441985188949245 5.232586761258701 6.903139987465441 0 0 0
103 1 12.511655071412738 7.985332443139497 6.50007985639062 0 0 0
638 9 23.24350450213207 6.771248422667376 9.520598960102035 -1 0 0
628 3 22.203229534935293 3.669901412046772 10.106081624931255 -1 0 0
614 5 21.42913878518126 4.345005809425637 9.480515646284289 -1 0 0
286 1 19.473831431767437 5.263668331186605 5.892815496405083 0 0 0
393 6 20.493974748876514 6.08026622086752 5.967070702758157 0 0 0
679 6 22.150012158160855 7.63074148767715 9.809126000127042 0 0 0
589 6 21.590671066198578 5.13878319817089 10.487630183413188 -1 0 0
350 5 20.91843920674459 5.857805751122241 9.507405032215944 0 0 0
691 4 22.41848747970742 5.746753591945511 9.32153048171321 -1 0 0
655 6 21.563459411219906 6.251927278042234 10.424346117100665 -1 0 0
642 9 5.577010520789475 9.063402286369133 7.901658623430033 1 0 0
683 6 5.668245095915753 9.628259609224244 6.7904720486427985 1 0 0
136 6 8.688960411264256 11.641751615590316 5.734748772691359 0 0 0
94 9 7.73651379112298 11.567309035330776 7.235538294879103 0 0 0
127 6 8.233071884235008 10.836698416257601 8.278714742641482 0 0 0
205 6 7.859598924948777 12.053539705114297 8.25620842682602 0 0 0
213 6 7.412488102866198 11.872528345442642 6.106769283528968 0 0 0
703 3 8.787226885470883 11.000568847036325 9.572059423699647 0 0 0
702 3 7.768331961963379 11.92669134757871 9.631051128288451 0 0 0
171 3 8.978100867782135 12.346853109953349 9.056084405266366 0 0 0
701 5 7.673935600107342 10.81314869491994 9.208451460719727 1 0 0
377 1 12.78332553675306 9.216240196395676 5.1185555972624295 0 0 0
110 1 10.007911458023244 10.90264068079096 5.376107656388832 0 0 0
119 6 9.574268693236462 11.359041682510647 8.28734671722557 0 0 0
172 3 9.850083047915435 9.985333738924492 8.846560195289896 0 0 0
409 6 13.959087098976756 10.094191750943054 5.693711226916525 0 0 0
102 9 10.5436984532558 10.757772992075173 7.6760892347322685 0 0 0
135 6 10.835730480127028 11.216818690747008 9.047649370527484 0 0 0
143 6 10.768051980417578 10.262254983664365 6.545830670874746 0 0 0
163 3 13.22922633429348 11.763604799911258 9.959861664256255 0 0 0
364 9 15.265578524870163 13.045951917273175 8.01048362314408 0 0 0
389 6 14.899525332804547 10.9530613737875 9.687177882900144 0 0 0
483 6 15.550515035678238 12.800377582013676 6.798992758633937 0 0 0
500 6 16.028038237647785 11.380021771256075 4.6871057172629 0 0 0
372 9 15.116940239127864 10.066075829620528 8.70111478580093 0 0 0
397 6 15.40158782724095 12.656743759184156 9.18296986483597 0 0 0
380 1 15.348755957502837 11.201458799608966 6.212544334316437 0 0 0
413 6 15.494985095056498 10.293101675686492 7.496730844367988 0 0 0
690 8 22.053475855175495 8.707912310099928 8.95341150598353 -1 0 0
659 6 22.212909164950535 9.79075267526261 9.818222769402231 0 0 0
754 6 23.27257951787379 10.209820739107744 6.80574716045174 0 0 0
704 5 22.677863520521985 9.873509939171656 8.511748788735874 0 0 0
646 1 23.470489931542648 10.268733355241954 5.2537117798726 0 0 0
634 9 22.585796071627364 9.437949485929996 6.26715539445373 0 0 0
667 6 21.653225991882195 9.560499227047469 7.928091942211476 0 0 0
753 6 21.71713832992021 10.582629482746155 8.648591845561912 0 0 0
705 3 20.63860424847133 9.422071556626083 9.070904821747483 0 0 0
706 3 21.011777174582356 10.479620634835152 10.07669208390904 0 0 0
651 1 21.083366724082385 9.023259108149235 10.249772772395087 0 0 0
647 1 23.9656363748577 9.006288904805793 6.216016680457799 0 0 0
676 6 4.380532248517936 9.661470781896371 5.847043132464604 1 0 0
733 1 4.362382287752838 9.822884850526748 7.470329641223712 1 0 0
202 6 6.2305534900718955 14.179864143420811 5.4757204681518905 0 0 0
278 9 8.633828689980936 18.044311665923 8.3171662934507 0 -1 0
330 8 9.278772914705312 17.636007992573376 9.480370348437152 0 -1 0
201 1 7.952563094554993 13.582918364485916 9.550662961269932 0 0 0
253 3 7.964771960411692 16.991876349461677 9.102889408687956 0 0 0
240 8 7.856575149240448 15.259518191116387 9.051983535999756 0 0 0
475 6 14.148222059556305 13.098393547112442 9.04371677522579 0 0 0
295 6 9.958742198576966 16.50410142846467 9.734110900148147 0 0 0
454 9 10.481168294324926 17.68659311878057 9.347319873650564 0 0 0
711 3 13.828704362523672 14.548826760879408 9.356911422897145 0 0 0
521 5 13.739351081379088 17.487679276269528 9.593029151368967 0 0 0
480 6 18.783165729079272 14.845174615168306 6.01560347677139 0 0 0
736 1 18.902619734002794 16.51355749380491 6.746919407340624 0 0 0
732 9 18.521561014442213 15.356636412295396 8.451359161123918 0 0 0
794 5 15.319121081395702 15.795673261620019 8.647009216589801 0 0 0
769 6 15.470322855931952 13.978696657790532 8.907076833050096 0 0 0
511 4 15.307224088434303 15.297344104530948 9.479065661925812 0 0 0
773 6 19.553970417405054 15.709095815091947 8.917360866357837 0 0 0
463 1 19.27231530079687 15.002827108641064 7.50301441276468 0 0 0
757 6 20.11934497061991 16.79377810561729 5.576175650680254 0 0 0
721 9 20.185972323771214 17.889654353898855 6.4219499364409485 0 0 0
737 1 20.437654973064248 15.528586337901645 6.219920810657787 0 0 0
766 6 20.233710370773522 16.55163144420938 7.5257584255793315 0 0 0
729 9 20.847959011208 17.065728270657484 6.594929073207536 0 0 0
791 5 21.18750727694528 16.753600713348153 9.169847208938737 0 0 0
792 3 22.11488390052817 17.566834777909705 9.565082238590195 0 0 0
233 6 24.32065110656481 17.803639788937016 7.1955453637224265 0 0 0
220 6 6.683681529802285 15.16870477205474 9.670000490292532 0 0 0
354 3 7.106242938874208 16.517381874215914 9.566453101465079 0 0 0
229 6 25.731462978021607 16.94801477003293 5.577255511761679 0 0 0
192 9 24.794692068777152 17.36843610405048 6.204056871484535 0 0 0
200 1 24.619603141781493 18.085502942923792 8.752019157618866 0 0 0
225 6 25.376817259014018 16.756380098755876 9.428918384405227 0 0 0
188 9 26.44541816455487 16.11944851922754 9.500675561863547 -1 0 0
81 3 8.098287761641332 1.8287852392007087 12.225702256033472 0 0 0
561 1 7.207898831556772 0.7921246872707981 13.023387317019246 0 0 0
580 6 6.862623237106861 0.8171267613534039 11.349002226201478 0 0 0
599 4 7.713073647340245 2.2009957707014425 13.59180090319174 0 0 0
600 8 8.409142951138234 0.5554009696395694 10.81256644585755 0 0 0
548 9 6.4457311006538465 0.8532498908765261 9.912601224139234 0 0 0
82 3 9.562317434919883 3.0791802802255646 11.748368832179242 0 0 0
168 3 8.416620289686078 3.5848478650032236 13.944284461393352 0 0 0
585 6 13.231787788647308 18.234369000862422 10.303620250344707 0 -1 0
523 3 14.674601191729204 18.075168296925952 10.154229135031972 0 0 0
601 4 9.564485260490695 1.4384254699879817 11.572474493066618 0 0 0
86 5 10.792957287592447 1.9632366627513185 11.058888413017833 0 0 0
88 3 10.814034575392956 0.829123005631353 11.280767919669183 0 0 0
21 1 14.106160053435088 0.038067807524244796 11.5287699420746 0 1 0
625 3 11.740305596309174 0.11602220585572329 10.610213282619652 0 1 0
40 6 16.481208139255585 0.944386069137863 9.822686808407415 0 1 0
85 3 14.586087863865318 1.256576405074972 10.091914830027024 0 1 0
80 5 13.983606927359329 3.164312536407953 14.265024423094845 0 0 0
60 8 16.531720816572875 2.386554901380261 10.351725871930741 0 0 0
61 4 17.772034009789536 3.1603457607416714 10.844715407205268 0 0 0
83 5 15.679717178746117 1.491476343044163 10.69217930797493 0 0 0
358 3 16.498175707448404 3.7176909174989703 11.250823521448273 0 0 0
209 6 15.454617612185725 0.28208439821080755 10.549172961420853 0 1 0
70 3 16.260495035834772 2.9070436719990935 13.978079141061587 0 0 0
314 6 18.37995742636087 2.9893563739423255 14.212397712834965 0 0 0
621 3 19.327769653454585 4.150744171990404 10.5407049079071 0 0 0
357 3 15.601534730139914 3.9479556732678676 14.442655910329089 0 0 0
709 3 19.61777152593029 2.6509353515756726 10.740833168070052 0 0 0
331 4 0.33999421856791623 0.6005113960172436 10.565047762663689 0 0 0
622 3 21.35944038870599 1.8485396853356604 10.699895975704049 0 0 0
328 8 20.65544002609139 3.538250052997474 13.987179386515868 0 0 0
439 3 19.449758979946477 2.717592232164602 13.330116180114025 0 0 0
291 1 20.013170687518155 3.62112852149285 12.226719770897292 0 0 0
338 5 19.127536174327147 1.8691934474155572 14.289209705665163 -1 0 0
388 6 19.488712480509353 4.151953981787087 13.551150659046241 0 0 0
615 3 20.86798430478511 3.551066150531525 10.835009482955742 -1 0 0
715 3 9.149243185539824 4.12439718716288 12.71688257826245 0 0 0
169 3 9.07556204011896 4.90071016947049 14.26473099030154 0 0 0
611 5 9.730640084131059 6.601664437576001 9.779856716784181 0 0 0
98 9 10.175415948471942 8.71909746492305 9.645370419648478 0 0 0
115 6 10.215373278159692 7.5383365012100105 10.110495308306934 0 0 0
612 3 9.657749332318337 6.630478232299598 11.018973665265618 0 0 0
29 6 9.803999312476796 5.528784384069783 10.195827448996559 0 0 0
442 3 8.934029839266302 6.265510074593216 15.196621219881166 0 0 0
37 6 10.91063832695372 6.428075920851361 10.056802065569958 0 0 0
620 5 10.759235971940328 5.066906994254266 10.229804464472533 0 0 0
714 3 9.936382359509123 4.472079907001783 11.135764995948124 0 0 0
613 3 10.902413502371678 5.69109155201058 11.31256178927645 0 0 0
111 1 10.381048714307912 6.608283913515583 12.679954542222642 0 0 0
130 6 11.064256046097949 7.137256592459471 11.36808230647678 0 0 0
441 3 10.626639119395824 7.474662125646312 14.032551731542108 0 0 0
265 3 9.379679334816709 6.637881817980703 13.726389689793855 0 0 0
385 6 14.883012732031327 7.971935047687956 10.066858424493903 0 0 0
71 5 14.491068817238805 5.878878871472005 11.27407881068318 0 0 0
311 6 16.098791618631655 4.267629718527477 12.915174652041204 0 0 0
76 3 14.63585763015102 6.103133032312852 12.385343266640437 0 0 0
346 3 16.182130366519896 7.4452016573866775 10.809545061074946 0 0 0
434 5 15.21158796022664 7.060937662554092 12.86281357282082 0 0 0
436 3 14.848384528368346 7.2677189426308315 11.635247690413172 0 0 0
299 6 15.613669876584574 6.197775128733356 11.140677888820578 0 0 0
72 3 15.442398706460278 5.037716617615789 11.867597965853333 0 0 0
74 5 15.212164708993946 5.364925859562575 13.070410036780261 0 0 0
344 5 16.679032380579155 6.6424945525969985 11.621444947940853 0 0 0
345 3 16.22688799039523 7.454092122187169 12.321278791191704 0 0 0
75 3 16.080954540085756 6.179289717966286 12.593577538312076 0 0 0
381 1 17.339550435918035 8.331102177299895 13.262098951028682 0 0 0
400 6 17.066099183584793 8.298541723379987 11.636067002600162 0 0 0
707 5 20.166343328248875 4.474834396793455 14.58958263194533 0 0 0
626 5 20.92261726912783 5.946830533375195 11.261388506819184 -1 0 0
627 3 20.416689013665195 5.082120928631756 10.371622251761986 -1 0 0
342 3 21.04996236312819 7.798113842790194 10.983596336513322 0 0 0
670 6 20.41987049674232 8.811068670515159 11.369597427550707 -1 0 0
341 5 19.775859057726095 7.756126682183272 11.221523649163347 0 0 0
343 3 20.382172861853977 6.689937827590798 10.412528759440027 0 0 0
421 4 19.92180121078162 8.117518597802652 10.17717869322468 0 0 0
710 5 9.517306316428353 11.888626896916232 9.764083392871035 0 0 0
178 3 11.068463197407745 9.644934181717286 9.565088484582235 0 0 0
161 5 12.147645554695764 11.044441898608454 10.865839369410232 0 0 0
151 4 12.279197142427407 10.77170168566697 9.98607660054996 0 0 0
162 3 12.86496353067811 9.134939994771527 10.027605321830068 0 0 0
150 8 11.455521454077518 8.346152016112667 10.059336072960603 0 0 0
490 6 14.375272434115878 12.562979308063785 10.547386293454366 0 0 0
368 9 16.489898449547653 8.662576552635537 10.394344449866741 0 0 0
420 8 18.916961689677226 8.730073053412383 11.017201825065273 0 0 0
435 3 15.633634168639649 8.810412102469957 11.201523426640307 0 0 0
405 6 14.259268743488896 9.649465616333202 9.93986472266469 0 0 0
73 3 15.769994483578946 9.496519635195993 9.771232391666524 0 0 0
447 3 18.07487530706468 9.239246802173819 14.183445609026322 0 0 0
675 6 22.2434819960587 11.328002154155115 10.052237246890282 0 0 0
431 5 19.53507044262099 9.743696909836046 11.35208773194895 0 0 0
433 3 19.787001725484608 9.515070574925964 10.111144616689218 0 0 0
261 3 22.372015922246298 11.990879884361119 11.459445267389514 0 0 0
745 6 21.581234752250563 10.729592341693024 11.442891779330223 0 0 0
432 3 20.630772303412975 9.847737438050816 11.044054034882521 0 0 0
728 9 21.216941333655523 11.701086784157408 10.609847294022515 0 0 0
760 6 23.210506703260286 12.324346678698802 12.463457594402072 0 0 0
780 8 22.675544845395443 13.539320237103379 11.169702999194328 0 0 0
256 3 23.66815699067209 12.206706645078349 13.916183715367715 0 0 0
531 3 24.50338859894094 13.099881499389697 13.176236478090795 -1 0 0
260 5 25.025081831771377 13.475268978730252 14.377948762951883 -1 0 0
355 3 8.197773307910813 17.41074221574737 10.506972542862627 0 -1 0
532 3 8.408559624972039 14.91041765999606 10.61100667956632 0 0 0
252 3 9.449800211819237 15.052705564913039 11.668326488718167 0 0 0
538 3 7.652096936833021 14.953373021241124 12.071843525250795 0 0 0
187 9 7.719243451445603 14.265861846453529 14.382851584928552 1 0 0
78 3 6.600023143442291 14.607978205591731 13.798913737478617 1 0 0
166 3 8.520041407539034 14.789824199829813 13.43302379013037 0 0 0
239 4 6.254121895158139 14.523223885605828 11.92219886777352 1 0 0
164 5 10.411967587888869 14.74865409811245 12.212990088688452 0 0 0
495 6 13.460353889478933 14.623033575214878 10.877771909743261 0 0 0
241 4 10.964043093614272 15.819796045394998 11.916516652245921 0 0 0
165 3 12.361920725375612 15.600640472998327 10.048734553576368 0 0 0
499 6 11.333535159101439 17.058651483366244 10.258224738508552 0 0 0
479 6 13.811032532895346 17.179054609313596 11.172069515915263 0 0 0
503 6 10.712558813484817 15.5477449945543 10.424586935451668 0 0 0
458 9 13.661920522072101 13.548734825885052 10.146020857331584 0 0 0
525 3 12.673091298964591 17.124502680580562 10.062197063252205 0 0 0
510 8 13.87724229643009 16.26459253658565 9.775818964359472 0 0 0
250 3 10.37542730861091 14.500154003196176 13.899523830051955 0 0 0
522 3 14.685611642069203 15.670369358082544 10.918699336121119 0 0 0
524 5 11.6856946916749 15.037242163088875 11.090598487324755 0 0 0
526 3 10.133790524733316 15.555661996678255 13.093008116015486 0 0 0
801 3 12.107137408078259 16.157302088929708 11.41084289580085 0 0 0
712 3 14.892024174697072 13.89103995209784 10.349322205052777 0 0 0
471 1 11.181943388819482 15.723090884613317 14.282783400132315 0 0 0
440 5 15.752195739881225 13.97092506480174 10.741850618686206 0 0 0
530 5 16.286213731324445 16.67320789675092 10.595100844288842 0 0 0
802 3 15.395306533238108 16.806958907762912 10.33414282823094 0 0 0
565 6 15.237563762499981 17.855445107912676 11.781631966281273 0 0 0
617 5 11.150048585226763 -0.0559714979453593 12.936047161383456 0 0 0
87 3 19.469539956259958 17.940634885641284 12.1833217218383 0 -1 0
808 3 20.858689070704262 17.783849430658464 12.871500875084864 0 0 0
765 6 22.030996099019955 16.26681066901851 10.171917652369597 0 0 0
623 5 19.825583598948693 17.308407243821854 9.708249288027082 0 -1 0
749 6 20.993902855666892 17.974231737111616 9.833007108969754 0 0 0
624 3 20.721158104958086 16.680527970901952 10.19243662503148 0 0 0
781 4 23.955400872416014 14.48767972517771 11.013840627144216 0 0 0
793 3 20.105649036130206 17.111012991220573 10.91542577084895 0 0 0
795 3 22.58600797847799 14.972907186656842 10.819134173012058 0 0 0
796 3 20.132293957463073 16.639979908426024 12.055453033629135 0 0 0
806 5 19.95045514399615 16.01701649922851 10.969212920546259 0 0 0
262 3 21.075688506314695 16.052568699389816 11.645908208451107 0 0 0
800 5 20.17398649518508 15.74664885211636 12.863053251769257 0 0 0
807 3 21.06169888608551 16.40732764715692 13.364355829679987 0 0 0
608 5 20.63062455784235 17.446502287843185 14.18661386483791 0 0 0
761 6 19.743879320455274 16.717808564766248 13.460447969582527 0 0 0
254 5 24.384145993309236 14.914064718688856 10.146086648767545 0 0 0
255 3 26.248176519425908 14.681957103095748 10.300247873602544 0 0 0
268 3 25.326547496718476 14.330935187274592 11.46092311702637 0 0 0
238 8 25.61147805525151 13.931420301978376 13.131910640840177 0 0 0
294 6 2.1024625616848387 1.9864620130122965 18.67547915642133 1 0 0
277 9 2.665262007517906 0.9533542404165547 18.388457780345817 1 0 0
273 9 2.414278776211694 -0.004016824784739748 18.68772855369098 0 0 0
302 6 1.4320444257728626 0.2303333097638695 17.979754129233523 0 0 0
285 1 1.38430613452381 1.0290141194065343 19.3133722023247 0 0 0
391 6 3.9322266189691453 3.6284333125035464 18.04126631721706 0 0 0
581 6 7.382069109218692 1.261081895590322 14.70470699057454 0 0 0
598 8 7.466684488018259 2.5251441433242348 15.151686036784186 0 0 0
339 3 6.827014318475355 1.5373268778089815 16.2426584006481 0 0 0
588 6 6.65032535717683 2.3209387490338447 17.667645809625416 0 0 0
547 9 8.002664736952307 1.5088484961717106 15.874405418204969 0 0 0
564 6 8.049774602077987 1.3217984766978161 17.140947694177445 0 0 0
576 6 7.964565488746512 -0.10814743381195607 18.269357069889075 0 0 0
584 6 6.575384594252873 3.1006157981607343 16.407397715582555 0 0 0
682 6 8.056963594000552 2.7602683896440623 16.938357197542153 0 0 0
661 6 8.182172544349879 1.203849908411196 18.711521167710096 0 0 0
575 6 8.018037574217312 2.353736262726829 18.299946800871968 0 0 0
551 9 6.001318179486803 3.586231357370255 17.512654904484656 0 0 0
543 9 8.702270018746908 2.2007586568848487 19.381225548770974 0 0 0
340 3 7.159657380517378 3.5786533627920707 17.513375131419068 0 0 0
41 6 13.219099786921117 0.3099299216027307 14.544784461586817 0 0 0
24 6 12.992983482146157 0.7326095257453583 16.025314007683242 0 0 0
174 3 13.84178427538631 1.7645370233608857 15.301260720705661 0 0 0
173 5 13.545522338403718 3.4429784888274257 16.028684649129232 0 0 0
351 3 14.80455831019919 2.890182803363663 14.753967044583286 0 0 0
281 9 17.421695769059298 2.9241467913067805 14.85207111068782 0 0 0
356 5 15.845739968951628 1.9363828750130918 14.661360348108119 0 0 0
352 3 14.193971043308123 2.866696314421645 17.618727444435734 0 0 0
36 6 14.109129338994453 1.7632296226019777 16.784098895108656 0 0 0
175 3 14.389915616979643 3.050994982948453 16.10546340744542 0 0 0
7 9 15.211941335313822 3.25596439497919 18.17956032858935 0 0 0
3 9 14.365259597557792 0.8256547567009442 16.07914166845331 0 0 0
32 6 15.299266739239131 1.8932308862107765 15.727462432455487 0 0 0
58 8 15.474405474069727 2.604408140959672 16.990728254119954 0 0 0
59 4 16.227959021429566 2.765546467291605 15.2860165323405 0 0 0
68 5 15.59061310895201 3.3197695890489314 15.902006890669028 0 0 0
306 6 18.801546932952117 2.580271942189978 15.447794657792283 0 1 0
329 4 20.605021034456957 3.5905929952220537 15.399790226805955 -1 0 0
437 5 19.765336310056963 2.97649729873592 15.93444151159428 0 0 0
708 3 20.01560219523123 2.477311515118244 14.698022704349949 0 0 0
438 3 19.36105636656467 3.8034724303967984 15.006319281360208 0 0 0
468 1 20.82607784726207 1.1208342124991206 18.07696874817953 -1 1 0
288 1 19.578475133865783 3.1108560797542375 18.820989664709163 0 0 0
215 6 20.0070122603272 0.4158355289553661 19.188174152195934 -1 1 0
284 1 4.12842663950071 5.060475566566057 17.410133131861063 0 0 0
379 1 3.0498166464261494 4.280915816616204 18.796722390141042 1 0 0
666 6 2.911951325465874 5.91686944995407 18.1387372870657 1 0 0
648 1 2.5096070721759816 4.633868555642358 17.309551461214177 1 0 0
428 5 23.904074510410968 7.848134558760282 18.15761826567642 0 0 0
542 9 8.033972403870003 3.705998963705835 18.373922915473447 0 0 0
662 6 4.9439609749450355 6.623074463348306 18.061374862704362 0 0 0
633 9 5.441610435855482 5.501265070857478 17.776106592766492 0 0 0
658 6 6.464445306640088 5.321732414848466 18.53579928612407 0 0 0
167 5 9.020126535115295 4.776399357256363 15.238316579437075 0 0 0
264 3 9.550312419478528 7.652661779333228 14.994748487629328 0 0 0
149 4 10.373501951523172 6.091360431754493 14.615991565096538 0 0 0
158 5 11.073237999090662 9.175621187305037 14.594218837647079 0 0 0
176 5 9.954446620995032 6.361715944040391 16.282133896779158 0 0 0
170 5 11.08390698055316 7.112766018057523 15.017651625283985 0 0 0
177 3 10.282921897176182 7.043094103469867 15.881950160275698 0 0 0
126 6 10.28309320132449 4.068515458384724 18.884990563345944 0 0 0
93 9 12.595783478246622 7.829894799663331 16.515833409374814 0 0 0
118 6 11.309201301250956 7.9932394777178555 16.423522047663177 0 0 0
159 3 10.779168870460405 8.484759610317465 15.130208637456072 0 0 0
114 6 12.217183829162458 8.87805541599721 15.825932249137189 0 0 0
131 6 9.746181064422906 8.494201375685588 16.33805077072196 0 0 0
408 6 12.226920212293264 8.875556892293307 17.23201031104765 0 0 0
718 3 18.32891888360811 7.882043113671701 14.565911810519909 0 0 0
446 5 16.48640071741806 7.887673142122085 15.879191290174969 0 0 0
384 6 16.815275495029173 7.785363904798846 17.026184246244735 0 0 0
401 6 17.757623702734335 7.639982256331181 15.89968932320148 0 0 0
418 8 17.853172457888377 7.763711675225169 18.11785392121448 0 0 0
533 5 17.917334529910907 7.307982937391475 17.050082464721758 0 0 0
411 6 16.60858492407996 8.125438550822862 18.777218896114785 0 0 0
419 4 18.292113010490727 8.514616166840861 16.90014706041275 0 0 0
44 6 15.501276755568032 3.9578885311464584 19.132199213807258 0 0 0
367 9 17.13373556601002 6.922021685354785 19.15394023058456 0 0 0
396 6 19.8722028482665 4.7846188638910325 18.71841156664911 0 0 0
412 6 21.190916645320474 3.631109834395685 19.30803518105161 0 0 0
363 9 21.18127906479255 4.591643913537192 18.34728784658895 0 0 0
370 9 22.05311838612596 4.816359210817932 18.986196356474853 0 0 0
407 6 22.368681547968674 3.9093266687579846 18.093707357514866 0 0 0
741 1 19.292704308494027 7.924191989496484 15.721006029268416 0 0 0
272 9 20.95763441949766 4.820484037441846 19.448847923214988 -1 0 0
698 5 8.15464423792993 9.968801227808763 18.38181292603027 0 0 0
700 3 7.873235529149051 10.912869107200283 17.554605445014467 0 0 0
134 6 8.778972627564503 11.040906915575876 18.957200797276208 0 0 0
208 6 7.863722820071911 12.067263355984776 18.479412070370984 0 0 0
257 5 7.382323377801268 11.862829953586154 17.516627024626207 0 0 0
689 4 7.308900221805132 10.74878444611344 18.827525788533283 0 0 0
688 8 5.06322225004902 10.449760073832616 18.660521209111828 0 0 0
263 5 8.727345687802076 7.873208907982537 14.813446216813976 0 0 0
258 3 9.019385370540748 11.911248128087884 17.598575532618955 0 0 0
259 3 9.07202104770802 10.317469225558511 17.74282917602955 0 0 0
183 9 9.6447823682264 12.902694106125766 17.01919103619796 0 0 0
160 3 10.969459827755472 9.428076509037698 16.486205903512055 0 0 0
97 9 9.799051878267626 9.499716927586316 17.05379076504572 0 0 0
148 8 12.220230729056183 10.135212343749357 16.66348843550152 0 0 0
371 9 12.858603518156283 9.996360422345271 17.76656390831686 0 0 0
529 3 12.912418670940298 12.504332064548432 18.586377648116645 0 0 0
404 6 13.332178408119086 11.037371674034983 18.440017715091304 0 0 0
491 6 9.649875777248958 13.75876826090806 15.906260879455413 0 0 0
248 5 10.112103825375208 13.590168954415667 14.717848837851891 0 0 0
717 3 16.989099039977145 8.540382297723966 14.951609371655527 0 0 0
527 5 14.026892425321403 11.995451385959635 18.2365765250037 0 0 0
502 6 14.18371569729558 9.851292101285253 18.562291062225626 0 0 0
448 3 16.924486676065193 8.985447583534384 16.233732576477273 0 0 0
445 3 18.286314600884694 8.9789298572958 15.5740223290674 0 0 0
716 5 17.85149828175454 9.609264919591437 16.638979158216014 0 0 0
534 3 14.793979147453062 11.079685627803698 18.661016437169216 0 0 0
535 3 17.2045809613486 9.1822994130867 17.73141454479858 0 0 0
378 1 15.722914376928195 9.678677264544556 18.48123085529891 0 0 0
678 6 18.05532950809207 9.017266771162062 19.041882792333727 0 0 0
429 3 22.820452298912937 9.761592816921631 18.167496920689022 0 0 0
443 5 20.23716170568942 12.626889689927388 16.46679875925746 0 0 0
444 3 21.32760544257566 11.770157827143736 16.87486578843622 0 0 0
641 9 20.68367542319196 10.858908933387097 17.510320716663927 0 0 0
674 6 21.926003977928016 10.91420675076291 17.90578879010121 0 0 0
723 9 19.521119379661542 12.628705357860198 18.60787163664389 0 0 0
748 6 20.132442891904866 13.445914881879862 17.68827371741934 0 0 0
789 3 22.568792617783533 11.3288501753495 16.36663584835607 0 0 0
797 5 21.68211343717928 11.853111888579452 15.742028384187371 0 0 0
798 3 20.44150281108526 12.205884193636964 17.66001666305174 0 0 0
799 3 21.26790196113148 12.662160970673382 16.438149514826975 0 0 0
790 3 22.49393775394942 12.7556862660673 16.07262210925626 0 0 0
804 3 23.31817474620182 11.407777817151722 17.79042712253679 0 0 0
267 3 23.54188906783321 11.521103440356859 15.427250723789752 0 0 0
637 9 23.366255661586955 10.336945578809557 17.25651524507938 0 0 0
266 5 23.70318984873059 10.800351721210346 14.868807194800821 0 0 0
221 6 24.205943154855706 13.071604824004632 15.419276947938956 0 0 0
772 6 24.462891379712637 9.972892365504583 17.681486927871546 0 0 0
430 3 23.86618201841421 8.765283374889647 18.457859449283287 0 0 0
803 5 24.969256898342078 12.463411638161368 16.71267701104932 0 0 0
805 3 24.008012399047107 12.363865165369685 16.71013008546099 0 0 0
671 6 24.268655770512396 10.825910293749905 16.640352662064497 0 0 0
699 3 24.77544744797778 11.514222736659331 18.29503347227516 -1 0 0
69 3 26.33825950878411 13.576166344713268 15.070315237094915 0 0 0
289 1 8.182262506575844 17.92385574529065 18.987056499502458 0 -1 0
204 6 9.164136019795627 14.157923297998863 14.716257566450322 1 0 0
28 6 6.7425395044857614 14.230231336286963 15.247454540596976 1 0 0
536 5 9.140799315602893 14.867206153647745 15.564687522052925 0 0 0
212 6 10.170074628738075 14.037003490194973 17.067400868169923 0 0 0
348 3 9.924285673936867 15.346056379864724 16.231726767708114 0 0 0
482 6 13.3539187279401 15.695505623381607 18.330825901959063 0 0 0
347 5 10.140081457218878 16.149365492853303 17.036704830578802 0 0 0
349 3 11.227226737886843 15.78884099640449 16.47926856224181 0 0 0
537 3 10.63741199759994 14.575271989272151 15.300229854493208 0 0 0
249 3 9.83022796305129 15.50288262235584 14.665542692196112 0 0 0
322 6 12.222376308757008 16.41530895249612 17.751707374173073 0 0 0
457 9 10.627059129121811 15.119269737631685 18.867507052419494 0 0 0
461 9 11.647283726656497 17.248954726522246 18.26826519881123 0 0 0
494 6 10.952716642667143 15.899989817641067 17.96673698268798 0 0 0
498 6 10.534312155949458 15.186388463549944 17.59162440174925 0 0 0
508 8 11.931701880873694 15.120416969074862 18.778321934136763 0 0 0
469 1 13.014775246940417 14.01716340387988 19.05080589870429 0 0 0
298 6 12.420458230320925 16.566209678514266 19.06070868596367 0 0 0
518 5 16.676066984425326 14.959259966083012 18.407896722821956 0 0 0
519 3 17.392908985726258 15.654896305059593 18.47789264849549 0 0 0
520 3 14.933600072723939 16.92287938226713 18.603692247002563 0 0 0
568 6 16.44399603600973 16.819886246851464 18.33556442169596 0 0 0
619 3 18.257170972898738 16.97844213080323 18.613397506203604 0 0 0
768 6 18.879960817087504 15.286994032837276 18.540842226927506 0 0 0
788 5 22.4774573208354 13.355839737502736 15.307862251144405 0 0 0
609 3 20.414858688965204 16.066328315344297 14.988883795879001 0 0 0
610 3 20.51941848508573 17.547391439040485 15.691240931583549 0 -1 0
744 6 20.70401203124211 13.900296846313724 16.697460923045554 0 0 0
764 6 19.567976820689093 16.79881693744991 18.032107640624638 0 0 0
727 9 20.455038888603237 15.026808323127536 16.04400274576508 0 0 0
778 8 20.065286204697767 16.327657255366447 16.39560500224465 0 0 0
779 4 19.959622711513813 15.229491252935293 17.37296924800765 0 0 0
731 9 19.310325975576934 16.64054057703445 19.393626419413746 0 0 0
224 6 25.736928301767197 14.585256333141164 14.883294277950474 0 0 0
52 6 26.33663267754187 17.912144122030234 17.912802369205533 0 0 0
228 6 25.869778983986265 16.189162429624528 17.43331214745381 0 0 0
77 5 26.52094474986995 14.513113802235152 15.98143505457845 0 0 0
79 3 26.691147104833792 15.391982194750353 15.26515255106484 0 0 0
191 9 26.579162108759654 16.45744224562602 16.39047289913354 0 0 0
182 9 26.55539114969901 17.178007903321063 17.0606674461522 -1 0 0
194 1 26.96098092974386 16.74739466992359 18.51485253509488 -1 0 0
198 1 25.12695687557364 16.991670782914955 18.478403096295768 0 0 0
280 9 3.9038847650602175 0.5973419839613345 23.62815636069116 0 0 0
605 5 4.152060166203051 3.1581593157577164 23.270666524058434 0 0 0
607 3 4.140409017745696 3.8422880484919304 23.976347784371786 0 0 0
321 6 5.026005455905367 0.7747165425071245 24.32493099849469 0 0 0
293 6 4.803452280069483 0.13904872339200997 22.972082703875884 0 1 0
313 6 6.131439466542783 0.10467835527049574 23.39866490932448 0 0 0
653 6 9.164379255140005 2.5373893814056423 22.82950485830609 0 0 0
452 9 7.127060180407399 -0.21470751970311436 22.709984026423413 0 1 0
572 6 9.552292695201585 1.6824084362044904 20.2278624892915 0 0 0
109 1 9.98638239954442 3.4815486299604976 20.374265247091696 0 0 0
555 1 10.440652523067609 1.8022842241317605 21.960494733385346 0 0 0
18 1 13.402084473147434 2.1278914110967317 22.621442206779466 0 0 0
567 6 11.89265598243288 1.7567755929818372 22.62890169822129 0 0 0
587 6 11.250058053566965 0.5858678852758248 22.366824656403114 0 0 0
591 6 11.818457047897684 -0.2744578343578075 23.28501039046191 0 0 0
67 3 12.665871139817629 0.5559321501213055 22.716370012808454 0 0 0
57 4 11.893767111909211 1.0863783528458906 23.811664281170387 0 1 0
141 6 14.088932620432052 3.01229841973032 21.541435797571474 0 0 0
48 6 11.187661655624952 3.691264641380325 21.24625164428003 0 0 0
571 6 17.31744194448171 0.13933998923483415 19.873042769311343 0 1 0
752 6 23.23115493031282 18.007673471616517 20.58017710975618 0 0 0
35 6 14.984492241107839 2.968558120533943 22.643362476961613 0 0 0
66 3 15.414966921174711 2.6935470628143072 19.652971167853046 0 0 0
15 1 16.078425067262984 1.4788816815351542 20.582031741580426 0 0 0
1487 3 15.532352731864226 2.721098296463665 21.318353232243837 0 0 0
96 9 15.803040198235456 3.270000875546612 23.58407555997581 0 0 0
318 6 18.532064377441387 3.0828713982018225 19.614767867960317 0 0 0
27 6 16.137319179444773 3.7878128873034043 20.398992546798862 0 0 0
142 6 14.60666319090013 3.669904661418507 20.31637327238838 0 0 0
645 1 6.273105640561553 6.805367145338426 18.935291700825267 0 0 0
649 1 5.165864358196544 5.631257246888354 19.42649889105086 0 0 0
137 6 9.155204590172676 4.702437314025646 21.066875344403382 0 0 0
558 1 6.742751601798166 5.580610560786197 20.124323685544642 0 0 0
640 9 8.543078583088278 4.142516255894826 20.08349837321857 0 0 0
1396 3 5.261025416106429 4.650950810279454 23.653114552354218 0 0 0
677 6 5.373924738016846 5.025969189511731 20.704191958727208 0 0 0
1398 5 5.327200778126489 4.797565197202237 22.6766767197558 0 0 0
636 9 8.800304920629284 3.7300126817748525 23.028248893970456 0 0 0
673 6 8.10979820780352 4.962511687405685 22.811437524494927 0 0 0
719 4 6.543220145322939 4.847840303403353 23.73597152363685 0 0 0
146 8 8.603116021152287 6.293223264268906 23.934768292802886 0 0 0
668 8 8.184567310469026 4.476496874265187 23.969898925248167 0 0 0
122 6 11.199859673847183 6.023937780748092 19.57099397569296 0 0 0
657 6 9.320541148975547 4.97595952054605 23.480811460817 0 0 0
1342 3 9.423561078153936 7.517030510991433 23.40701608556907 0 0 0
108 1 9.62685475287155 6.271477258779562 22.668962848846732 0 0 0
554 1 9.677891657076088 5.1693272333807325 19.90734183654695 0 0 0
100 9 12.93624072549615 5.941987341078089 21.162259991714045 0 0 0
105 1 11.363408000355557 6.100519638878618 21.25062923983042 0 0 0
117 6 11.46690298237205 7.236228936598953 22.283596808685807 0 0 0
92 9 12.414137833596849 6.637414953491078 21.863289012211244 0 0 0
104 1 11.298596898460495 4.495383282013367 20.23279496299893 0 0 0
211 6 12.41499516012843 6.990554130083385 20.587395544620936 0 0 0
1344 5 10.546676605702254 7.6778776512994495 23.68180295846143 0 0 0
1343 3 10.222041547400597 8.024548140197487 22.506610600311497 0 0 0
11 9 13.957558208586272 4.430070476582724 21.119708990606494 0 0 0
113 6 15.04182996590422 4.080759929773009 21.59472844250586 0 0 0
2 9 16.3599411258408 4.7905906573411805 19.60793422445832 0 0 0
121 6 16.910151641595448 5.872625189242233 19.622958796661912 0 0 0
395 6 17.479616636230464 7.979674498129549 19.874239813024168 0 0 0
362 9 17.568331740029084 8.023644135240293 21.17293699837385 0 0 0
14 1 19.68297690487915 4.261180383880912 20.053188816442354 0 0 0
403 6 20.19284342805273 7.780954938345659 24.319535323101025 0 0 0
1494 5 23.647730267953396 7.967615950655548 24.293437871912193 0 0 0
138 6 7.90570638666658 11.484372717983176 19.94796654434666 0 0 0
644 1 5.990569618659724 11.09974850666258 19.835600667577715 0 0 0
216 6 5.58483855279554 11.378372182042789 21.271564728797024 1 0 0
195 1 5.974139044478928 11.517192815973937 22.735649938966404 0 0 0
751 6 8.011769441109445 10.620293785167222 22.785401725980375 0 0 0
874 3 7.04373938464193 10.701452668996815 23.973822677851317 0 0 0
269 4 9.165919960476668 9.036674819074596 22.777751197928247 0 0 0
227 6 7.806636638540905 11.872188820222146 23.614429838533564 0 0 0
236 8 5.6070318920648035 11.880605214937514 24.214484544687483 1 0 0
237 4 25.583750991475124 13.217994898149412 24.25307925651281 -1 0 0
101 9 9.06248367027264 11.453726900808107 20.283610044603165 0 0 0
478 6 13.940207272849378 12.059473806220947 19.527664862847807 0 0 0
474 6 12.628070052344363 11.332005401386247 19.68452999550875 0 0 0
231 6 9.132355866618134 11.668908093894913 21.91209795135922 0 0 0
207 6 9.26204177906579 11.885808665367986 23.593953853623987 0 0 0
453 9 11.537419977495098 11.784270619002342 20.35007454242114 0 0 0
486 6 10.829106138808351 11.233694281166352 21.956716270644378 0 0 0
528 3 12.545141461186507 12.6644076463027 19.895818108163528 0 0 0
125 6 10.801899188456744 8.980919301795954 23.625570063025997 0 0 0
232 6 10.356348308093253 11.480424824266832 20.931945305359598 0 0 0
199 1 10.42313287814231 9.506605899398451 22.30630836667847 0 0 0
223 6 11.654917799630029 10.744406767499902 23.117222236288328 0 0 0
465 1 12.98591677274303 11.791971437952814 23.444073471688178 0 0 0
203 6 9.493939099382704 10.365425760173151 21.679119439461346 0 0 0
497 6 14.078046905051274 10.679689049478348 19.83206610580873 0 0 0
1102 3 13.833376441229952 13.096044309413783 23.265720055703543 0 0 0
1657 3 14.886113343819709 11.874321901426056 21.857545505279298 0 0 0
392 6 16.847442920085083 9.461611365888539 19.560386540075296 0 0 0
387 6 17.88055832112641 9.18807474101016 20.7369004157413 0 0 0
460 9 14.521042025249201 11.632541624952115 20.687242429706746 0 0 0
493 6 16.211187370986394 12.883243168706148 23.25015406424965 0 0 0
477 6 14.71685595555343 11.886716834049222 23.255476999296413 0 0 0
473 6 18.090894667489447 8.897447542790008 21.96465495742745 0 0 0
488 8 17.554239659421093 11.998872855957934 23.504583948683496 0 0 0
776 8 18.21481812708393 10.47856729449517 22.905934706839975 0 0 0
1658 3 15.936484921446056 11.475939289954004 23.248969083440837 0 0 0
1659 5 15.916544507478879 12.24311740660867 22.17365446739793 0 0 0
374 1 18.56378799598584 10.401842625776318 19.965007844142175 0 0 0
501 6 15.080020576602566 13.164280363091825 22.47439942546034 0 0 0
539 4 15.10316338078851 13.246607655004356 23.991141004129755 0 0 0
481 6 18.715285224889993 10.12680291317653 21.434874247152745 0 0 0
1553 3 19.09330115796653 9.055476665660954 22.851693468177025 0 0 0
756 6 18.954837664183398 12.00556648174727 19.38081715297027 0 0 0
456 9 19.0851070297869 9.98339805688323 23.66601017875205 0 0 0
777 4 19.03757688725695 11.527531636546644 23.850811986970218 0 0 0
1481 3 20.24718225812485 9.554793386524958 23.858060859796236 0 0 0
654 6 23.60163722155808 10.384316433476764 19.129503853164113 -1 0 0
1154 3 23.504411810514064 12.270734767957789 23.59204514027218 0 0 0
665 6 24.933819225883187 10.843293533175745 19.528035437576307 0 0 0
758 8 23.8777137209175 11.079443861223208 23.66754678380135 0 0 0
632 9 23.980136102146005 11.131857461517807 20.234312894823685 -1 0 0
743 6 23.477488316657873 11.223587527356543 21.292354321856013 -1 0 0
763 6 24.926702961076646 11.965103033486841 23.15510071561315 0 0 0
726 9 23.87677125785118 11.608990638285071 22.39364442001743 0 0 0
618 3 13.73950595116124 16.651908352360934 19.450223649868903 0 -1 0
317 6 10.04988838400619 17.399073296347293 19.646580320481263 0 -1 0
485 6 13.828129262581962 17.53344627774917 22.178102923901967 0 0 0
509 4 13.086397890522731 15.490012846475983 19.804034861402823 0 0 0
464 1 13.437281187142943 16.619663532823672 20.86948608163425 0 0 0
596 8 13.011465499441256 16.79242261154809 23.088628158661816 0 -1 0
301 6 14.00149109783018 16.013884433090695 22.2990072288203 0 0 0
1999 3 13.857451291061654 15.936140050949154 23.862959423091638 0 -1 0
1501 3 14.607589442059982 16.9323911190799 23.238317295616664 0 0 0
738 1 14.409463256146642 14.611934973659332 23.158645472656307 0 0 0
592 6 19.784156509881704 16.895640967434275 20.461254774347637 0 0 0
559 1 20.041093434982756 17.490444975393995 21.8910573530544 0 -1 0
735 1 22.243339898596123 16.277098823835118 20.28603747914672 0 0 0
767 6 23.180810824167196 15.230506319458888 20.971215273510474 0 0 0
722 9 22.781643792454943 15.884325602831398 22.1297411333433 0 0 0
755 6 21.928996791311054 16.634218795331442 21.758576985937324 0 0 0
730 9 23.717385003137288 15.467552352901084 22.198345496465503 0 0 0
739 1 23.387467039548067 16.840859258836954 21.24808995423761 0 0 0
734 1 24.185440294563247 17.175939356569213 19.448003284633355 0 0 0
771 6 24.97639844827171 15.651241084170191 19.65950065114311 0 0 0
19 1 25.680627331379064 17.228341139603554 20.13555575702395 0 -1 0
245 5 24.43635793916534 13.339374841189699 23.661181682489907 0 0 0
1000 3 3.609503825378113 2.0573824172959756 24.393714048607876 0 0 0
297 6 3.641156333786409 0.5218528011399457 25.029891418976646 0 0 0
606 3 2.721270661527408 3.3393606982324227 24.381454088468686 0 0 0
326 8 2.122442505845532 1.4738423721287641 24.951270179002535 1 0 0
308 8 2.2393197841257577 -0.09830178353922109 25.908722945822536 0 1 0
327 4 0.6295447922431168 0.11316764492479531 25.73299648898158 0 1 0
1502 3 8.262009392386439 -0.26448972366369183 28.673828131259597 0 1 0
550 9 12.125526052052692 0.9621887430452754 25.13337656326147 0 0 0
583 6 12.002317507142202 -0.34627971987225786 24.816895231740236 0 0 0
2000 3 9.702289844885827 0.1378270751344638 27.751440039472993 0 0 0
56 8 12.753223982620398 1.5381016122450863 26.27342735255524 0 0 0
65 5 13.386351493180952 2.0024354523052206 27.427296977118807 0 0 0
1777 3 10.383121086502257 -0.1505186966530691 28.69097212948426 0 0 0
1778 3 12.123091209921919 0.14252933126769385 26.302452795103196 0 0 0
1779 5 10.001008146525468 1.0042250520737936 28.737464848532497 0 0 0
830 3 13.238215363521231 2.8988510116350383 26.510859492977566 0 0 0
546 9 11.94388557643015 0.10304941623544994 28.352131900616783 0 1 0
629 4 19.037042103264152 17.858502575560735 27.340737891749484 0 0 0
829 3 14.018321977055578 1.5484989163930805 26.444495505268343 0 0 0
1486 3 14.46941432392398 2.632956497828965 27.19525645071812 0 0 0
10 9 17.046913572373906 0.010851205782784257 25.173194817825948 0 0 0
128 8 16.570572027512142 2.7560410135653255 24.428043032975395 0 0 0
47 6 17.337960972103993 1.4804672485177415 24.760151831642144 0 0 0
51 6 18.345131308141923 0.5674107178279837 25.36978696515781 0 0 0
1523 3 16.614834970921883 1.066043305112732 25.77204908566434 0 0 0
335 5 16.811205419563304 1.6280455406630203 26.751788271825546 0 0 0
336 3 15.594872451348666 1.625369853511455 26.379746172386717 0 0 0
337 3 16.10881465438718 2.6161346239985104 27.261534286773557 0 0 0
1488 5 15.307283783281774 1.724070107828183 27.60623114206896 0 0 0
1524 5 17.6464179615702 2.7967722945665994 24.753505466380886 0 0 0
1598 3 15.244646276900506 2.8572315525696452 28.307785001022516 0 0 0
986 3 17.04977908399644 2.4356159256870122 25.773279508614984 0 0 0
989 3 15.535986541353905 3.770621919602961 24.89274819974241 0 0 0
305 6 21.829512239091937 2.964474572334991 24.97154037745636 0 0 0
449 4 21.14719161732932 1.6173743773867484 25.075962153562976 0 0 0
1002 5 20.46935129779072 2.1285797701512887 24.583414315693563 -1 0 0
1001 3 19.861579126444735 0.6751590217250231 25.328859453399716 -1 0 0
1464 5 3.698571524530868 7.124184476961659 26.07567096079 0 0 0
859 3 3.2607225920124963 6.429826322724519 25.52963669633851 1 0 0
1493 3 4.14685693632337 5.30722977508667 24.775475137160765 1 0 0
1564 3 8.206156853903975 8.45171496857046 24.091692821941443 0 0 0
861 5 4.604531434340413 5.192142261247605 26.67786258666116 1 0 0
860 3 4.790569853874925 5.875892137565604 25.998889804620372 1 0 0
1816 3 7.235480308303362 5.816405012146186 24.95570922160666 0 0 0
1387 3 6.3209760827767605 6.050231382999568 25.97286976322293 0 0 0
1480 3 5.776213817186378 6.235739795691974 27.277700346322366 1 0 0
1101 5 8.42283173699135 7.541437209950916 28.072064449187614 0 0 0
1205 3 6.4597777057770775 6.143787190744404 28.486649613432856 0 0 0
953 3 7.322403657291241 8.431323059997554 27.96394349732515 0 0 0
1216 3 8.52529991231082 8.33413802622426 27.106378723631227 0 0 0
1442 3 8.579910589034778 8.460637971775357 28.609450369907428 0 0 0
831 5 13.386573967034517 5.1110302906616365 25.008048108740276 0 0 0
147 4 13.27520300054169 4.16574695393716 25.889846622391236 0 0 0
990 5 13.62573560974937 6.355410887544117 26.761250583737773 0 0 0
1625 3 13.721436617511797 5.415093279729425 26.084827036995286 0 0 0
1626 5 14.11452570674502 4.235062487637291 26.632041886996866 0 0 0
1003 3 13.858775932694888 6.050137451035085 28.048068341324857 0 0 0
1594 3 12.376947099255709 5.299625409734512 25.894979281598083 0 0 0
1595 3 13.375369427349266 5.191457291342694 26.948204913323288 0 0 0
1596 5 12.599481490640141 4.4132891193318375 26.78147805491299 0 0 0
681 6 9.677395515268065 8.424635857824653 24.12687919217357 0 0 0
133 6 17.068231290951044 3.78309969271918 25.23407304351278 0 0 0
1624 3 14.59763400976399 4.670380711058012 25.40044103088971 0 0 0
988 3 14.771933735033942 5.725085461208568 26.885419260458644 0 0 0
1005 5 14.347180521180253 7.2928980633474465 28.629768518405413 0 0 0
375 1 18.808965968068293 7.4496702125236585 25.080526237209938 0 0 0
179 4 17.17461136066297 4.775743981941117 27.43100157749327 0 0 0
416 8 16.904924997297687 5.227283629466665 25.864131947118555 0 0 0
417 4 18.285477345691376 6.0622374903177825 25.496192482122108 0 0 0
425 5 17.553188405586106 7.097623366620927 27.250568453810708 0 0 0
426 3 17.354469314996187 6.408538211794077 26.373896051332558 0 0 0
985 3 16.42804307415988 6.3056354182389684 27.434254125744 0 0 0
987 5 17.37317154284479 5.8701541651848155 28.08716960922508 0 0 0
427 3 18.692139123415878 6.931417321332911 26.601497001078705 0 0 0
1552 3 17.760557947638866 5.936725885071668 27.042938708859975 0 0 0
1554 5 18.165923994061703 5.17269253553851 26.41881686342993 0 0 0
991 3 16.38300914849182 5.188361077041597 28.71260586234011 0 0 0
992 3 15.097108508274228 6.398323038679253 28.598943667724203 0 0 0
383 6 22.315340043731624 4.360807806047041 24.70762862471242 0 0 0
686 8 22.488227525579298 5.683513095427623 24.93153169110197 0 0 0
366 9 21.14058007403735 5.438255938094773 24.513909277249155 0 0 0
1522 3 20.14869181289132 6.393136956699055 24.57521999949844 0 0 0
398 8 21.45971575001456 6.706001152403646 24.758228106634604 0 0 0
1397 3 22.058405409395757 8.276458816888407 24.32878675426192 -1 0 0
1492 3 23.08575008465279 7.389509897855486 24.847283926109448 0 0 0
697 3 18.9877542330915 8.733138106068967 24.231647445952316 0 0 0
1566 5 8.652231260428431 9.264458569787486 25.73404702376671 0 0 0
898 3 9.203518156912759 9.689209558575447 26.863531784410597 0 0 0
1099 3 7.692919912765868 9.480347292413304 26.48723637640754 0 0 0
1100 3 8.504483977171544 10.469889250458213 25.78001187447953 0 0 0
875 3 7.523996553293555 9.645923416683033 24.888122681535645 0 0 0
876 5 6.636841978751027 9.164645248410885 24.89813766610068 0 0 0
515 5 8.19513353853686 10.45987438156158 27.08593241956714 0 0 0
516 3 8.259610855363265 9.606876706055012 27.890427468324077 0 0 0
190 9 8.468663956535856 11.769981938915665 24.715810192920824 0 0 0
900 5 9.332987387534866 8.845349512349548 27.956308755986818 0 0 0
1565 3 9.56330830056529 11.250952546437093 25.05652712677165 0 0 0
899 3 11.15955510395319 10.243684042765505 24.594697592406305 0 0 0
506 8 10.615791423493196 11.789713643378258 24.105286269186042 0 0 0
218 8 10.08543803744743 10.243891795091809 25.758042436854712 0 0 0
186 9 10.881248537600065 11.22293289600467 25.23967906672651 0 0 0
1195 3 11.950975935820708 11.422355685691649 24.45373498211022 0 0 0
1104 5 15.754956880089699 12.243763078876523 24.263561703082182 0 0 0
507 4 14.01204612518823 12.337164797981664 24.418289787452743 0 0 0
1673 3 18.328636308466077 13.130319224457182 24.331382540900115 0 0 0
687 4 22.30652236132217 11.378265667436164 24.208029727719367 0 0 0
695 5 22.701670251291187 9.840691015835004 24.736117684654058 0 0 0
696 3 21.86331987497867 9.727252453358457 24.23801850987813 0 0 0
809 4 22.408853068510112 12.905077655781986 24.970499394552192 0 0 0
1155 5 21.34346829365774 12.20447701998424 24.614799438727797 0 0 0
787 3 20.010234088766286 12.539020708760408 24.76639228807372 0 0 0
1153 3 20.69843145377489 11.087552125628546 24.25668334423246 0 0 0
890 3 21.115007800191 13.291817282530644 25.693177107478956 0 0 0
889 3 20.843006768263702 13.266531748940674 28.656039309200104 0 0 0
1482 5 23.686118517493004 11.843165787011227 24.88702180218288 0 0 0
247 3 24.705051508410193 12.334931424461576 24.531386962230503 0 0 0
1390 3 8.306041096512162 16.04684503283781 27.888765972573754 0 0 0
1392 5 8.748556947765845 15.253816542315516 27.542123252343583 0 0 0
38 8 7.518231611963362 16.761660126984516 26.632314041423225 1 0 0
1867 3 6.772522171830451 14.924263634827375 28.102265276123237 1 -1 0
901 3 9.159628829012176 17.19574433608751 26.73671896683837 0 -1 0
1056 5 7.2337368728093026 13.762960704559756 28.752853611889932 0 0 0
2001 5 14.064284286009832 17.389815051704353 26.501801727827008 0 -1 0
276 9 12.607653019281345 16.387330835403436 24.195322073317694 0 0 0
597 4 13.13837815241749 17.385661273799272 24.716401273575073 0 -1 0
1642 3 11.475301855246864 17.734445491187106 26.559132862043555 0 0 0
1391 3 11.363225108634392 17.031078047235397 28.01499565245484 0 0 0
1643 3 13.032772686974717 17.494439710760016 27.683469414136134 0 0 0
1644 5 9.432817180120047 16.541890722987183 26.088075387578375 0 0 0
1856 3 9.835809429589075 16.520426605152483 28.203655306497346 1 0 0
1028 3 13.10960520147519 17.469322238713893 26.198834699967467 0 -1 0
1174 3 6.6404926597641065 -0.41382312693144707 28.52467379578369 0 1 0
1674 5 17.546782987566072 13.705927116376378 24.12869746782672 0 0 0
1503 5 16.191601522798894 17.394092929304456 27.98369187935681 0 0 0
785 5 18.2554442478987 15.531303672821048 25.29161251662101 0 0 0
786 3 19.125786629206708 15.533058738232343 25.661607747684684 0 0 0
578 8 19.36285818599529 16.918010182077925 25.86813906360972 0 0 0
1103 3 19.006137082130525 14.193588982339046 24.97587569951925 0 0 0
1436 3 21.095625836979256 13.730448418479961 27.208669930478557 0 0 0
563 6 20.02215195521371 14.49777491476227 26.322500545910184 0 0 0
1435 3 21.964523460132522 13.817260448964191 28.564977463944818 0 0 0
1437 5 20.992472245707845 14.386199766855844 28.24163777067245 0 0 0
1373 3 23.596555717008886 13.940058305425675 28.55238494754348 0 0 0
1374 5 23.717257817999965 13.348998996999514 27.807836602509116 0 0 0
31 6 27.048373670396852 17.561431041451947 25.888739363491258 -1 0 0
747 6 23.839104356873598 13.22424403238096 24.892440485712733 0 0 0
43 6 24.923697938857092 17.12842199470093 24.95209194584607 0 -1 0
23 6 25.756951579854643 15.331827241791157 26.31767366588955 -1 0 0
1372 3 25.081532219585398 14.283531475001595 27.43633542985569 0 0 0
6 9 25.782587462245985 16.528713933056924 25.638025768315416 0 0 0
246 3 25.26408041065614 13.849610480319331 25.78141661107074 0 0 0
943 3 25.07369436591685 14.000380790115411 28.868504046168475 0 0 0
1855 3 26.773339552020946 16.213324466970654 26.594444733233676 0 0 0
1857 5 24.850760044491018 15.104471668092218 28.443600591381752 0 0 0
1081 3 26.042772734156028 15.125501673805397 27.81662443756561 0 -1 0
1869 5 26.049736219975742 13.742213547966777 28.178263658345855 0 0 0
1082 3 25.780547331083625 14.634079352069326 28.924352569175028 0 -1 0
1053 5 1.7656548405591945 3.1903072452953816 33.51188536402978 0 0 0
359 4 6.931518720214101 0.7205721863021305 29.662004169038553 0 1 0
1818 5 7.529845605751171 2.0068985146455125 29.769346472607413 0 0 0
1817 3 7.352967827999608 3.0391196783952754 30.138872329106142 0 0 0
1462 3 7.228932752530618 1.78260741615768 31.004893469482134 0 0 0
1027 3 6.245848513279769 2.114141767553869 29.929448497029057 0 0 0
974 3 8.501583564056242 0.8336633347308353 30.17052691715026 0 1 0
903 5 5.836988467313926 2.1993967170685274 30.99452266586433 0 0 0
1029 5 7.78255575800368 3.0651199055159277 31.414200155861725 0 0 0
1463 3 6.6560002726107665 2.8481954212130485 31.451264361522707 0 0 0
975 5 8.714204376117154 0.6169540789957424 31.092615476541695 0 1 0
1933 3 5.913976289256569 3.4313865652682183 30.410663944119364 0 0 0
1935 5 5.851092020457525 3.809436859191617 31.633889781575256 0 0 0
1369 3 11.37360660977428 0.3467200846247044 29.314903986022 0 1 0
973 3 9.748143217932645 -0.035685111123772095 29.313802204459016 0 0 0
1264 3 10.189435171100545 0.9234268367589313 29.99617515600515 0 0 0
1265 3 11.221986476934847 0.3459367337669138 31.012605383925326 0 0 0
1546 3 12.862370279834755 0.956730462863975 32.83628083223702 0 0 0
1548 5 10.566386894515835 1.600241949725254 33.41225198637453 0 0 0
1669 3 11.554881660436713 0.47510049059223625 32.28899458755214 0 0 0
1162 3 13.859597621539017 2.035745392726254 32.93687565947111 0 0 0
1959 5 14.05316936046151 1.8050562694855894 31.908272054538873 0 0 0
1599 5 16.264262075742476 2.4667365073243315 29.062579879860728 0 0 0
982 3 14.85630857302591 -0.24243208596376098 31.598676688870796 0 0 0
984 5 14.923328594164165 1.888836813579735 33.06160012305338 0 0 0
1831 3 15.085670373438624 2.5981183025474315 32.078247272885534 0 0 0
1833 5 17.468868626539752 2.335381448388536 31.953823419000383 0 0 0
1957 3 15.298010210653729 1.2898596238108966 31.943414661218174 0 0 0
1958 3 16.37855944239708 2.3524826410581072 31.36824645497952 0 0 0
1049 3 16.435900448613545 3.1555059988067504 32.627122464512894 0 0 0
1885 3 17.84282826023576 3.2418215090064813 32.48432895199191 0 0 0
1886 3 17.377634358554158 3.4748312481169235 31.587418431685435 0 0 0
1094 3 16.777284543236142 3.085100704600612 30.042515374237468 0 0 0
1095 5 15.520067976578144 2.7567732803519847 30.555824616623077 0 0 0
1366 3 14.375256275124942 0.7784567646670949 32.71719282079248 0 0 0
1597 3 15.50155756392763 3.4298366732028613 29.57226335370081 0 0 0
1832 3 16.02133441188574 3.772098283606697 31.13165484523831 0 0 0
1048 3 18.69907216536546 3.6947182697460845 33.2534978848484 0 0 0
1784 3 2.775929368358905 5.336158430384927 33.120702079626625 0 0 0
517 3 7.608962027393289 7.084413632565937 28.88138744389967 0 0 0
1498 3 6.423006108060408 4.902757174569727 29.69468749998262 0 0 0
1934 3 7.066090764215773 4.0453595772496165 31.363185594796786 0 0 0
1389 5 6.650690038281408 4.879696803021685 32.07528650826494 0 0 0
1500 5 5.4415018383969995 5.5693743528307715 30.382259513349535 0 0 0
1206 5 6.56765565402604 6.685999836220857 31.431219624345083 0 0 0
155 5 8.30628237885703 7.938009400029241 31.43747372874221 0 0 0
156 3 7.640471146271307 7.102140054798593 31.065541229483596 0 0 0
157 3 6.319465672071381 5.511383394167351 31.09423459506875 0 0 0
1388 3 6.037718325697669 4.758770574475979 30.98029184934455 0 0 0
1891 3 8.059280930860393 6.9909996033458 32.59549657424317 0 0 0
1204 3 6.678549329910276 6.465184079891542 30.14429508262239 0 0 0
1217 3 7.488850264205128 5.75062827801597 31.575647593725794 0 0 0
1441 3 8.970739959911684 6.754794578093884 31.431724479375752 0 0 0
1892 3 8.100386561404656 7.366411666618302 30.340686418118405 0 0 0
1732 3 8.949358931164278 7.345821403541333 33.51360684628747 0 0 0
1218 5 6.963753786286602 7.74182175522508 30.14244116206724 0 0 0
1443 5 8.86196897292667 7.565195536449699 29.334721226835793 0 0 0
952 3 7.911984365085729 8.215702539687097 29.398676653387326 0 0 0
1893 5 9.350996618947404 6.3423746528737555 33.043585451281004 0 0 0
1298 3 9.696910820284826 7.450636306457021 32.39195421331503 0 0 0
1117 3 11.231505371324138 6.777504983914283 31.9430006358474 0 0 0
1299 5 11.607443600130113 7.923532308089894 31.492353203543395 0 0 0
1414 3 12.624757467195577 6.990927024547703 32.17798838063232 0 0 0
1525 3 12.389649571101614 7.1035584283420175 30.735979400356403 0 0 0
1004 3 13.899515690678534 6.6074308234555765 29.593548759913453 0 0 0
1118 3 11.579706545300867 7.7840242790058385 32.77686138474161 0 0 0
1527 5 13.106089469085543 7.690634481039319 30.081856870821415 0 0 0
1119 5 11.863657781416885 6.594544448069252 32.998790756630825 0 0 0
1297 3 10.60840208883594 6.979458992674542 33.50095214724948 0 0 0
1383 5 13.579124684968354 7.650016122096129 32.49462538621252 0 0 0
1415 3 13.754156428617376 7.473153095649322 31.24814546605841 0 0 0
1526 3 12.731675783101137 8.314630010747054 31.634001612884333 0 0 0
1734 5 9.892464420899477 8.11054966857973 33.58311077153475 0 0 0
1416 5 13.54275585475856 6.46152441062765 30.77901658759845 0 0 0
1197 5 13.930910655242664 8.758545375977816 31.04360900247786 0 0 0
1093 3 16.583339515733428 3.666687454339332 28.695892959861858 0 0 0
1381 3 14.14143003388705 7.524548080446762 30.539501097902093 0 0 0
1887 5 18.253768144352374 4.219311376107368 32.01364111366351 0 0 0
841 3 17.431135911534174 4.478330486825396 32.981235684183574 0 0 0
843 5 16.83103389024045 4.303651899999533 32.05385685091443 0 0 0
993 5 16.30650881885927 4.29361296901487 29.92419480296622 0 0 0
1219 3 15.164143115207354 7.2139527606395095 29.74246302392561 0 0 0
1221 5 15.114003869238584 7.343810537577396 31.27114164972788 0 0 0
1098 5 16.808786095703663 8.624773067283765 31.043052002827878 0 0 0
1220 3 15.292809353006975 8.415037965672362 30.685341101358393 0 0 0
1196 3 14.44980161190007 8.181418199129062 31.864119530935888 0 0 0
1309 3 15.807862603397577 8.681662564747608 32.0409515410425 0 0 0
1404 5 22.30707214234953 4.7468550904117555 32.747826506487726 -1 0 0
929 3 22.97856540561866 6.658202904555676 32.59072025526896 0 0 0
1412 3 22.503046903385947 7.978744718231538 33.0581214757419 0 0 0
1962 5 22.10802928716298 8.350672325793921 34.07917176367185 0 0 0
1905 5 22.13137230232466 7.0888009777235 33.62472885865233 0 0 0
1413 5 23.39449239382006 8.012965732889533 32.30508469643607 0 0 0
954 5 7.759372512438113 9.292893883139783 28.979051390938032 0 0 0
1468 3 8.261155683967935 12.478018692105044 31.234628409041964 0 0 0
1470 5 7.3956204247060535 12.64380266881598 31.94036988885854 0 0 0
1242 5 9.04691605122499 11.740438197965123 31.53120983813345 0 0 0
1469 3 8.450797734586285 12.012990835962407 32.530565742846804 0 0 0
1308 5 8.928410311062658 13.043196446029143 30.685400839630468 0 0 0
1509 5 7.393265481403331 12.43601982199351 30.261954550777922 0 0 0
892 3 8.251106441571043 13.562748482054406 32.06003493433715 0 0 0
1507 3 7.476430382144468 13.226861652219574 30.73433832340847 0 0 0
1241 3 8.965827737093893 13.165694961931084 33.236876164184366 0 0 0
1306 3 9.51198892045053 12.787025716825733 31.850419919663054 0 0 0
1380 5 9.717582033837122 12.189478978482295 32.89384236498438 0 0 0
1837 3 13.22291606954211 13.155402783251267 33.397297938612496 0 0 0
1240 3 10.410416785168477 13.354570737396918 33.082814908581426 0 0 0
1839 5 13.649806919570796 11.83074160380173 33.26998419723839 0 0 0
1311 5 14.556322445913768 11.842594000724398 31.99020646903846 0 0 0
1838 3 14.236418965489971 12.583103875069613 32.67040834236491 0 0 0
1378 3 14.873833931321744 11.28376057003246 33.11887167182442 0 0 0
1651 3 17.610374634215983 9.82581351155836 31.299962588017983 0 0 0
1652 3 17.92225661258993 9.57322678178763 32.98976320893762 0 0 0
1310 3 14.878194309162431 10.006436817360047 32.20292412771946 0 0 0
1096 3 17.04582659572126 8.986553815265035 32.164771835547825 0 0 0
1382 3 16.283183325059355 9.778018304366864 31.171325059939342 0 0 0
1630 3 15.588501324368227 12.582698258678029 32.52940487408597 0 0 0
1631 3 15.719914071636962 11.26441991559405 31.91742083128244 0 0 0
1632 5 16.64220004754167 9.921282669171658 32.42865732872844 0 0 0
1653 5 18.234956596824137 8.930918145111127 31.893324260383665 0 0 0
1665 5 14.626248845342202 13.544747780386754 32.83913567791893 0 0 0
1664 3 16.903428351191614 13.377518526822683 33.10048041432381 0 0 0
1909 3 18.424741814797724 13.170038308746289 33.023239314125064 0 0 0
1821 5 16.513785902167776 12.144409689798326 33.667152880851575 0 0 0
1663 3 15.398365980944952 13.570261805596477 33.788843573126755 0 0 0
1097 3 19.05931923402125 9.956071115818292 31.91776764297841 0 0 0
944 3 22.960765550126958 13.162479696792559 29.716827261847847 0 0 0
891 5 20.681297111155178 11.284509496622412 29.073429887662854 0 0 0
1645 3 18.745879958627636 10.47456281819978 30.61945982869844 0 0 0
1647 5 18.954162632315132 11.597738794739263 29.995870905553986 0 0 0
1646 3 20.044076943220073 12.277076309471175 29.645785706613204 0 0 0
1714 3 22.162779674670727 11.305369166924915 31.640758991169776 0 0 0
1798 3 19.6999293661884 11.48518140087524 31.046031391231597 0 0 0
1799 3 19.864301010237607 10.985710817973189 29.819901898038523 0 0 0
1800 5 20.02359448364439 10.244806557422432 30.53178088043069 0 0 0
1930 3 21.62835878944445 12.226406783214706 29.38277914557377 0 0 0
1931 3 21.081686454919325 11.149156031741544 30.255427926545728 0 0 0
1946 3 19.279736032344708 12.633973157357971 32.11708606301101 0 0 0
1106 3 21.57090722057832 9.117072182944781 33.04360385970233 0 0 0
1226 3 20.60620815665039 12.665791806746716 32.56309993895401 0 0 0
1261 3 22.278333942124547 12.722674619791212 31.871292669853663 0 0 0
1715 3 22.33727473831833 9.816434004052345 31.96241830239794 0 0 0
1960 3 21.97908957238803 10.572651870364526 33.19794521836948 0 0 0
1716 5 22.196780388094947 8.579659028437481 31.942477377005133 0 0 0
1307 3 23.033293362990126 8.981078310602081 32.65033769279603 -1 0 0
1932 5 21.655515057562027 13.434961280625856 29.751863714355224 0 0 0
1262 3 21.44579350893785 13.797264502921916 32.12486409818619 0 0 0
1945 3 19.590919631497584 12.58903638778613 33.66043793501147 0 0 0
1225 3 19.25132065508224 9.858686142092372 33.635414428924946 0 0 0
945 5 23.648384945104855 12.530131129792391 29.88903658148317 0 0 0
894 5 7.990513949219206 14.326920884561655 32.50664109012408 0 0 0
89 4 7.368369286293838 15.179269647236746 29.323708657091586 1 0 0
1054 3 8.122609906873466 13.995598614384944 29.675041533151827 0 0 0
1619 3 6.611749940719963 14.08756004836693 29.77524448225262 0 -1 0
1508 3 8.682359459515824 14.337677405995983 30.911565890908957 0 0 0
1620 5 6.426562897999124 14.248783303069319 30.715792907566687 0 -1 0
1868 3 26.876899339838133 14.087854360583437 28.964399260907204 0 0 0
902 3 9.215438050163515 15.59757752030761 29.474909818077784 0 -1 0
1175 3 13.259568077247007 17.247635673759227 29.1599172593236 0 -1 0
1253 3 12.521273063807671 16.607587827930022 30.108154550830466 0 -1 0
1618 3 10.989035886861418 16.339929470945375 29.559961768210343 0 -1 0
1176 5 11.697095948337537 15.628055332931112 30.487675789268646 0 -1 0
1254 5 12.109789724923141 17.51431695170502 31.24574432055466 0 -1 0
893 3 11.412365627109054 15.112187991826115 31.816207494094176 0 0 0
1055 3 10.366408741511968 15.490180182112656 30.71642600673242 0 0 0
1252 3 11.644021765712194 16.644822900334713 31.33192557671688 0 0 0
1888 3 11.83550127576709 14.227273247152302 32.95707846705652 0 0 0
1890 5 12.894518812626183 15.408768196269857 32.272639164907545 0 0 0
1889 3 12.676966281275126 15.869313022027733 31.423091170993466 0 0 0
1266 5 10.560873587984736 -0.41629680952339054 29.984741537341275 0 0 0
1911 5 17.860059284729868 14.10381124118799 33.620175141511126 0 0 0
885 5 14.89818509378083 -0.4581041014367322 32.793038678585944 0 1 0
1947 5 19.72139185367857 13.563981268693674 32.91535198306856 0 0 0
959 3 22.866453113648742 13.96772592199581 31.08639308266241 0 0 0
883 3 21.43315130360196 17.731680134050205 32.44051027008312 0 -1 0
1656 5 23.10770826164422 16.924016400627213 31.382722251788707 0 0 0
1671 5 21.509404034544907 15.70086017249752 30.849763443102862 0 -1 0
1670 3 21.907013920122843 16.835154794459008 31.045106984249642 0 0 0
1370 3 22.736222038127515 14.703235154549139 29.930130767888578 0 0 0
1744 3 21.49912488363813 15.86477015138182 32.13945673792439 0 0 0
1745 3 22.713102552554957 15.741367994125621 31.068962303180687 0 0 0
1746 5 22.812119164931982 15.780892689906587 32.250918733725186 0 0 0
1654 3 22.35002691006548 14.95860414237165 31.50500005222534 0 0 0
1655 3 22.565691515131007 16.833622369964495 32.42443416704904 0 0 0
1263 5 22.632141847827974 14.040411179818697 32.26725546482488 0 0 0
960 5 26.032620160886882 13.637203532055244 29.60447050566418 0 0 0
1083 5 26.70608751905509 15.138535708504262 29.41458708407432 0 -1 0
1371 5 23.536921228635205 15.021791317939428 31.002627381246484 0 0 0
958 3 24.285002703553737 14.181779186292529 29.82919718018502 0 0 0
979 3 3.9579111132410416 2.501832543910779 37.01011206605965 0 0 0
1046 3 1.6478957191782255 1.4562610576390163 36.22381457637225 0 0 0
1047 5 2.2456396354566985 2.4539403505974646 37.219242352544455 0 0 0
1228 3 1.9473920485841179 0.887997062815218 37.61381618467806 0 0 0
1230 5 3.350063731322095 0.14297139238658696 37.33957978797554 0 0 0
1790 3 3.0980337225116816 2.2694858903219126 35.703608065190764 0 0 0
1862 3 4.260663402327961 1.0976199042482884 37.4765297560179 0 0 0
1229 3 3.1887934920485352 1.095109812492674 36.74771357535393 0 1 0
1810 3 3.00302875808143 0.5321422838587552 38.40215142918595 0 1 0
1789 3 3.570851544099005 3.8098120086009564 37.962605782557716 0 0 0
1052 3 2.5888014300217588 3.4847239505519143 34.5834081903907 0 0 0
1766 3 3.1485191437181745 3.7294975065162936 36.5346040317134 0 0 0
1448 3 8.087426134141833 0.27150399852343543 34.87732456155841 0 0 0
937 3 7.716753229954344 0.8768518879851095 36.19288650363272 0 0 0
939 5 8.164946986881064 1.4701558124312197 35.34145396495468 0 0 0
1861 3 7.396590833121346 0.23774561805044214 37.670480517591216 0 0 0
1863 5 4.9502411391575425 1.054689386440417 36.769198735386794 0 0 0
938 3 9.098400119815738 0.8604098064122171 36.000188276797005 0 0 0
1447 3 9.150282574429468 0.9138804280191396 35.119212375911275 0 0 0
1449 5 9.066837669837609 0.03202442198682465 34.11684823787411 0 0 0
1164 5 12.588677919211989 3.0890660729521615 33.69537963838616 0 0 0
1547 3 11.301544844586758 1.0196162530845805 33.61505876216863 0 0 0
1163 3 12.568046552000899 2.1627923652059344 33.7148476949871 0 0 0
1514 3 10.84708941613485 0.88788425509753 34.96227424813274 0 0 0
1367 3 12.631994348990103 0.8622119232526004 34.60622728267907 0 0 0
1368 5 11.947995769067875 1.1212376175470329 35.537350666792904 0 0 0
1513 3 11.594570188324923 2.071390767374635 34.91340594766112 0 0 0
1515 5 9.982455859612324 1.6220229090712868 35.32541235155681 0 0 0
1660 3 10.036663837410476 0.4739166281232319 34.73770754579883 0 0 0
1662 5 10.147528424953986 0.4877715720668404 35.95988939824635 0 0 0
1724 3 12.469763114016335 3.1808778473265864 37.57174885140283 0 0 0
1725 5 13.311442960094078 2.770830983072165 37.23802338742681 0 0 0
1754 3 12.766289568407196 2.373015551957118 35.42410507866795 0 0 0
1753 3 12.589575863749417 3.415122696022242 36.25027326051004 0 0 0
1577 3 13.738294734705065 0.8247918438733048 35.69423534393283 0 0 0
983 3 13.874619856992357 0.019015270551942742 34.154607729979034 0 0 0
1050 5 17.450033377313677 3.1094913929004053 33.5395489995129 0 0 0
1578 5 14.848663949444695 0.06909470483518254 35.14180233726162 0 0 0
1576 3 15.041243432635026 0.1828493218124494 36.506881153861386 0 1 0
1836 5 18.373521404062128 3.715768716210553 37.49107901551061 0 0 0
1677 5 15.146216956471141 -0.2426772368363012 37.727827748314056 0 1 0
1059 5 16.150697123348756 -0.4076766247482221 35.96467980413772 0 1 0
1340 3 16.1416392506669 -0.4401820820804825 37.12384430716831 0 1 0
1011 5 18.2908500049428 3.4783469620366065 35.35478301161858 0 0 0
1341 5 16.83822757531478 -0.4839622404430599 38.130448796623156 0 1 0
1835 3 21.57354906973684 2.070380311778883 37.437112340784495 0 0 0
1051 3 19.77432847673482 3.470047560221925 35.51414572431675 -1 0 0
1045 3 21.076596247953926 2.4248721936343243 35.938386995075305 -1 0 0
1637 3 21.67899049555309 3.257076873552674 34.590948328353875 0 0 0
1510 3 21.37048970812178 3.714166310637324 37.10871716472859 0 0 0
1767 5 3.445320137172967 6.2198703576288805 33.011770192983505 0 0 0
1499 3 2.1868751305434326 4.17440254591144 33.53179428992385 0 0 0
1765 3 2.0819977540490884 4.085063032330013 37.76609289771734 0 0 0
1791 5 3.2965080771038293 4.4019676850579925 33.86155467613632 0 0 0
1035 5 2.802371563643762 4.695971325733332 38.471519784151624 0 0 0
1903 3 2.4531007238161457 5.056505284660342 34.60296095404732 1 0 0
1688 3 7.55522109027448 7.064324674240102 35.87828655626032 0 0 0
1689 5 6.971737750597547 6.435242749292677 36.769814426329106 0 0 0
1785 5 8.197923685986044 6.619642803875161 34.12972211595812 0 0 0
1600 3 7.503366030886028 8.670464812745342 35.930318715985834 0 0 0
1601 3 6.972026948763309 7.617660242946032 37.11490828654024 0 0 0
1693 3 8.185846181459409 6.548097975554152 37.16249750237364 0 0 0
1648 3 7.089816250179423 6.4183434379949835 38.05737156666916 0 0 0
1783 3 8.209098245251726 7.79623012285354 34.718332082181206 0 0 0
1695 5 8.28407702196409 7.855419631242654 36.540083792272895 0 0 0
1429 3 9.288099106349518 6.884666118355806 35.63722927824615 0 0 0
1755 5 11.742404978101646 4.173718790851871 36.85358565819885 0 0 0
1687 3 9.645135707114154 6.990359791371598 37.29361836459594 0 0 0
1733 3 9.342398646766618 6.907119956700706 34.1000767861882 0 0 0
1431 5 10.347042759296613 6.79685742932359 34.78168626113565 0 0 0
1210 3 11.622805928886827 4.320077707691759 38.003425719551146 0 0 0
1430 3 10.299900591786388 7.929060251757593 36.238405033529304 0 0 0
1694 3 10.095817253944888 8.571000366082528 37.7733490974031 0 0 0
1007 3 9.948182227228227 7.920166291324632 34.74119288203933 0 0 0
1621 3 12.944737182631712 4.44545263338941 37.161946443826935 0 0 0
1212 5 12.30538432667911 5.340254351903809 37.86916366439391 0 0 0
1997 3 13.424759886035007 5.412636505705008 38.08818778144391 0 0 0
1743 5 15.445265933866771 3.8818538169373555 38.336822225540345 0 0 0
842 3 17.774278320243802 3.9117148189523077 34.397303501373926 0 0 0
1010 3 18.539878304924517 4.1026191424518395 36.25972727019307 0 0 0
1926 5 17.881868300256347 4.710666456557769 35.42889088830893 0 0 0
1723 3 14.206543550157365 4.193111679777162 38.141113900223786 0 0 0
1521 5 17.063543348254516 4.145511183644441 37.50280110150476 0 0 0
970 3 17.91724600468184 4.720425122666985 37.0050163504843 0 0 0
1519 3 15.888451660728645 4.779049460460327 37.734995063643865 0 0 0
1520 3 17.240587996437092 5.250756860342359 38.24299027453763 0 0 0
1998 5 14.669103132085537 4.886169711442209 37.25497782390735 0 0 0
1996 3 14.691449963438261 6.049964780675108 37.95582637992146 0 0 0
971 3 17.69441869366455 4.03855771130449 38.525069257888774 0 0 0
1402 3 22.089495865142638 5.636480332268072 33.63661509302014 -1 0 0
1904 3 23.378664574934728 6.503867650067243 34.02881379541245 0 0 0
1017 5 18.861689474853268 5.316748602029783 36.60179550679656 0 0 0
1403 3 22.105530116587296 4.207107429779132 33.720296550842534 -1 0 0
1015 3 18.893989990965313 4.793170074067265 37.8593776445647 0 0 0
1924 3 18.988186065898258 4.600057752793552 35.71733631503501 0 0 0
1638 5 19.749309765495738 4.744245073723702 34.09999086860249 0 0 0
1636 3 19.045454297874215 4.31375190129837 34.48355586589369 0 0 0
1925 3 19.893923769898638 4.45716659761866 36.80076712059524 0 0 0
1069 3 20.57645949163224 4.256198528266475 38.39942812044005 0 0 0
963 5 21.692378984362108 4.616882390725573 37.95376400684381 0 0 0
928 3 23.010910077224676 7.751627273505733 33.729007730457 0 0 0
1411 3 3.4226362216027657 7.495073078673599 33.09949133741779 0 0 0
1018 3 7.2099978547414105 9.33205241451622 37.54164086419027 0 0 0
1020 5 6.690796920771706 10.679453271709587 37.36892786616191 0 0 0
1019 3 7.3569601096962876 10.84086503194143 38.42102374138577 0 0 0
1952 3 5.977898953546992 11.273625655598947 37.99667745553121 0 0 0
1953 5 7.01373166846202 11.862121221693066 37.86366209744834 0 0 0
1457 3 7.835558804133155 10.463614444840713 37.8784362959353 0 0 0
1159 3 5.788893449398821 12.79018570143585 38.439197661349795 0 0 0
1161 5 25.449823549167892 11.73827870890805 38.27791166542784 -1 0 0
1613 3 8.844223731963528 9.820372184038964 38.19094338747284 0 0 0
1006 3 8.508167166266038 9.497006928641579 36.75220744933563 0 0 0
1347 5 8.62357853452248 10.701430066906015 38.80489096189618 0 0 0
1008 5 8.856163562545165 10.823303931299108 37.38118502355502 0 0 0
1251 5 12.515827109443087 8.828946029682406 38.12397503327345 0 0 0
1612 3 9.507396745915656 9.86979807637855 37.65040756126055 0 0 0
1345 3 9.920523840643554 10.934961004142878 38.3025685275356 0 0 0
1346 3 11.216475367369771 10.018857324097064 37.9657258914647 0 0 0
1823 3 12.381054593240636 12.568819315919647 37.05309760780918 0 0 0
1822 3 12.041274190723417 13.00395651406762 35.55911951501601 0 0 0
1270 3 12.38620033762036 11.225558397220643 37.97461726996954 0 0 0
1824 5 11.0974293638307 12.870514719410922 35.87256706713244 0 0 0
1990 3 13.413644289264479 13.375456129844075 36.25670159175482 0 0 0
1379 3 11.551132311903277 13.333304165648807 34.230288564330436 0 0 0
1250 3 12.779749530617549 9.79285468627254 38.376949668311354 0 0 0
1672 3 14.457696791958883 12.46505420321838 33.97941780935467 0 0 0
1126 3 17.670342609452593 10.47867719399285 34.04030039539619 0 0 0
1684 3 15.001160188051907 13.013500405377549 35.41791665432088 0 0 0
1685 3 17.522849819120502 11.673530381654935 34.743831665968386 0 0 0
1819 3 16.572953161291117 12.916818961504378 34.7861783783064 0 0 0
1128 5 18.23192273201128 9.3537294999158 34.17317602855606 0 0 0
1910 3 17.934300103633948 12.997529014807359 34.26072952211783 0 0 0
1686 5 18.502818699648643 13.063363759670956 35.02044029316049 0 0 0
930 5 23.665533471840405 8.631356308856109 33.52059792679401 0 0 0
1107 5 23.178549812742208 10.096731153754734 32.87678487818734 0 0 0
1105 3 22.71406425256101 9.389928894722118 33.907089499343826 0 0 0
1127 3 18.8979009969752 10.435025831087746 34.7597278318453 0 0 0
1227 5 19.807490715540933 9.622577471306995 34.81330029804825 0 0 0
934 3 20.06587084303338 10.665840392497604 35.65916462197954 0 0 0
935 3 19.864004945150512 10.392300728865038 37.14045137346915 0 0 0
936 5 20.907303194552735 9.597404708522458 37.64704437344393 0 0 0
1961 3 20.403616262683702 10.535355410477546 34.193103821121014 0 0 0
1138 3 20.29986584795831 10.164529914239054 38.454586089777806 0 0 0
1184 3 21.310766446217094 10.498189518214081 37.0760295250215 0 0 0
1722 5 22.321197723884726 10.905697665702478 37.46312976480715 0 0 0
1993 3 20.530267949903372 11.566893537641231 37.654374591298264 0 0 0
1720 3 21.711607073589523 10.568280202246477 38.38445772227293 0 0 0
1721 3 23.119470726577685 11.28591466933185 38.9032925071901 0 0 0
1994 3 21.864657116405716 11.949475692518467 38.052415119598635 0 0 0
1872 5 24.49745103056012 12.656115902186583 38.71962006330244 -1 0 0
1992 5 14.720070436112914 14.011760039520759 36.91720862667283 0 0 0
840 5 14.573630212984954 17.32426190353529 35.152269950725696 0 0 0
1875 5 15.368252330130685 16.025235663768953 36.660079603054285 0 0 0
1991 3 14.87009136625319 15.586858049125944 34.91561908091258 0 0 0
838 3 16.447043041763262 15.733657594795993 34.66316029229469 0 0 0
839 3 15.489896365857328 17.11094463636748 34.888345132197514 0 0 0
1030 3 15.845864000272464 14.480761675852936 35.479592097156896 0 0 0
1031 3 16.832612656270285 14.306839705592441 34.23954896764971 0 0 0
1032 5 16.641948071718026 14.498799595617946 35.99861253454313 0 0 0
1558 3 8.066297968641058 -0.5751014140501811 36.39719721701012 0 1 0
1559 3 15.9438951960962 16.298460102376822 35.96462362422092 0 0 0
1560 5 17.354160755160716 16.03743706100012 34.65384850541709 0 0 0
1820 3 14.414250648741252 14.449179159556449 36.07942207571881 0 0 0
1661 3 17.09043068471466 17.717562267887683 35.157547421694716 0 0 0
1009 3 13.914850306152386 -0.588031905070092 35.74861803457779 0 0 0
884 3 22.674706287500737 17.091168300530473 36.9915616853271 0 0 0
1058 3 23.04265037759323 17.22984547755213 35.58276940504432 0 0 0
948 5 23.085447265080422 16.133617169543115 36.09563245665579 0 0 0
946 3 24.967118866937707 15.415759584226661 36.91390428722923 0 0 0
1675 3 23.594880129086437 15.926091384073354 37.23972432671644 0 0 0
1676 3 23.690053795794423 17.06779334078661 38.18375320908365 0 -1 0
1995 5 24.503036180459635 15.867440863301095 38.02123750646011 0 0 0
1057 3 24.118428338853963 16.7117699660742 36.26661626141494 0 0 0
1339 3 25.049303401751416 16.866116548694805 37.50834206093174 0 0 0
1691 3 25.76064578653926 15.465155725586113 38.32540259114178 -1 0 0
1812 5 1.7297747125124443 0.11175088007350942 38.4435418871133 0 1 0
1834 3 1.3383731209270144 1.3022582080124998 38.826019004354976 0 0 0
981 5 4.00171870710692 1.4377235513241202 39.19730991582523 0 0 0
962 3 2.6127620940933456 3.7037303983282612 39.25691179319581 1 0 0
1811 3 2.142487205471266 0.419808726152767 39.50460220831327 1 0 0
1108 3 3.976994670738617 3.5039148471225894 40.32000621611337 0 0 0
1109 3 0.9133184446300486 0.6755418930158518 40.316453622138596 0 0 0
1506 5 20.88388926647009 0.21560795173698122 41.284301496486705 -1 0 0
1634 3 0.9165532790742246 1.1503973031455534 41.84654628105109 0 0 0
1633 3 0.565750520895752 -0.2792852386151989 42.537323426730495 0 1 0
1964 3 1.7624761730052347 0.4362677437711694 42.889815185480956 0 1 0
1150 3 1.1586785479635788 -0.09954652071134429 41.352249139145314 0 1 0
1151 3 2.288998650075602 0.5977815290037735 41.33894432057795 0 1 0
1152 5 1.7056440709563607 -0.29190439348373814 40.47501825047766 0 1 0
980 3 3.7378807049908405 0.8389902014204683 40.19077594292351 0 0 0
1168 3 3.147530231376707 2.1803345428638194 40.670187979255076 0 0 0
1635 5 1.7895875694021295 -0.49866105041993936 42.075840939598834 0 1 0
1873 3 6.207727086580724 0.7203871764923514 38.606549940912515 0 1 0
1874 3 4.526539809154806 0.44019770845429773 38.63041931313511 0 1 0
994 3 7.58010591584017 0.6182420747780881 39.17937379916634 0 0 0
995 3 5.227227214231106 1.1905496178374297 39.83417053194103 0 0 0
996 5 4.435636773459652 1.4186143943404592 41.46996320340368 0 0 0
1169 3 4.467058033451976 2.0790647109517373 40.506378385829905 0 0 0
1170 5 4.779310076666069 4.28922572955414 40.92507683698801 0 0 0
1178 3 8.608637969537364 0.617366535620845 40.03159732606876 0 0 0
1729 3 9.275424081340034 0.27047009746750006 41.57776833897901 0 1 0
1194 5 12.571518037144664 3.31720618541022 38.985787170219524 0 0 0
1177 3 11.520124967839784 1.682753667554807 41.25044698707367 0 0 0
1179 5 10.973063153892426 1.1619950773591556 40.30791420278332 0 0 0
1193 3 10.546558639178413 3.1472915627330753 40.453731979387115 0 0 0
1136 3 10.836274483375144 0.7795569679453166 41.5076010103875 0 1 0
1137 5 11.285915152997733 1.4398163007658527 42.44782575852122 0 1 0
1144 3 12.432230407977826 0.46879079110028654 42.67724731416213 0 1 0
1364 3 12.474108407832864 1.8506769281278284 42.19741315702049 0 1 0
920 3 9.942402110787445 1.7682451101523564 40.83757775420348 0 0 0
1730 3 10.129309991764716 0.30011197961485603 40.38231941249079 0 1 0
1363 3 11.437999875251537 0.396003380225332 41.832790753567025 0 1 0
1365 5 12.355909923740695 0.8604372939751781 41.27649851437832 0 1 0
1731 5 11.293426232644672 -0.05145962253727032 40.6732316601271 0 1 0
1115 3 13.554860600186228 1.5430094141668587 43.10559174080409 0 0 0
972 5 18.299697392954215 3.2527755372901406 39.49887993454281 0 0 0
1116 5 14.35444913920101 2.523175093686034 42.77765244536327 0 0 0
856 3 15.355591618923848 2.9829342565759194 43.067077316264644 0 0 0
1330 3 17.659067277826473 3.104055490574104 40.637372368321834 0 0 0
1332 5 17.20203850735592 2.2994968757806666 40.648252597012984 0 0 0
858 5 16.32940256879841 3.5472803379004043 43.039953033637616 0 0 0
1432 3 17.24484060224938 3.4397776035225487 42.009628008127024 0 0 0
1433 3 15.984481039221329 3.1690930043740133 41.95044434478679 0 0 0
1697 3 16.64219883647561 2.2461188033987196 42.991229538770824 0 0 0
1696 3 18.17989444092337 2.933398368238013 43.00730423449795 0 0 0
1623 5 15.434462841339936 3.6053680403748034 41.229973460963635 0 0 0
871 3 18.735969229951948 2.954630657542137 41.662700631851806 0 0 0
1070 3 18.88075912255064 3.6838419103423803 40.47572742568315 0 0 0
1698 5 19.400880762243467 2.885428632977544 42.826289284996164 0 0 0
1511 3 21.71697146213922 3.477150635038271 38.57234392511761 0 0 0
1795 3 19.955894500070496 0.4229672498707009 42.94145206886269 -1 0 0
872 3 19.00753805251091 1.6635155593515574 42.77188278860167 0 0 0
1071 5 19.728733228201747 3.394481971920169 40.81599256163254 0 0 0
1110 5 3.5034296880138136 4.7622447100234675 40.29589406399907 0 0 0
1033 3 3.74684021814502 4.569656804012542 39.1559670871349 0 0 0
1284 5 24.621060711639668 8.551024667090267 43.311233106157104 -1 0 0
1314 5 4.239170632767554 5.602233688544888 39.26665035371576 0 0 0
1034 3 4.691536173975951 4.5122454779322965 39.68639041658162 0 0 0
1988 3 5.86433629479449 4.713535380087927 40.44384014259097 0 0 0
1313 3 4.539264760356192 5.231032597351664 40.2744757145786 0 0 0
1065 5 8.30427938231752 5.259187442300095 42.87433713303787 0 0 0
1312 3 5.4568119289267525 5.9851890865567094 39.63348784808359 0 0 0
1781 3 6.90205191628929 5.583682078581997 39.53512787186639 0 0 0
1987 3 6.307373550322074 5.951280593365027 40.9344300076835 0 0 0
1649 3 6.584147229910902 6.981933862937655 39.19766904387612 0 0 0
1650 5 6.141192512489005 6.875444439686221 40.32332486325036 0 0 0
1780 3 7.41073421375066 6.562328769692916 40.442292622803905 0 0 0
1782 5 7.26277255564257 5.2833852388734766 40.68683487667815 0 0 0
1602 5 7.723754135780157 6.3307541016307365 39.19066112706872 0 0 0
1989 5 5.194917632074988 5.805944878892582 40.95535484768905 0 0 0
1063 3 8.105319427524005 5.815380489790254 41.67201720079596 0 0 0
2007 7 9.029165676424586 6.986205464848452 41.77571194947022 0 0 0
1405 3 8.622058937420515 6.407302530748066 42.637130196615885 0 0 0
1211 3 11.240290624283892 4.132104414854348 39.54952552028648 0 0 0
857 3 12.829023242663178 4.214985881978678 38.679351663652284 0 0 0
1192 3 10.146068962939928 4.610580653159623 40.71265679332116 0 0 0
1077 5 10.44831846314385 5.572120466320396 42.91792298903391 0 0 0
1064 3 9.391642674077097 5.023757679486149 42.21037984110207 0 0 0
1406 3 9.802874905384932 6.457731657117607 42.476293183913654 0 0 0
1075 3 9.432715374567438 6.042871587639027 41.1339320219119 0 0 0
1395 5 13.914983619812809 4.773480251259599 39.211360074016284 0 0 0
1622 3 16.573945571949263 4.0667857119836315 40.71115008669466 0 0 0
1434 5 18.14728576105841 4.105197259856366 41.30155262555209 0 0 0
1331 3 17.76278083079664 4.402042626853183 39.91944766148613 0 0 0
1742 3 16.194105426048335 4.330633569866995 39.20936701666221 0 0 0
1016 3 16.10471957141442 6.016311100776898 38.79551213149182 0 0 0
1741 3 14.851735852035837 4.94116482864869 38.51016642267575 0 0 0
1393 3 15.069930320657212 7.308532204751605 38.66688738913473 0 0 0
1845 5 16.18491575445675 8.50802483563896 39.146130198008805 0 0 0
1843 3 15.20153466716974 8.581125902505072 39.17595343669558 0 0 0
961 3 19.28758119331903 4.172589238757622 39.315405374860944 0 0 0
1349 3 22.994391780823527 8.729577739003052 43.4616002646997 0 0 0
1458 5 7.693466247450515 9.70371363451483 38.811071660274024 0 0 0
1319 3 6.834956019580096 11.891384731877475 39.026372032388366 0 0 0
1951 3 6.340232847667297 10.037534492650533 38.651904793554664 0 0 0
1318 3 5.327610619593483 11.401463925550704 39.15506452209111 0 0 0
1320 5 6.369498249529137 10.930469417465389 39.437356280945565 0 0 0
1827 5 7.433802200185843 11.140251807195774 42.931891890432794 0 0 0
1864 3 8.264460837465439 12.044495162698755 43.42289624559231 0 0 0
1305 5 5.940221760246749 11.063763117533496 43.70319954969116 0 0 0
1614 5 9.905388681768597 9.647586824426488 38.73931581408877 0 0 0
1249 3 12.887661218676092 12.572900205844183 38.675437919153126 0 0 0
1222 3 11.35499991482393 12.422266276444478 42.93245285743494 0 0 0
1224 5 10.626158959568341 11.852959164748079 42.65516592217618 0 0 0
1271 3 12.680470565153733 12.86610634544212 40.17708979522632 0 0 0
1272 5 12.827206458081427 12.076717001527317 41.19837741651341 0 0 0
1814 3 14.013317879356194 12.640437308926025 41.26381671961212 0 0 0
1815 5 11.60975689130848 13.483578755280776 41.31470775507489 0 0 0
1813 3 12.325346267950358 13.12867901108233 41.8188210315501 0 0 0
1844 3 13.7880666058807 11.960546424359578 40.130849217795756 0 0 0
1771 3 13.406837674324585 13.18873555793105 41.25628753669967 0 0 0
940 3 13.637555357753586 13.712597589541405 42.53009270897732 0 0 0
2005 7 13.321909665087837 12.468060338780067 42.23953283992766 0 0 0
1394 3 13.937397112969535 9.324299711426729 38.897101182118845 0 0 0
1773 5 13.971376963083962 13.305419464082835 40.20666088311296 0 0 0
2006 7 18.0363680016576 9.069283241467916 41.0110843218649 0 0 0
942 5 14.544707994160389 13.746224076611941 41.352226458491984 0 0 0
1351 3 16.594235074717925 9.940680839197197 40.50597701321277 0 0 0
1352 3 15.142565645797221 9.932559451680815 39.7650928611026 0 0 0
845 3 16.176360172086554 12.468920540413594 41.65947776940746 0 0 0
1739 3 16.970957083106466 10.690354230625488 41.48946293632112 0 0 0
1772 3 15.979980970500026 11.369371850270849 40.46865242632569 0 0 0
1738 3 17.005679272115774 11.441972465901557 41.29544136720344 0 0 0
844 3 14.905591581394129 13.099605319482931 42.26113713446192 0 0 0
941 3 15.156949861867965 12.506530078891641 40.721786352884266 0 0 0
1353 5 17.47938987485039 10.954205440561534 40.358311624448504 0 0 0
846 5 15.894160542527421 13.637017931147172 41.85445587835896 0 0 0
1569 5 15.916949874962938 10.986881571661735 41.78076461216466 0 0 0
1740 5 18.05249479072675 11.202857317618593 41.627672720412406 0 0 0
1922 3 18.03717498523068 10.04425463784043 41.19726725926307 0 0 0
1295 3 17.691232622298507 10.25794524796964 42.56900036792479 0 0 0
1568 3 16.830946332165613 11.549506821081854 42.760957864941716 0 0 0
1512 5 19.562926388558473 11.292557111320729 38.16798664465129 0 0 0
1185 5 21.125453347021267 10.52842290382987 39.44119268543895 0 0 0
1348 3 22.798142580766573 9.829823748577992 42.52009612466463 0 0 0
1139 3 20.461321368177554 11.503351107725349 39.084245788034764 0 0 0
1183 3 21.725752747207252 11.704705007013153 39.518899778720055 0 0 0
1359 5 22.75645526470895 11.835811938285113 40.120926485158975 0 0 0
1140 5 20.82968045471766 12.421475404366864 38.59142720845202 0 0 0
1921 3 19.085880594290586 9.69896471457481 42.18167744190468 0 0 0
1923 5 21.56224769800857 10.297431914844282 42.70368114433673 0 0 0
1350 5 23.19029619193605 10.319107902131826 43.5496392439871 0 0 0
1357 3 22.64523068951112 12.813719884810991 39.18649403228797 0 0 0
1201 3 21.640146253754526 9.049516976041605 42.894268113010696 0 0 0
1334 3 21.980222688255704 10.45563698303622 43.70154985696806 0 0 0
1358 3 23.284943407477346 13.365865892946694 40.541622427608445 0 0 0
1865 3 24.648925305272144 11.629825690144079 39.186653128979074 -1 0 0
1456 3 25.537399311566542 12.34841807028953 39.33398002406953 -1 0 0
1866 5 24.86100415148457 11.98031898756247 40.237662989256066 -1 0 0
1160 3 23.76898336364929 12.260215814350303 39.6516347124622 -1 0 0
1545 5 15.595472956443745 15.441387163026018 42.61527663784693 0 0 0
1135 3 17.025215251076293 17.55775489890383 42.59872170748814 0 0 0
1543 3 15.260663679433979 14.295925267612146 42.79089054915568 0 0 0
1979 3 18.48522859925225 17.517640200127435 41.72737758443466 0 0 0
1978 3 12.442228789922384 -0.6180596221025758 41.53482286539784 0 0 0
1061 3 21.749701293897584 14.875022643313317 41.16482047871379 0 0 0
1237 3 20.73321328054685 16.378714793666518 42.342028100560384 0 0 0
1238 3 21.466962506722453 16.326649959234597 41.09843428144276 0 0 0
1239 5 20.783982889347275 15.383010677609555 41.57911743463592 0 0 0
1060 3 21.865348204661974 15.473551079137367 42.43915674026658 0 0 0
1145 3 13.35699562983967 -0.7281747277659341 42.924279392785905 0 1 0
1980 5 13.656579311585215 -0.6750923198175636 41.647038052866236 0 1 0
814 3 22.232595257640273 16.85190503038495 42.30574397689831 0 0 0
815 3 22.93296259817447 15.925361219581339 41.38958090707628 0 0 0
816 5 23.024972830546886 15.74783729661284 42.635043879206094 0 0 0
1303 3 23.012099881748163 14.614274727363025 41.97154777923265 -1 0 0
1062 5 22.96558679894997 14.6394390675628 40.68229947298184 0 0 0
1870 3 26.189231518356294 13.953705857314542 38.992475118850834 -1 0 0
1518 5 25.070371926547917 14.303783995052779 38.565738869934606 -1 0 0
1517 3 24.894466124630636 13.314496987912307 39.819057614677476 -1 0 0
1690 3 23.808861797571357 14.203513696733376 39.27167869278459 -1 0 0
947 3 25.03872434423525 16.66124603348171 38.88973908501238 0 0 0
1516 3 25.372666682216163 15.124078298333526 39.535344589465126 -1 0 0
1692 5 26.154383280398147 15.649920695178642 39.960649221860166 -1 0 0
1871 3 24.264369748908805 14.719380991908086 40.71089097294826 -1 0 0
873 5 21.093833542340263 0.8298743750862478 43.34836670931391 0 0 0
1967 3 2.636749515768149 2.0320493033311724 47.40396792376147 0 0 0
1975 3 4.0131312136315 1.5253443957026722 46.58128139335429 0 0 0
1072 3 2.6783350033974442 0.41974394195491294 46.990319383870144 0 0 0
1384 3 1.445977273391335 -0.25324107017670683 45.8440807719125 0 1 0
1073 3 2.8310377956836783 -0.35086339233771047 44.897517006022866 0 1 0
1963 3 3.923943554288229 -0.06097309013523167 46.210153321121325 0 1 0
1198 3 4.222159436564793 0.15257000415351818 47.64113237560643 0 1 0
1074 5 3.315378023936274 -0.6719569413977389 47.06281766341496 0 1 0
1737 5 3.8862559286690823 2.464112601838412 47.58857000302527 0 0 0
1385 3 1.4001706464659653 -0.457500615546257 44.531686831256565 0 1 0
1199 3 2.6932728347435844 -0.74719328970076 46.19122410633926 0 1 0
1966 3 3.8764257722244126 1.274173051596131 47.78288002806072 0 0 0
1425 5 0.41344343542269646 -0.6580598259778612 45.25782747500794 0 0 0
1474 3 4.616118373053255 1.5695690513639198 47.837877069541975 0 0 0
1977 5 5.246186241791294 2.0872651892050276 47.02644618402772 0 0 0
1439 3 5.376457817486234 0.7531936908078743 46.88771835099864 0 0 0
1476 5 7.593143640661116 0.8289947390181169 47.49566591402632 0 0 0
1589 3 8.233421221673733 1.8020588160793132 47.37604716978912 0 0 0
1707 5 7.40494614758445 2.5612038788802876 46.66417506898438 0 0 0
811 3 6.6737162371476035 1.8745658530767728 47.18310142755473 0 0 0
1591 3 8.3311838562835 3.1904755954635133 46.957868536804554 0 0 0
1976 3 6.5424116648586965 0.4890986074462823 47.714841555597985 0 0 0
1467 5 9.15087996359632 3.604596425481661 46.14863418882618 0 0 0
955 3 10.264692926585349 3.6921408164297693 46.436493609071434 0 0 0
957 5 10.527612447629492 3.3179199808867748 47.577058586975994 0 0 0
1025 3 11.175904649889327 3.959051338423684 46.741097455579805 0 0 0
1445 3 12.225994945015334 3.39163874231364 46.186091647155024 0 0 0
1446 5 11.110847868625745 3.77785006192531 45.59769006079014 0 0 0
1465 3 9.672629906483117 2.6285016280728173 46.98719573619405 0 0 0
1944 5 12.736166126793373 2.7388065271767243 43.51425689359813 0 0 0
1942 3 13.13280792538538 3.3508601479948625 44.916557868879195 0 0 0
1943 3 13.747787521547359 2.7156233299831927 43.71017051065398 0 1 0
1187 3 13.550707018446785 2.575281022002096 46.37807300533758 0 0 0
1188 5 14.157096737642597 1.3266916751150921 46.47698929142484 0 0 0
1114 3 14.802042768181389 1.8417141795494558 43.701929673109476 0 0 0
912 5 14.726941664991134 3.1670823635352736 43.883669499587015 0 0 0
833 3 17.188040034467438 1.6323118482528667 45.178824239901715 0 1 0
832 3 17.91993162098742 1.6047855745455837 43.95511386946362 0 0 0
910 3 14.614250465212795 2.7402607955583944 45.10483290072379 0 0 0
911 3 15.996371414288358 2.511172938741958 44.3677609868942 0 0 0
1121 3 15.412429742230472 1.4912950667376892 45.61893341485606 0 0 0
1122 5 18.04422418954226 2.4775039683219706 44.87983408983355 0 0 0
1768 3 14.807507126394798 2.2150354170227295 46.76454982393261 0 0 0
1770 5 15.834611043704765 2.123671303779153 46.74725283670317 0 0 0
1471 3 16.66748447288757 1.1546484806670123 46.42416990316467 0 1 0
1473 5 16.349125510903477 0.37405128421267164 47.36467103086598 0 1 0
1954 3 15.293313705103209 0.8058321911322331 46.900568257265775 0 0 0
834 5 18.178116744398952 0.9725212913734865 44.97319505272826 0 1 0
1472 3 16.246229788164133 1.5367879045176376 47.71891545847451 0 1 0
1769 3 14.325430847370226 1.4017337174367315 47.836864687789344 0 0 0
1956 5 15.224000078211589 2.079334266266481 47.82398829077178 0 0 0
1735 3 22.41770777681784 3.2107768337724125 46.797854706335954 -1 0 0
1424 3 20.680489613869526 -0.04440450930014095 44.19091345825146 -1 0 0
1423 3 21.06106314585372 0.49224835651905985 45.491108914307205 -1 0 0
1736 3 21.650186757477208 1.8836490664793542 46.3261349704097 -1 0 0
1120 3 18.87971384180998 1.8161291803571296 45.35239522813758 0 0 0
1797 5 22.009664768677773 2.895280125304119 45.53135556742241 -1 0 0
1901 3 20.918615062999837 3.0377248105575863 45.98760161272472 0 0 0
1504 3 19.333951877889785 0.9124821805589811 44.28435401917666 -1 0 0
1505 3 19.197787013224545 2.657590428326994 44.035033426408916 0 0 0
1796 3 20.56461379120881 2.02203950592154 45.02692498740015 0 0 0
1900 3 19.693651443762068 3.2222432555571467 45.371217544350785 0 0 0
1941 5 20.935626030989283 3.333782758786297 44.85458165960185 0 0 0
1879 3 23.812837453722334 6.616537695742084 46.37749573136131 -1 0 0
1336 3 3.829539749106324 7.58355717130248 45.46502872574014 0 0 0
1706 3 4.457444905271026 7.073182875173822 46.97020201452385 0 0 0
1111 3 4.848893233003772 8.618748845980088 44.84004630680755 0 0 0
1180 3 5.984879396637932 8.223988345696252 47.178820295410034 0 0 0
1705 3 5.929852718382062 6.95475843228263 47.8497251468244 0 0 0
1182 5 7.003097554506011 7.468502789559573 47.854072808937076 0 0 0
1024 3 9.408811036182664 4.043628294916953 47.468678889446565 0 0 0
1475 3 9.234493849434193 5.520231355243184 43.58799735626555 0 0 0
1026 5 10.49035139964907 4.658874087097875 47.34270912057589 0 0 0
1444 3 11.67423831137267 4.899789548126543 45.9898595228494 0 0 0
1466 3 10.00426512645708 4.896787701700635 46.13787816287737 0 0 0
1407 5 9.233574205698698 6.974080794199152 43.48364069920589 0 0 0
1076 3 10.316438903484503 6.575441188149421 43.52760740184712 0 0 0
1417 3 11.844429854742582 6.239217284695734 46.82147771273431 0 0 0
1681 3 12.173420895146748 6.377610915574715 45.46868051876348 0 0 0
1682 3 10.705490003509407 6.25839997535521 45.69952010445306 0 0 0
1683 5 12.206984287096544 7.40234958082108 46.223436132360405 0 0 0
1828 3 11.148398359653994 6.033559983727415 44.23159030230936 0 0 0
1829 3 9.641828529125462 6.3234032786912415 44.65746398485756 0 0 0
1830 5 10.52586064550759 7.103699191957791 44.582645346377404 0 0 0
1419 5 13.026116684190988 5.62278817782992 45.8422598290461 0 0 0
1084 3 12.72052916430226 7.189111078707628 47.23488867554006 0 0 0
1418 3 13.170520182126014 6.702856816807564 46.19713270405751 0 0 0
887 3 13.043543141614766 5.452169320538034 46.899127054225445 0 0 0
1085 3 14.032077046941307 7.507426349686669 46.8686549162061 0 0 0
888 5 12.47756930916708 6.167591690254277 47.83332236076899 0 0 0
1086 5 14.049759134106964 6.110180658271953 46.66346689632955 0 0 0
1940 3 21.34103281246427 3.7581609418910955 46.002356341776164 0 0 0
1338 5 2.374133928098282 4.415518963048303 46.81518908213022 0 0 0
1147 3 22.13843992383312 4.996004099615096 47.207315360940086 -1 0 0
1149 5 21.44037938811067 4.127331672405996 47.090932743373955 -1 0 0
1337 3 22.15099727274739 4.388589779056776 46.11489580843846 -1 0 0
1880 3 23.143305634823733 5.6743985243733235 47.3479351454348 -1 0 0
1148 3 22.34751234615832 5.854028409657733 46.14981988627143 -1 0 0
1881 5 21.852653921052923 6.018327686337971 47.368865407643284 -1 0 0
1202 3 20.968461467179527 5.276164432199756 46.4574895163819 0 0 0
1203 5 21.500569989044415 4.91809148810405 45.2907960465063 0 0 0
1902 5 20.204986201239006 3.9848143444741377 46.44873265230443 0 0 0
1939 3 20.38697358838806 4.474141373052586 45.2915171455701 0 0 0
1282 3 24.227328858945643 8.362410397266915 44.197372625093735 -1 0 0
1304 3 6.82971457787177 10.304173360707766 43.482345233603056 0 0 0
1283 3 6.224506581308397 9.152181400243213 45.52750599021684 0 0 0
879 5 7.012849039340286 9.526083574285543 44.292595174760365 0 0 0
877 3 5.777068631681443 9.717725420489113 43.93962739553734 0 0 0
1549 3 8.239331700732459 10.565398762528847 43.67284450505733 0 0 0
878 3 6.965117604013911 11.490096638097198 43.96569209119272 0 0 0
1112 3 6.196714333785127 10.718294977851663 44.85125670822005 0 0 0
1826 3 7.63012353455703 10.271068280698884 44.96864932181296 0 0 0
1551 5 7.5574662161702335 12.721117611656567 45.01958279094377 0 0 0
1550 3 8.307988092587827 12.521288343219688 44.42998805098378 0 0 0
1825 3 8.738290676444922 11.253152501345621 45.10487160559293 0 0 0
2008 2 9.30584264868557 9.956662549688913 44.81317637752194 0 0 0
1377 5 9.422054487224939 12.913408940995895 45.876154413401764 0 0 0
1289 3 13.93120902735167 8.892184640349477 47.54511757846302 0 0 0
1376 3 12.212530959881343 13.508958083833647 43.087926816545774 0 0 0
1223 3 10.663299715265278 12.882591632003157 44.05336800123489 0 0 0
1726 3 9.635864317051356 11.58018893550977 43.94010697026589 0 0 0
1207 3 9.826468061331115 12.382551824265276 45.20150952279053 0 0 0
1375 3 11.927528369945689 12.275844907856674 44.650564175725805 0 0 0
1542 5 11.320451977013617 11.705414457665672 46.748394114699664 0 0 0
1727 3 10.845890088964458 11.911341379660994 45.789179091406666 0 0 0
1728 5 10.880301851902773 11.660710793704393 44.698484249264624 0 0 0
1208 3 11.075745478858115 13.179609953232786 45.29311907308963 0 0 0
1846 3 11.957301311507518 12.447406530395071 46.027452657597635 0 0 0
1912 3 12.339252351047548 10.919031705146077 46.992876467601135 0 0 0
1847 3 12.315506460331807 12.46060695764671 47.52312868669979 0 0 0
1848 5 12.934664440767733 12.998326173354775 46.46799717171494 0 0 0
1913 3 12.547619163130586 11.918044808359468 46.278723284089324 0 0 0
1914 5 11.796586988319115 11.28362765179006 45.53787742014869 0 0 0
1540 3 13.618318914915829 11.856619746479202 47.108970185127404 0 0 0
1541 3 13.739805243993157 10.447178500385268 47.428385218411094 0 0 0
1567 3 16.11112728765258 13.353069743455535 43.14771540670212 0 0 0
1296 5 17.224355972397053 9.629257786050903 43.080055102721104 0 0 0
850 3 17.597249163816198 12.758621162985154 43.42885246234677 0 0 0
1294 3 18.185114434210128 11.517107865565391 43.93903447267087 0 0 0
824 3 20.372443186112925 10.499759132503275 43.2122685563654 0 0 0
1335 5 21.805494301244508 8.794627210574522 44.1783234801609 0 0 0
1571 3 18.908377559307535 10.14760009246578 43.73342614373652 0 0 0
825 5 21.71745146308235 10.003794640205522 44.85349531148432 0 0 0
851 3 19.583991103438617 11.409555564454623 44.37420916908265 0 0 0
852 5 18.715705627855137 10.760757888281558 44.885320169012374 0 0 0
1036 3 21.001466092383854 10.954665705313607 44.69876374054313 0 0 0
1037 3 20.552278997805313 12.297129793487846 44.902045688024785 0 0 0
1038 5 20.65853875673749 11.590148907679353 43.78228860291678 0 0 0
1333 3 20.951001531439193 9.523422675519594 44.019503556611554 0 0 0
2002 3 21.558324881220255 12.579979628507955 45.984459458893284 0 0 0
2003 3 19.89549764008925 10.647458609574322 44.51906106122577 0 0 0
2004 5 20.0441838385696 11.351477737273488 45.51964953487334 0 0 0
1853 3 22.846413028645635 12.980543697351953 46.524728384778044 0 0 0
823 3 22.50435398294956 9.632844967779935 44.09468550844029 0 0 0
866 3 25.853703616527383 13.146216684790033 47.746781229006174 -1 0 0
1113 5 24.620603797103893 12.820032999021716 46.87853760308093 -1 0 0
1882 3 24.3862787604897 13.30771463303986 48.00835316259918 0 0 0
1209 5 11.524761348452394 13.95458144669382 45.4301812190444 0 0 0
1386 5 9.876893783485746 17.063511885717688 45.38544554053141 0 0 0
1965 5 11.433852475645987 17.23157923701114 45.60135881305797 0 0 0
1134 5 17.332416467808248 16.375116023923624 43.265239917006284 0 0 0
1794 5 16.156046863247393 14.136881321403605 44.23706016479609 0 0 0
1544 3 16.72610146073096 14.921447905432338 43.286089063184164 0 0 0
1133 3 16.047369859783387 16.187808489512175 43.49445127527733 0 0 0
869 3 16.57992553807874 15.69281598177808 46.26622486927985 0 0 0
919 3 16.633867359264116 16.644389019514367 45.47874071529802 0 0 0
921 5 15.870849883541204 16.675207705378142 44.60167832385048 0 0 0
1200 5 14.925575981301202 13.582706172136414 43.64186555059962 0 0 0
1585 3 16.034894937901502 15.297986495020865 44.71911522442397 0 0 0
1586 3 17.16115634431594 15.483783927341879 46.992328311306366 0 0 0
1587 5 16.97306039612273 16.716438903406285 46.95857119498082 0 0 0
1792 3 15.37907394166 14.734928715680116 43.582529162103725 0 0 0
1793 3 17.27678672958499 15.969698677555341 44.43622793092649 0 0 0
1132 3 16.908639926257788 17.27092314148865 44.09454009778635 0 0 0
1678 3 16.255526849814444 15.90637995428537 47.854838622568295 0 0 0
956 3 18.0009886081914 16.21264115399392 47.1825518905641 0 -1 0
870 5 17.761475444443246 15.947338541739578 46.043532869991 0 0 0
868 3 18.850903466866363 14.975353192535557 47.3055622491177 0 0 0
1146 5 21.561078286638477 16.42650113587067 43.287609272596285 0 0 0
1409 3 21.698109837365436 13.923527065230077 47.012099557881214 0 0 0
1908 5 20.16574372643296 14.781179173924377 46.98624709383847 0 0 0
1907 3 20.22789443335106 15.921575819962303 47.57076552367913 0 0 0
1410 5 21.269090064178382 15.430797840753678 47.203538425288045 0 0 0
1854 5 22.999302529957546 14.460118258851004 46.61039860423982 0 0 0
1906 3 20.94105487444633 14.458969597792299 47.718680123681466 0 0 0
1408 3 23.782950134372783 14.739372721239704 47.439862212704554 0 0 0
1454 3 22.878769830350485 13.64682420816028 47.8798677369155 0 0 0
1453 3 22.43098551066119 15.01396281751099 47.80662562940084 0 0 0
1300 3 25.158690254964014 13.808940638084449 46.79413907180296 0 0 0
1852 3 23.95154027207149 13.770415503922202 46.655060292548725 0 0 0
867 5 26.15090354194235 14.288129226137233 47.16748539585976 -1 0 0
1302 5 24.58829709810667 14.833438523198595 46.59993008513196 0 0 0
1301 3 25.182362489761207 14.631843025851246 47.8401413459172 0 0 0
1968 5 4.49987568676711 1.0161756441087473 48.79632272671893 0 0 0
1496 3 1.5733715874278698 1.2755230432352265 51.932848317222266 0 0 0
1495 3 1.5757784836832942 2.4948940990141293 50.83072314569411 0 0 0
1497 5 1.5172199310976195 1.1897653419386554 50.70005763905681 0 0 0
916 3 21.254785063797502 0.448803990249246 51.23027788195563 -1 0 0
1611 5 2.119892373755696 2.3456220977925453 51.77858271213381 0 0 0
1606 3 21.869442064600566 2.6252682341030287 52.44609606362624 -1 0 0
1588 3 7.442441348201566 2.838733984986243 48.04484696053706 0 0 0
1438 3 5.5992581464723585 1.5697465171037028 48.10366717211126 0 0 0
1440 5 5.435333796539692 0.3985434200735013 48.162780117954114 0 0 0
812 3 7.129460542169356 1.549121729602335 48.521470873410195 0 0 0
1592 3 8.914182973863777 2.747948209398461 48.284813042436255 0 0 0
1590 5 8.189667679753672 1.855825477953539 48.70039628205275 0 0 0
813 5 6.244640734080216 2.47285070795723 48.381785239678294 0 0 0
1842 5 8.179512413936722 0.22642893534475328 51.99056773360269 0 0 0
1938 5 9.148273895876924 2.7866320591603992 51.87110052602395 0 0 0
1841 3 9.357213482383456 -0.03983643466021036 52.26604005460497 0 0 0
1315 3 9.687750242402062 3.55919586418214 51.09407378291441 0 0 0
1477 3 10.844629293075755 2.980466172717297 50.43173623815973 0 0 0
1478 3 10.36448987153847 2.308079969143353 51.635446448219525 0 0 0
1040 3 11.227190293071356 3.5676255335016593 51.669526987023545 0 0 0
1479 5 11.552291278138652 2.460974514838215 51.247254246568446 0 0 0
951 5 13.982394333307685 -0.29340659145016623 49.85607447959019 0 1 0
1936 3 9.973908413989571 3.4523350924506926 52.53571057201606 0 0 0
1751 3 14.12160542769019 0.4060377017091821 48.88028198272747 0 1 0
1291 3 15.410561046744402 1.079811489022601 51.89979615643419 0 0 0
1293 5 16.305849748504077 2.056933538916642 52.38027513769188 0 0 0
1752 5 14.265205838091484 1.6026836583682798 49.064054860838596 0 0 0
1955 3 15.512562374704759 0.43110487993680846 48.3294736032243 0 0 0
1534 3 15.44457300852831 1.6223828481729226 49.08140365903145 0 0 0
1536 5 15.952027606295513 0.6029659033928161 49.54799180594725 -1 1 0
1535 3 14.75155094427339 0.7894140511968173 50.085672672633535 0 1 0
950 3 15.162160380398907 -0.4090672688879473 49.528873372170295 0 1 0
917 3 21.27479922988199 1.682383884915388 51.0940519042274 -1 0 0
1274 3 20.86819448333716 1.5344734346299673 52.515680188123184 -1 0 0
918 5 20.240892610291855 1.310972573844387 51.40681525707352 -1 0 0
1607 3 21.391655591901777 3.515625636172641 51.4880112638572 -1 0 0
1273 3 20.537787247068206 2.5277932627448783 51.45318842811993 -1 0 0
1275 5 21.114839451463393 2.6915972341572383 50.44165243005466 -1 0 0
1593 5 8.360293142506592 3.821954827727145 48.10429634735837 0 0 0
1181 3 6.484504617680939 8.45711119288989 48.28061636006292 0 0 0
976 3 5.051482554140071 7.777590820889329 48.589045791813405 0 0 0
977 3 6.497556542004234 7.455450122125333 48.99335444649023 0 0 0
978 5 5.750297197845345 6.601904619320862 48.88026464649133 0 0 0
1278 5 6.8058552604884275 8.44806431707745 49.43275675716076 0 0 0
1400 3 5.708792567048507 7.421034254420812 49.94816947235053 0 0 0
836 3 6.284326207364411 8.449128897800543 52.49944108108326 0 0 0
1760 3 4.745672724041283 8.512120077814107 52.539890802142224 0 0 0
1580 3 5.406807639428666 7.710048863972826 51.405961377066575 0 0 0
1581 5 5.309702423582357 8.593576435704755 50.38746997294142 0 0 0
1699 3 6.7403020508166485 8.378160753313182 50.846303078802094 0 0 0
837 5 6.838236030282583 7.799815190571341 52.8030025874115 0 0 0
1399 3 5.70413274171389 8.838113202647765 49.298938250362326 0 0 0
886 3 13.655438985200629 6.378464195150352 47.808240320788045 0 0 0
1317 5 10.589857707717554 4.276673091099063 50.69413035088532 0 0 0
1290 5 13.41970268898686 7.4742152863583335 48.15455135337403 0 0 0
1316 3 10.40461877133763 4.723329316184144 51.733527430426776 0 0 0
1041 5 11.646130363879212 4.764876719243555 51.535385834843694 0 0 0
1876 3 11.348511461222452 5.766955803423224 52.25685581822103 0 0 0
1214 3 16.405902025320678 4.184966382531442 51.83537549781812 0 0 0
964 3 16.126973417214998 5.854070582666117 50.37388708762222 0 0 0
965 3 14.768751528855063 7.37199199865232 48.43698360937822 0 0 0
966 5 15.81972733015936 4.621078039638709 50.88989665804023 0 0 0
1142 3 17.008406925236706 4.966463538703387 51.177871408938586 0 0 0
1528 3 15.727149721152259 7.291139459754242 49.66255106932091 0 0 0
1529 3 16.00746624162429 6.8927463257485275 51.27912851159277 0 0 0
1141 3 15.686630389062353 5.492504762382733 51.77862999553791 0 0 0
1068 5 17.65008175935826 4.048390885091992 51.412946703712194 0 0 0
1215 5 17.120631180481805 6.115638974717365 51.281194152068565 0 0 0
1067 3 18.287319600669843 5.252557381225259 51.47500460972125 0 0 0
1213 3 17.018830591889504 5.8451328521935935 52.37502057507234 0 0 0
1640 3 19.098740915682498 4.125750825659493 52.18279771131833 0 0 0
1776 5 19.334529442956075 4.407133182135814 51.020818392579216 0 0 0
1639 3 19.596525079675125 5.219666067655956 51.828572674349715 0 0 0
1125 5 21.112180483263643 5.224518322660922 51.60182502351631 -1 0 0
1775 3 20.52166317005564 4.4962223321807615 51.84215846283281 0 0 0
1641 5 19.085360352906555 6.273865206734127 51.85318610390654 0 0 0
1401 5 5.455080955572681 9.020035256125189 48.159986331074705 0 0 0
1971 5 8.402915487744016 8.910146937159146 52.354010260018086 0 0 0
1629 5 7.184117844738418 13.513375806666366 48.51782628477716 0 0 0
907 3 5.366212873216735 9.265038635591432 51.40647068683111 0 0 0
1701 5 6.440834804713188 9.617719858390322 51.99796411680228 0 0 0
1277 3 7.606135315400278 9.301141655741363 52.05164457930354 0 0 0
1970 3 7.934991826601712 10.107750514224874 50.85272371463007 0 0 0
1883 3 6.605343416261333 9.832322734970557 50.55242194673076 1 0 0
908 3 7.001301306600916 10.734631318283364 52.059027353902565 0 0 0
909 5 6.531744480654588 10.396268739187336 49.80791646243861 0 0 0
1276 3 8.682480245915968 10.797140288267949 52.0521326661443 0 0 0
1603 3 8.236472846620675 11.71423234970383 50.738564936418555 0 0 0
1747 3 7.999463533605342 12.829272270220741 49.375479727482826 0 0 0
1604 3 8.974949913792804 12.963419844316679 50.44493397021472 0 0 0
1605 5 8.668879261088465 11.39243294214265 49.88231061466813 0 0 0
1749 5 9.12592876252743 13.484190833778763 49.15151888821906 0 0 0
835 3 5.2627540677937406 9.696340037540095 53.02293717768863 0 0 0
1452 5 12.795977668775578 11.360811262502692 47.927415697832586 0 0 0
1087 3 14.479385014648377 9.453694940832651 52.45286752599661 0 0 0
999 5 18.44058832761153 9.29221975201873 48.767509355431386 0 0 0
1451 3 15.808730478804344 8.720985450006058 49.07353304118105 0 0 0
1288 3 14.965753644154983 9.858222713486237 48.28805628506916 0 0 0
997 3 17.823913121682754 9.407352934994234 49.9594702949784 0 0 0
1530 5 17.065924934835426 9.568703621503658 50.53216888549417 0 0 0
1450 3 17.16463288927595 9.866149090175382 48.78156763276844 0 0 0
1129 3 14.403580803213714 10.956457856447287 52.34427404586651 0 0 0
1710 5 14.785677462681539 13.443455549599097 50.202980593395665 0 0 0
854 3 15.63565264900778 11.659984240791786 51.57905793266285 0 0 0
1570 3 17.29409147759643 10.815052982357876 49.906114028880864 0 0 0
1858 3 15.615289432125875 13.216057094160917 51.21144234006081 0 0 0
1572 5 17.465579141582975 11.032242131811865 48.65502812618935 0 0 0
855 5 16.6246762747937 11.576424525335309 51.63378557951282 0 0 0
1801 3 18.590694315016435 10.501531083651228 50.552722694017746 0 0 0
998 3 18.393991074165918 10.466844747589183 48.96377338107102 0 0 0
1859 3 14.603436005778383 12.531266802228867 52.51337503119174 0 0 0
1575 5 20.123453160474327 10.301069636096788 48.84399549422257 -1 0 0
1668 5 21.691404562179667 10.037734773210843 49.582531706917806 0 0 0
1328 3 20.54044162989863 9.830087064994247 49.93266832259414 0 0 0
1531 3 21.6852919378426 9.846806855872165 50.82094855628567 0 0 0
1803 5 19.604025140532443 9.836751208131268 50.69467756335638 0 0 0
882 5 22.497319693328155 9.537826089415374 51.666538818972825 0 0 0
1573 3 21.86455963005749 11.256045352274162 50.37586602081501 -1 0 0
1574 3 20.899340920542578 10.907841270383349 49.49616003437707 0 0 0
1666 3 20.5551636547521 10.867892388809251 51.010757843488236 0 0 0
1802 3 19.353364809870776 9.654808086722065 49.54718950026225 0 0 0
1327 3 19.65788070574597 11.148879193810219 49.83596808289781 0 0 0
1329 5 20.691176018699327 11.855155909522317 50.149620380182185 0 0 0
1532 3 21.598029479529757 10.258911106606167 52.13188860987768 0 0 0
1533 5 21.5392489610835 11.413234744965848 51.615334235311565 0 0 0
1667 3 22.722043405462195 10.7970124642483 51.39269097414248 0 0 0
905 3 23.00200098131886 10.078839946050048 52.70735089268939 0 0 0
1246 3 6.991384457372885 13.848525872815053 49.8661656464772 0 0 0
1247 3 7.091861040554618 14.865027985365527 48.81764611540659 0 0 0
1627 3 7.772977054366112 15.091069824211981 50.29485106009146 0 0 0
1628 3 8.108570938425133 14.033806151982875 48.855151300043474 0 0 0
1248 5 7.899111074994316 13.786332138740192 50.661990405201905 0 0 0
932 3 0.6726098957275599 -0.7115709635622773 51.948504602922185 0 1 0
927 5 8.56403272663259 14.967922228730032 49.23238363569426 0 0 0
926 3 8.516979755481467 16.077066903715654 51.760150626737996 0 0 0
1748 3 8.637011940724486 14.11850460960352 49.97494177034517 0 0 0
925 3 8.866410235140933 14.340217707100377 51.52438214677947 0 0 0
1708 3 13.409443531327282 13.988173052926633 49.94724134102785 0 0 0
933 5 9.751669465073219 14.467629756652013 51.152074766624125 0 0 0
864 5 13.621223736383353 15.416921712928714 50.344302367224685 0 0 0
820 3 13.960702654814021 15.343822359605355 49.26087448016271 0 0 0
1929 5 17.398371873222608 16.369044426991458 48.1233320103711 0 0 0
1709 3 14.127991281308429 13.712727680147987 51.411757079789936 0 0 0
1860 5 15.44782857310456 14.48786293814353 51.05982236515209 0 0 0
1927 3 14.967280955259254 14.447755715203876 50.00582096074422 0 0 0
1268 3 16.18519437419022 17.18061743243915 51.770798103693835 0 0 0
822 5 14.385098265702279 14.171577466106001 49.146881802526295 0 0 0
863 3 14.349409825987621 14.671823420065921 50.63765468065117 0 0 0
821 3 15.45970482343888 14.990881259449468 48.98344084195659 0 0 0
931 3 14.989284421735364 15.889347328761112 50.23809973011879 0 0 0
1928 3 17.66359479368889 15.180016464472208 48.311836129753544 0 0 0
1680 5 18.796644885543248 14.751271792255055 48.59200623711716 0 0 0
1679 3 18.949832306543044 16.00006485749563 48.402125375071236 0 0 0
1455 5 21.717161301187947 13.954341687039234 48.38032447723293 0 0 0
1186 3 21.31462608983292 15.507858393664653 48.54998551731843 0 -1 0
1561 3 19.875296014037545 14.77351370430957 48.19078341848157 0 0 0
1562 3 20.41287026488988 16.719190193287204 48.69532276033303 0 0 0
1563 5 19.976990692985176 15.599677141921145 48.99794437767346 0 0 0
1750 3 21.852598401808763 17.10566277132912 48.96857836027296 0 0 0
1788 5 22.178747377759912 15.71214787817426 52.83216743974259 0 0 0
865 3 26.61679315282667 14.181660064117613 48.39096315644163 -1 0 0
1884 5 23.70779887952273 14.42463633194912 48.53851381483683 0 0 0
1774 3 1.4502964173073534 1.4063781320056112 53.72772690957834 1 0 0
1171 3 2.0416824623630934 1.9189843592979312 55.139397222385355 0 0 0
1173 5 2.3278489211933646 2.6703659732169616 54.56369894172175 0 0 0
1610 3 1.4901253476886958 0.37703739146976756 55.028120103179944 0 0 0
1615 3 2.578303990083568 2.6947985626191606 56.26296184200365 0 0 0
334 3 1.7111109506910984 0.8409525247494385 56.78559765349314 1 0 0
360 4 4.00945826890977 3.1548407733504797 56.22391500250768 0 0 0
309 8 2.861562899521335 4.052081270745172 56.92536245615007 0 0 0
1267 3 8.123610677168113 -0.37007549845444176 52.91481110160761 0 1 0
1711 3 8.302067733682847 0.48856470137568375 53.17834726499339 0 0 0
1459 3 6.597501189433997 2.7497278376593393 54.34672157449984 0 0 0
1850 3 7.958666404825747 1.7014440560346153 54.02888319195449 0 0 0
848 3 7.110001926041441 3.0493321785919516 55.791094143634396 0 0 0
849 5 7.726075794772544 2.1946773777190463 56.43591858207934 0 0 0
1172 3 5.486945654054987 3.0211389618654048 55.74340900702087 0 0 0
1460 3 7.277306460859334 2.2637094794563053 55.33488752985221 0 0 0
1156 3 8.537685303726327 2.6517392397914934 55.51669540586546 0 0 0
1461 5 7.736941673612033 3.355685854226137 54.76637411527258 0 0 0
1897 3 8.152810583918855 3.3172402690318172 56.98255921377982 0 0 0
1899 5 5.477234757731863 2.1029322730174798 55.48248936924426 0 0 0
1937 3 9.3593757542491 1.7387653599368291 52.65926523773686 0 0 0
1713 5 8.065269075959348 -0.6569449755281809 53.9587049805383 0 0 0
1851 5 10.927223085121048 3.754112662715391 53.15845671733392 0 0 0
1712 3 9.255938206080614 -0.5683831264864807 53.8078366611508 0 0 0
1191 5 15.86444025129832 0.2182309081171201 52.82087612873788 0 0 0
1292 3 14.94109528074491 2.239005816072459 52.72381715255244 0 0 0
325 4 16.0470876574502 3.170212721736054 57.19481576805286 0 0 -1
1190 3 14.691500407618133 0.7728268181300937 53.18030088995967 0 0 0
1537 3 15.886219922662093 3.3277421096288164 52.67791546106993 0 0 0
1189 3 16.105360984102727 1.244153389343068 53.226418199444495 0 0 0
1483 3 15.126161295407229 1.8418242645637501 54.33179858403852 0 0 0
1484 3 15.622729824916252 0.43267625653382846 54.21574172058739 0 0 0
1485 5 16.329034461659493 1.5811799111028217 54.36869146886444 0 0 0
1538 3 16.201595941100802 2.3526159608776105 53.50309998347977 0 0 0
1539 5 15.147403001592485 2.9746833810424915 53.6627004140301 0 0 0
242 5 14.742953805156608 -0.4874788172823883 53.36256424601142 0 1 0
243 3 15.95357414835929 -0.8780642265574536 53.87237425126354 0 1 0
1608 5 20.611674968854967 2.7736758576733815 52.54209074588519 -1 0 0
1761 5 4.649899616967814 8.134604865042888 53.43814455769406 0 0 0
1123 3 5.299010588850041 4.056160234225907 56.915152583154196 0 0 0
1878 5 10.497803186700436 6.30503266772797 52.90719829656781 0 0 0
1877 3 11.713307865942289 4.327050378619619 52.64391839434697 0 0 0
1919 3 11.48785178836938 6.809828082866874 52.985781163328525 0 0 0
1088 3 13.294281636079592 8.632935136007951 52.8946940990305 0 0 0
1849 3 10.41974311133679 4.944664698543727 53.135693764596226 0 0 0
1012 3 12.367333117921408 7.796820565244872 53.205457071415026 0 0 0
1981 3 11.120115702186993 6.771396624355376 57.08912853500277 0 0 -1
1013 3 12.177658031591113 6.844082289461198 54.229478988712955 0 0 0
1014 5 12.50021291687948 6.3121608845272315 53.06544770222234 0 0 0
1039 3 11.698207775784207 5.494701506169505 53.643076399805565 0 0 0
1361 3 10.244694313141386 7.125608061722582 56.09076196278207 0 0 0
1362 5 11.330907562161531 6.516093762706762 55.71485788208334 0 0 0
1420 3 11.864600732373193 7.606205817879358 56.107502514038 0 0 0
1421 3 11.053239602170388 7.525268390235835 55.01283738265633 0 0 0
1422 5 10.790509486877053 8.144511906972703 56.35662566340605 0 0 0
1763 3 12.332507205871432 8.26510144898047 54.5284970025627 0 0 0
1918 3 10.715715416872126 6.38892676885267 54.08338859455206 0 0 0
1920 5 11.006226765852949 7.51192230866464 53.66471200128154 0 0 0
1764 5 13.379633768710208 7.729227967573448 54.049800161394515 0 0 0
1974 5 17.37070767074604 5.4147968529736 56.8861997330789 0 0 0
1066 3 17.61297264590676 4.459172802977121 52.6093910206191 0 0 0
422 5 15.744673890660582 6.448999770779268 56.74912637185376 0 0 -1
450 4 16.96444042496918 6.663398842818983 56.517646629527235 0 0 -1
1143 5 16.372770995998152 4.916455032825074 52.75704277362283 0 0 0
914 3 16.335603792497242 5.5553032625505745 56.64577885263458 0 0 0
915 5 15.415449136526371 4.888880001258581 56.76167743176151 0 0 0
1972 3 18.22421891164429 7.714301775672803 56.22119846988839 0 0 0
1556 3 18.602991277312093 5.575135311919917 52.891926633799 0 0 0
693 3 23.27345664039734 9.239081143965802 0.5791031961714803 0 0 0
312 6 22.66876622958266 5.211157273230349 57.34903534382765 0 0 -1
595 4 22.749077110019464 6.784452956125836 57.29601363662883 -1 0 -1
1124 3 19.98912638914549 5.93339825811849 52.673204013027856 0 0 0
1555 3 19.678939049374794 6.552241372142364 53.870199832701346 0 0 0
1557 5 19.66607055036854 4.702342430142121 52.96846345689251 0 0 0
880 3 20.202861761769547 7.475273056730292 54.72987287679764 0 0 0
881 3 21.16857206613058 8.314040323649673 55.50046300218888 0 0 0
1427 3 19.457108905396378 8.449564662697012 55.61265439778916 0 0 0
694 3 22.32221126323221 8.005857771554343 56.34465702690083 -1 0 -1
1984 3 8.96471352297594 13.510199988084674 53.03171088803917 0 0 0
1700 3 6.829644980322436 9.587338688447568 53.26574529375708 0 0 0
1969 3 8.558164060938537 11.968905763891643 53.267071368485176 0 0 0
1805 3 7.99056377667673 10.478683901444551 53.3461926348144 0 0 0
1985 3 9.140198777257009 12.748518930910516 54.302835805196054 0 0 0
1806 5 8.934034889352962 10.32925969882237 53.580977499675015 0 0 0
1762 3 13.598353393228606 8.899847607383476 54.15394399234894 0 0 0
1089 5 12.540957380942665 9.247818440415877 53.829617520290526 0 0 0
1986 5 9.745411177977866 12.344866731185569 55.71919445757342 0 0 0
1280 3 13.45110871046607 9.998657063382602 53.37549863558252 0 0 0
1131 5 13.938533525188664 11.867299467912204 54.30737589519268 0 0 0
1718 3 9.580537609523565 13.286096010194345 55.58154152597716 0 0 0
1915 3 10.17622176012385 13.89365146003197 56.79647139038144 0 0 0
828 5 14.209420348471673 9.882802070987465 54.46207309950054 0 0 0
1281 5 14.532539353195004 8.982626812448522 53.560036709846585 0 0 0
853 3 15.745808779112933 11.424203163322057 53.237887020792584 0 0 0
1255 3 16.251472944665778 12.820387033861083 52.702423797161 0 0 0
1257 5 15.438764011863807 10.29280347010023 52.64694923780789 0 0 0
399 8 17.15375522231993 10.152692458177679 57.16881135071421 0 0 0
1807 3 17.335495388171964 13.441450954180624 53.79165305116956 0 0 0
826 3 16.977901604184197 11.68924021668889 55.16392819035275 0 0 0
827 3 15.51653225551831 11.06516584597497 54.72849380197198 0 0 0
1130 3 14.272056112269405 11.088172113213986 53.906166909775635 0 0 0
1256 3 15.890485938744916 12.714133616055461 54.413620498066265 0 0 0
1279 3 14.948080088079971 10.047145613308716 53.68003283952521 0 0 0
1426 3 17.560070149975882 10.685763880059643 55.86590525230932 0 0 0
685 4 18.33145065982137 9.349728307966462 56.13692541783496 0 0 -1
720 4 22.425758872608064 9.167462909621523 55.3402132560815 0 0 0
1428 5 19.768832352924726 9.33027763019425 55.26235653352694 0 0 0
1233 5 22.788370925997828 11.388824638553736 55.06497627039569 0 0 0
145 4 23.252252342259393 12.103360973950622 56.45334743752983 -1 0 -1
1042 3 22.896991377214185 13.464643146019473 55.81993521540741 -1 0 0
1232 3 23.147107286984117 10.616824333215497 55.59310275400371 0 0 0
1583 3 23.024101874749835 13.346706611986221 57.426548236035956 -1 0 0
904 3 23.26928382312068 9.780453630754565 54.22560378441699 0 0 0
1584 5 22.38812172105577 13.567026308981083 53.64807037365058 -1 0 0
144 8 23.61236262858749 10.675329812211531 57.054629507424224 -1 0 -1
1579 3 24.360654811641474 9.55948863416528 53.06830254482854 -1 0 0
1260 5 0.22516342043381077 -0.8617402492091745 54.74721587087279 0 1 0
1717 3 8.860726657674254 15.006741533010725 53.191232636263905 0 0 0
1609 3 8.818308937293093 16.877218672361224 53.26370396679924 0 -1 0
1259 3 8.957668766201813 17.2476215242321 54.883251590749595 0 -1 0
1258 3 9.013750103878728 15.748962107778294 54.52614192659384 0 0 0
1719 5 9.032360442756493 14.23988220985855 54.24898519708587 0 0 0
1616 3 1.6376468783176787 -0.7340149659130949 56.42146492286312 0 0 0
1080 5 9.376639046878433 16.220340569253395 55.74451775028648 0 0 0
1079 3 9.875891389268256 15.695038218379912 56.75470821181804 0 -1 0
1078 3 9.457641721183235 14.797578739058267 55.56065177618903 0 0 0
862 3 15.099397134347965 14.017851594300694 52.72119352464995 0 0 0
1809 5 16.26200790772247 14.21398805242757 53.79349723739132 0 0 0
1840 3 17.145256978662015 16.744842177650284 52.72066583017623 0 -1 0
1236 5 15.79258488139194 16.844572929726386 52.991538801375896 0 0 0
1269 5 16.645725030763263 15.725373278253553 53.2064719765916 0 0 0
1808 3 17.6587830383332 16.293451082405262 54.13401743485905 0 0 0
1949 3 17.554269921066044 14.87838026841569 53.71990907755921 0 0 0
1245 5 18.053950048261147 14.228620019664337 54.584538184497646 0 0 0
1244 3 16.850309919910554 14.001889171787951 54.91332838135635 0 0 0
1950 5 16.612801525900448 16.18960202658664 55.01061904204897 0 0 0
1948 3 16.346107466381877 15.313080242490628 54.247778438522445 0 0 0
1703 3 16.29752292829181 16.517216715235435 53.88770417591881 0 0 0
1243 3 17.551416729245325 15.302644883208144 55.2214427741545 0 0 0
897 5 23.487917536748697 15.886466557756307 53.15795679425426 0 0 0
1787 3 21.27594289456881 15.14619132543652 53.75784521897218 0 0 0
906 5 21.256688082251987 14.679147463003881 54.90622669153049 0 0 0
1582 3 22.133755645061633 14.09595037324681 54.3199267790655 -1 0 0
590 6 23.389366574377632 14.55221981790169 54.96105689348009 0 0 -1
782 5 21.289059203576635 16.264424214098295 54.507102494740025 0 0 0
783 3 22.12640328003974 16.26743780941859 53.84538293395414 0 0 0
784 3 23.425358480456232 16.105781465991804 54.508251979999656 0 0 0
810 4 22.427505471013177 17.299438719757568 54.405749872817694 0 0 0
1786 3 22.12476414853043 15.444089041633319 54.98477509970762 0 0 0
1896 5 22.41496607807796 16.561004051400293 55.22171249361429 0 0 0
244 3 22.860864078984918 16.745834234338595 53.1094887243204 0 0 0
949 3 22.852359839888774 15.073616560406391 53.58398860304111 0 0 0

Velocities

271 0.6276244697061149 -6.809593834651109 -1.2367507353661253
896 6.32028667691917 -17.991658027874337 7.79959477412577
505 9.99188365762128 18.28695130092627 8.962436837994954
304 -5.987547616500764 -0.46756298874295416 6.591959495876579
287 0.8522949852151117 0.40652665007437666 -0.6625714262692939
504 -1.8410981088411171 1.808071145106123 0.669150893453708
333 -13.253669393704703 13.39306579719888 -1.813408094959099
1617 -4.076631659285128 1.7283115810563103 -1.9773021484154494
496 -0.7628980905428994 -1.717298142120365 3.0894051145476173
579 1.208760499497744 -3.6212564273555774 8.307524692938063
1234 -0.07579779068790313 -2.6698272313909372 -6.255924148629417
296 15.118733632011976 0.8479317140401006 -3.301310478658761
492 -3.2804696304941525 -4.0117014688795365 5.065506661573473
582 -1.493134433736499 4.5883381052944925 -0.928881026639183
545 -4.008934634396452 6.571984801872238 -0.1255379830123783
62 -0.549285109497636 -4.366840734084346 -0.8406695706968733
562 -1.7392404946345401 -2.1442101016543442 -1.8609258403084319
1324 -3.3522254129938056 8.180533504900911 32.780569386838884
1166 11.308504398666098 3.050856473551203 6.458847191158446
1325 -10.632360198240889 8.523128702391604 19.848895689103752
64 -11.18926032543597 3.817009072983 -10.781674405947642
1702 15.450852778317092 -3.5808167849633787 19.556418733142383
1022 3.827876560300646 -12.718694601229087 4.7060271077568
1165 4.662251857249103 -3.317431306884792 -15.03225551181122
1167 -2.497336269038171 2.8268729429029085 -7.0813601876732895
967 5.640104886432617 -6.047896826918329 -19.64605546745486
235 15.851343469078847 11.686026448623641 24.220258057739883
969 -6.249945186984477 -2.8977660679452635 -1.513668671903945
1021 -17.66373983381745 2.9272800329009665 1.5449518946496226
1326 3.7201701222598578 -0.3655876640783923 1.9605424363313824
140 -0.7805594056664301 -1.3850830163618233 2.0794672979571778
5 0.23866338694194514 -6.072505585615285 2.624914615816918
45 0.12176933973827093 1.052908046883425 -3.4721271296915703
196 1.822818488517838 -3.7609326060361696 -0.9750738579657526
39 7.3718793969026 -1.9165033767885626 1.8230600162749082
332 4.938671369617244 3.7078344834063848 -3.6747303027989684
26 4.751742027443149 1.0983785545580793 -2.4486519956810087
594 2.1344617227148177 -4.075165781643559 1.559462308682585
656 -0.5009894017155376 4.828130714921028 -6.4853046442424995
1322 -0.8078639456443704 17.489999752315214 0.17552580857276828
54 4.779741599306147 8.846560599635138 2.8921388175722984
847 5.20644753238305 5.425976001486908 -2.991306352365522
1285 5.155801025647689 0.9036163938505045 3.246881852487973
1287 -5.481784704496768 3.295301061710663 4.645203341964018
1321 13.277918762169955 9.672455066381378 -28.13800396776636
1323 4.988690441566874 2.1881697243848692 0.03545889341179178
1898 21.566916076353767 13.514647158436981 0.08235739349704603
55 11.758579945997287 -7.207144574704281 -20.68178128139215
1158 3.762327986860128 1.3126404054466372 4.017020427877855
91 -6.176574663388445 -4.270714142867718 -2.628920771418823
1983 4.1704069680770965 1.3175047154062391 -1.8673801942509785
123 2.2803902596028407 -3.7535203150241903 4.390612700377364
1157 7.668060917764267 5.052754274018742 -16.30541292672058
1360 21.288955012160685 27.267644285915228 -0.16008896120699037
423 10.270591898335152 17.998292636015062 1.8789291436958664
1982 -3.0580852751578127 -4.116413322756626 -10.787189419142855
390 -1.5667333872711737 -6.140075679023208 -3.5706054273867784
63 -0.6078661828479918 -7.095975253951729 -1.968295311037565
968 -8.865037229128696 31.05387314354867 8.556582279339857
17 -1.2452748597848202 0.462973803624534 0.688824955448008
30 -6.750784569763297 -5.200127180804996 -8.776658027468555
22 -2.71315839404646 6.255514628881347 8.202231900325964
116 -0.47622216395190364 -5.158630219410731 -0.5343858456274149
42 -1.5148613782116116 0.3607777439863868 5.7186372917240815
394 1.8370279965945389 -3.6075078759103643 -3.0737534124874886
361 -0.07414802547359478 0.9572609850674673 2.477614129243495
1973 -5.394883360367138 6.692413838795436 4.057203157413277
90 14.989637722900156 17.97346620923628 -3.6576804899682767
913 22.50350148442869 -19.46641457760389 -21.026126716023036
324 4.361220752299054 -8.012287728258462 -0.37791574217734797
424 0.21317237750617243 5.872366880119365 -15.133723106354488
46 -3.1160826436017786 7.441372488311872 0.14939850947253666
34 4.77389273353709 1.859504048171213 3.9274355338888314
307 -8.538800334007059 -3.2247156304956235 2.3699462051700744
275 1.9970534362624857 -0.13151619993068925 -2.404721232268582
292 -3.9567317464496528 -5.248735289904907 -1.9084286487661999
279 -9.261928910560277 2.5873914356757948 -3.258728310321763
316 -4.35178133846575 14.07728700367147 -5.257208350692375
373 -7.046765660809739 -1.3726210063041604 1.1945476839871523
290 -0.7618715161354868 0.6170024455358373 3.377974904393095
319 4.848350409373036 -7.566948270718682 -0.9614050521355254
274 6.03064471889526 -2.009853495920886 -6.902484350741617
386 -3.060804929127361 6.47219652796148 -10.792221911778835
692 -7.63414415892819 0.7531533441237434 8.062373503415508
672 1.6564114747522471 -1.3218701544559541 -8.07125184228495
770 1.010036431268596 -0.10026484756779161 -1.4710087253163613
153 17.47602996419923 -3.1665621469728755 -5.90516882201935
652 -10.308633585741715 0.8083899288784204 5.495380197683406
660 -7.933020516977789 2.893381988826612 4.215396128627642
214 -3.2115693827747664 -7.715781144261677 2.1142572518434086
106 1.6872988079291733 -4.254900125312003 1.9607424562533267
206 6.225514356802919 -3.5149437070930594 4.255130142036861
181 -2.040985926506737 -1.0482357246640859 2.62395069365174
152 1.9509222502809906 5.129330489298366 3.7569437731396946
132 -1.1452854182695613 3.378237745562796 2.022737117387082
120 -0.093235770437971 7.106130545612545 2.180561300024297
154 -17.166257476534376 6.9660185996222 -15.956707188059733
95 0.9584628988189852 -3.204744058258686 -0.9471511583220925
99 5.717787352607103 1.2401407473426695 2.7740170024214845
129 -2.162469567848584 1.2556794245868177 -0.18068236235530358
414 -5.894961303051657 0.493191777768556 5.140448396013252
415 20.651025160045815 2.2856097701925338 -16.482699717589472
513 -8.008998580058375 3.5344810924095498 10.110267914776278
180 16.978067275529728 9.639024467910469 5.484542183322951
376 2.3644414567522225 -2.0083609928385124 0.680714913831641
1758 -4.082079399365807 5.67599657948201 -2.0353469111362346
484 0.12346083396401822 -14.366034267146969 -7.847600097027921
112 -3.2744107494020303 -1.551563008870148 -1.1653430009868544
20 1.4269939649460133 1.3667199589072974 -7.501697837798007
1917 3.5895013494741264 -2.4710832908625946 4.5414042748558145
365 5.454139918211205 -2.417540789223696 0.9678299417155962
369 7.14945839049465 1.2529095135978559 -0.5250083769507252
402 4.919698260237175 -2.9984344854336946 0.10583902708170256
406 -1.4583764901510137 7.769235356865476 -4.804814032501897
476 -5.456275156185881 7.445808747546194 -4.455047444696052
684 -0.2746032632352281 1.6416180974834953 -0.8169548265854104
472 -4.251460398061429 -3.2203897224742133 0.026269934791845508
382 4.263485114082799 -1.894293223993291 2.84686035064797
1756 -10.744253852284345 -14.776936105277873 -10.749530624152838
1491 9.718834709410148 -8.12192341085267 -10.769997747038081
1759 -13.810624290355342 -5.6299771636553775 -10.568300084573547
650 -1.6034178117571793 3.4112792820185165 -0.29558798002023673
1286 10.32431139906649 2.1577820170987727 17.091021009496657
635 -5.420149416074035 1.2034311441537093 4.7845363671604195
1044 8.520772921463413 9.028079521972682 -3.309404016898267
669 -0.31748363235246907 -0.518645238490652 5.540376533173771
1804 -9.872732589903542 -12.06765430806522 12.292961238663521
922 -21.36079910607209 14.393929643783412 -1.4098005866225916
774 -11.274584253305775 -3.4076979241514636 -4.920936853701695
540 -8.826631172407746 1.7304831714319968 -12.50717620490429
1235 1.8603825372284073 22.61966302824908 -38.20305932791059
514 -3.131166926088993 -13.747600163392361 -12.060272330032383
923 -12.942191306578888 -0.9544303047410035 14.353376971932974
924 -4.994497170310807 -1.8446441060914813 -1.595354732277479
1916 0.31535864177656014 31.796160737930776 -7.421840546092677
1490 -6.723051902939555 8.860458773334635 -11.818909859242298
512 -1.822732287817665 -0.6643421247571666 2.5964328356228887
1757 17.865278529364613 21.456996198209715 22.337318552838266
818 -12.524574208896249 5.485839309891406 9.9016815763418
1354 -5.4931602316581865 11.4790024415826 11.905337996205125
1356 0.2639670999867393 -4.406254019542345 4.13951058862662
489 -0.010081633113161901 6.6308390160392126 2.7978413504980244
451 -1.8013225099983372 1.3606450120166171 -11.33941728002852
455 -0.36390644908938286 -4.008431134235291 -1.9923603134570587
775 11.661307320409144 -24.06790933627797 -16.10308204587952
1090 11.70577129672195 24.41697292291161 -2.346152916070851
1355 -1.7309427270886997 -10.126339220665997 19.000051597123115
1489 8.031058534837914 3.864969054054321 2.056817387561897
817 0.16406211554755365 5.570129359811502 -44.059975732240694
819 -1.7917104395927883 0.807831905470179 -5.03921861719362
1704 3.8899168940661 -4.8178052848853605 -2.0854052635517513
1091 10.500959954924076 -3.010856066800876 -3.8718898752904107
1092 -7.525266390660593 -4.452938125513351 5.127743332736044
1231 -4.44255131236263 -10.773335498396644 18.650537109325686
1023 2.7129656724237328 -2.2294189518947074 -2.2305734737612046
566 2.3893882371832067 4.280657105230841 -7.9420776608378
725 0.46738476863015543 -3.0606094144322666 -4.6563565093060015
742 3.7441811084126284 5.464938856715088 4.789020959249664
762 0.43572296241583247 -4.108412154443792 5.188765962233799
759 4.500095145170391 -3.8422547979406096 -5.226949302851692
750 3.458332025606557 -2.259188808630311 -2.050430741361799
234 -6.597374006561873 -3.2457531008566973 3.9297774858583843
746 3.3208220377790427 0.550826658689435 2.4677713999773787
1895 1.3665465261099237 13.417786885000433 -18.993262147434628
197 -4.384038484319809 -0.3594463379744844 3.023124994558918
185 2.27242215910906 1.3085727541279304 0.468963507728942
50 6.431419391316127 -4.613231878855653 -4.404877569457717
189 6.829942871853722 -0.8293626691104521 2.768591075154844
222 3.376446831130554 -5.22470981394634 -8.935510595904281
270 7.0178508486704585 19.85285429552557 -7.154129976592174
226 0.9889424674244016 0.2990674304445049 -5.203804384690506
1043 -7.0398038934906335 1.292603438215872 -14.996435943361629
895 -0.011798881081642978 -0.7800992974324158 1.674920832337743
1894 -0.4085596482318154 -11.942944112675981 -4.878069802208284
219 -7.851327332684263 3.036434307742761 -4.143990863233821
210 11.274857290156863 3.8918908304457367 -2.2981218560694012
466 -0.25316200213121326 0.20085464650914647 -3.7944172319942853
467 -3.176269167412281 -1.5837277820921274 4.640563014322737
470 1.8065442069891025 4.701323220286151 2.221311835513677
487 -0.7778179749647142 7.912225674741351 2.2622260590912617
552 3.98974990917972 1.5431178992332781 2.212839093136163
459 8.155057405437905 -5.189169081020588 0.2965044073053302
323 3.299351811356081 6.422347079490071 3.1289474718611476
315 0.7454395166178248 -1.5327763692823306 4.572347746373729
283 3.2350693028633666 5.3324116573247515 1.578418360345858
310 -5.5019767190664 -14.945821037552436 -9.883145463215952
713 -2.234508922498447 -4.130076445076947 -3.0800503218989714
193 4.941041525266884 5.434815582689156 4.370054238427916
462 1.1203847914561422 -1.921563634626485 -4.538498591908068
353 2.5823445673546592 6.522812596364818 -6.160767875242593
630 16.711305053184084 -47.93159210984356 0.8632261744651835
570 -3.0763030444656647 -4.900342923494426 -4.2689921863010145
604 -11.625138576604018 14.496674526467316 -4.637450403557252
541 0.9023732431762892 -1.1371477203528129 0.8931809455578719
603 10.506246634196637 5.890033895707324 26.60222131085194
574 -5.998640106190346 1.45472605430333 -2.525487533727653
320 -4.3638523437179115 4.099615491305091 10.305638186665243
557 1.017585396788917 2.0414772683963736 0.3621181693830294
560 -2.8039594948688293 0.752007923611553 0.9018169181123605
602 0.7840030122570231 -13.526382246245397 -8.18269121533864
586 -4.342521674338321 -5.681011265982786 -3.869185937712362
12 -7.344331071962966 0.46752358659820015 0.6980070596309006
49 1.4389540196825334 -1.0592698604906041 5.364686684638769
184 6.121890851168032 1.0604714391939472 -1.2978202326109252
553 2.785086420197566 0.4839637656821669 2.345512903973957
217 -1.4508138725319013 0.7682591194528038 -0.29057094165322156
573 5.914189234512505 -6.504808121059972 2.8878848961336816
724 3.335706376998306 1.413057454228926 -0.5641243739307943
740 -1.33758343524988 4.281579090816777 5.0126106290106485
8 3.362021853999668 -2.6597073935359625 1.6953939040693569
53 4.315922067433566 5.759474782209077 0.8349158655550587
84 10.918425056526154 13.446220336111706 -8.610341258175973
25 -4.369156705989807 0.62628741921112 -6.161122317560944
33 4.467177013727074 2.890116954605973 -4.691337709530927
300 -2.5630973504617987 -6.980982089763094 2.249863463856901
13 6.854577602770089 0.08192003536823626 1.7166959404819473
1 6.23569310337712 -8.236193579791259 0.8991098143667509
282 0.6737595477536859 1.6073842012157025 2.097396487741056
251 11.968263770872184 -12.095503664569746 1.1924234765067596
569 -2.570181790788295 -4.255560794020169 2.066863252814992
303 -6.620457169192659 2.265717151689817 -6.569108884599807
616 -34.246570180237306 -9.836674475447445 19.809925602757044
577 9.170719416049385 9.233876485329608 -5.400855232553764
593 5.165394588749898 -1.0191880551901198 -1.8758409469969308
639 5.0064283639612315 -3.239430818274584 -0.008181877188816702
139 -2.1325237371723063 5.853424895436521 5.750890469245425
107 3.7617409779295268 -7.290966870621451 -4.311328522651971
410 -5.921342421178246 -6.392498351273974 -4.950288609726871
544 -6.346960279597584 -1.3872123122675153 0.9850582703878479
556 -2.3598500451244604 -5.541689656334706 -1.7675916045162126
631 -4.438185746637284 -1.7782944334458892 -7.5310725332929795
664 0.7225161865108115 6.475616691811519 4.380100479717698
643 4.139922257830368 -1.8417610636516693 0.7974411526319243
663 1.7694966987890917 -2.1300316126151695 1.447612576234424
124 1.8997675295892231 6.269782893006144 3.0979384467974946
549 -0.17979015608126023 2.756527246200153 -2.3004520846439416
680 4.16375689918329 5.342532774414368 0.08591057959939659
16 -1.1879564644844802 1.2025388218614352 0.9097077864048643
230 13.538320974497054 -2.5763046190642576 -2.751045716395956
9 1.8558617562850952 5.980420595575551 -0.711982988839369
4 -5.730518217335535 -7.0448284710961735 3.3443072128735447
103 1.1843309992315592 4.473095629379943 -2.134756942944125
638 1.8942368870776878 -5.948082232706775 1.9805290077532818
628 -11.152546494874565 -54.52542936085446 -2.8318120840925096
614 -4.585806379286239 7.219144862649948 13.460535044183795
286 4.39639802740962 0.5063916078956071 3.6157393556870296
393 6.0974373878055905 -5.080871038024145 -4.367923215416839
679 -4.724392719199559 -14.356490650526544 0.5589011183822089
589 2.48830594008629 -8.902857710109576 -12.038997807511413
350 3.134185382868179 -11.926050886636054 0.6897549576932765
691 -50.11437978262681 5.432501205931834 -14.69243651279504
655 -5.2187132236158895 -0.5316614549400092 4.739687691891569
642 7.376155765696368 -3.4611434127572385 0.8331090408642403
683 -2.8635975508639153 -1.1837991762832814 7.134183388431369
136 -3.7509317356495315 0.20815818554597307 2.591764843379659
94 -0.4013256235446326 -4.918043183468581 0.005021120502642964
127 3.373933462395503 -3.74631222669654 1.4374242936861223
205 14.976386526848735 -4.945561902729745 0.21423153093067643
213 3.3784192592576683 -7.03568197320352 13.033747815081506
703 -2.891423031532275 -0.8040645541483629 20.871114540405358
702 24.95669566507994 -17.646947177532418 1.2908879949837653
171 3.915988324778488 -7.807736720120723 -13.651783252313457
701 -6.069473801817704 13.117890171427085 19.00710286338701
377 8.519331005028492 0.31541061079135213 -0.7928230378070746
110 1.4221462258136086 4.542430626025231 0.07795251252359194
119 9.721795922673255 2.2860953976453597 2.2717517381700048
172 55.36849975260017 -14.427829789873824 23.526059851485996
409 -7.114939356887995 -5.495646916637695 -10.279697526696166
102 1.0789446369130602 11.839765634482422 -1.0180699415303496
135 -0.0255454170621161 3.594122669272555 6.964110211487526
143 7.6757101679142465 -3.993475131929021 -1.4463656359219217
163 12.49548426156994 24.038896991113525 21.046348198673016
364 -3.076389806798307 5.393464378970268 0.32065608072872365
389 5.120104317005131 2.7076599391069354 13.00048017256661
483 -2.6155393577408836 2.1429607445752326 -5.713300491381254
500 2.8116743377103766 -2.8119755339281203 0.4515314425213003
372 -2.1893978249615516 2.7227572806497715 6.683839623740805
397 -0.13902728258706135 -4.7216886154704305 -4.957211304954666
380 4.500920738499741 1.5800949666805626 1.8066362525526098
413 -3.9811022881902463 -0.9931959445481037 3.5292239093838282
690 -4.361253678957252 0.708781695312008 2.9610182110948093
659 0.9716626604630657 -4.557890596286989 -1.4627921969168305
754 4.472233751919405 -3.174860277985283 5.290130618061842
704 -3.4731510330376194 14.009051253756544 14.122339071773753
646 -1.4305764273305372 2.263034737610756 8.971093275607902
634 0.28191889675143184 -2.5835432696755634 -0.8314423450690217
667 12.069795906533075 3.5988113976105476 0.7845531975184503
753 13.0049884673993 3.0559310276770737 -4.7461816478939065
705 -15.883413534399368 18.88360293409342 22.15244431521554
706 41.226604843384536 -42.876236674883025 -44.52340289407522
651 -0.4927756784879515 -6.40696400419812 2.182631000816414
647 -1.2954817112146333 1.1638988119368416 2.8116023656496236
676 11.25526080920013 2.7515347077635357 8.691432934233807
733 2.2707538636388027 2.18758747785394 -4.414233068403398
202 8.508822301822695 0.0581719654462393 -3.7651065639739842
278 -4.639638916966436 -1.7181982559358113 -0.01637324247948328
330 4.109660050682436 -2.70933195463089 7.950671669653686
201 -2.678224971932818 6.57981259220936 -0.0634502694262846
253 37.88247597514554 -8.182971943434584 -2.943593943709345
240 10.227515524001609 -8.455668561015205 8.522313736121712
475 -3.4662820214106613 0.22391829278496794 -13.0402666369269
295 11.996903961268485 -0.4748231265507019 6.417197979131798
454 -2.8512108647555188 6.369219911977761 7.314176281934428
711 -4.09376074398076 -13.060977259513276 55.96253572615695
521 2.6710424210324817 2.4426816647578606 -5.862165659010051
480 -1.7757136813643246 0.6634013249520277 -7.559689467160452
736 -1.2102782775823553 -9.10828776308789 -0.1950591505642563
732 4.273412013920546 -0.7285002228023522 0.6784526336807284
794 -2.1903251961109893 6.3997704575841095 -5.072391122141611
769 1.7660853969425594 -1.2171103721600731 -0.08118921577690136
511 21.900233313156164 -0.8666915791414088 -22.585696343045143
773 3.6502642347125556 -0.6313274570039407 -0.9476862061003601
463 5.065721923748521 -1.4430790911213218 -5.7363242390871925
757 0.7730989348005469 6.803308953149143 9.503941829875552
721 -1.8576374080332823 4.576537442651611 1.9720170111322703
737 -2.8679196883104128 0.29524201000239914 1.8782567076494514
766 -5.223183433853287 2.403788972190795 4.386419186521663
729 -0.12137153182773246 1.8950515288214071 2.119562189653517
791 2.9497478804357464 2.038953208977342 15.526583848486975
792 -4.575714103699812 4.278780313513346 -21.018914015122192
233 -11.861049784099576 -2.819980236773442 5.30881512067453
220 -4.1815030435048275 5.156112823459472 2.2292273725619234
354 5.843953333955124 16.515836910106014 -4.9135027472812185
229 -4.667912757780581 2.8825434457545187 -1.662567687989255
192 4.45159013339683 -4.305074666379905 -3.286447116343551
200 -1.9109990777494756 1.694207963372596 1.9925200064586566
225 -9.153366290119965 6.964010875498245 6.523746872532919
188 -11.42488055377755 -0.17356154571229082 2.303284984636596
81 2.831210590163702 -7.5662417696719935 3.4220469190280505
561 1.910191741291064 2.807635737075891 -2.479978645806269
580 1.581102127294613 -2.196389012877399 9.89839880750195
599 -17.186221485071528 -7.196092227701027 -4.974452627552243
600 1.1634675992684222 -1.3241896957978723 1.149426062916822
548 -2.634120055395526 7.1146989971724635 6.437591430011947
82 -2.5189553252018877 19.056452699183964 -16.110497649739624
168 4.5479002298706055 -8.821486001230868 -14.066435213395632
585 0.7399688698890029 -1.6530916337897648 10.997260770296588
523 14.942473157609133 15.51102280496955 -21.49937560937649
601 -4.522611477411218 5.290246943518457 -15.443226917699958
86 -0.07938804596124363 -5.126843534410286 5.749708318493302
88 -4.1994159420351584 24.84069991348479 27.787253891432577
21 1.4571423243904917 5.609772484257243 -1.3299481016664667
625 25.832425911660813 -10.709371230559826 -22.420278172869583
40 -4.251826420892203 -1.6598796813712842 -0.258678871550432
85 -0.1662089701358427 11.890427933021812 -3.4691493074482733
80 4.027212599056422 -0.633046853268106 4.477307922105088
60 -5.955698840973098 0.8413419235716519 -0.20860474474232646
61 18.50346840933354 37.639130635657956 45.358945946579304
83 2.5746500314437886 -2.475193153383569 2.430093289571814
358 -21.156255043042407 -22.647057956608496 -2.081230522815606
209 -8.272989724073799 2.899876286509845 0.9184205349053719
70 22.256424836143932 -36.55528463956184 34.33575422981934
314 2.8608222973237787 -3.223924268157042 -9.85402223453725
621 10.07697877031134 -34.96275310582598 2.760438060868983
357 22.607863394611424 24.485855169397677 -22.11848009731512
709 25.20501070669562 5.286489766298027 24.62825240148163
331 6.931153068131164 1.9101320409881641 22.288225079786695
622 28.992727877168246 -17.052285468057867 -5.1008975485106935
328 0.3566317539803453 2.158328427782274 4.7325959317162205
439 22.081594367715034 0.6902707790804169 -2.030701480136384
291 -5.730721855083866 -4.658626398417641 4.32014301337276
338 -10.643622890751894 -0.9940057966476311 8.05682922944625
388 -3.3640530068679797 5.170212985988043 2.440657403498752
615 -1.1648212821468482 -23.16133609759429 -15.185122607040256
715 -9.111589370666232 -32.5371577567095 8.660164611501825
169 20.641777354183958 -9.768951747019143 -11.783161627517638
611 -3.6731954473059343 4.703010409603086 5.821834442266021
98 -1.2885014190360526 -0.22438565780588735 -1.8676440665472795
115 3.6218627666035643 4.652088644361866 12.951414338442524
612 53.91113278451979 21.26399917746139 13.068712640225002
29 -3.8099411178514404 19.858286207465348 0.5994762880685823
442 7.167684936642625 -10.289049870736154 3.050788870828014
37 -1.2510099034641078 -5.2773170708766814 -1.4767851900473576
620 0.023978223690376735 -6.384946389737554 -3.4238236975003495
714 4.177861827960295 45.46254976214586 31.406012347539345
613 -36.97959391423076 3.0860480337733165 -7.1576618340474605
111 1.1740939842888725 -5.109547771229878 -4.027524868549275
130 -0.008384958650188347 12.895008750372396 -3.5717536292542773
441 -15.818451010916936 -15.992737794763691 -4.31216917334445
265 -20.917598160868092 -17.39659912134291 -23.241911850265176
385 -2.7421337185990113 -3.648235697102191 5.671158237855444
71 1.7183673486111828 -0.2339057525075345 -3.090333731114397
311 0.6374651281560977 -4.9967297582925525 -0.38826838112037243
76 14.403124836908939 28.241655713613802 -15.070626058971545
346 8.485362192989509 9.04166218582925 -12.707218310359224
434 -0.43167773597342046 -1.6051993303865133 -9.072223846492287
436 -7.909583974352334 -7.054607744368662 41.165666162802225
299 -0.3978605917837135 8.345978800002799 -4.500881990614568
72 8.290422094580332 37.76565129383713 15.179789075655789
74 11.709908703545238 -5.698470699151949 -6.910237073615659
344 -5.220878188964574 -7.112692895255128 -4.828556808707733
345 -0.9505847794067381 32.12914389461852 -31.248690339221497
75 27.234123942611305 -7.921258596193958 -5.980558818634849
381 -2.4003516174880555 -0.3878983811834115 0.743152216740285
400 -1.7176333524318812 -0.6077740306806891 2.104481277131988
707 -7.765083126743506 -5.236165927905843 -1.6362724287964214
626 -8.402534323665371 21.060441451111977 5.622628976637485
627 49.987922178452806 -13.535135702846333 12.801854875102968
342 21.69365515545282 3.162064075395078 15.263039249325931
670 -3.1048048818002716 -2.635337180502534 -6.166527749027085
341 -6.56071127329873 -6.757180607493503 2.8161601528331675
343 -47.858753969692884 46.74649701328875 -19.379858384560425
421 14.320651328554538 3.243585994211559 -2.4646601194169135
710 -1.4038727491853813 12.646799371205157 -5.320211258620936
178 14.955297574059069 44.91496724222903 -26.8127802302684
161 1.8546746886423524 1.1482610127806911 1.5960361542255594
151 -0.3757649951582774 39.096007301741764 2.6813190006284913
162 -14.313014131157878 -1.3574735926520132 1.6224972547407102
150 0.39864997241551264 3.9881818621552485 -4.25850074615199
490 4.065359689718092 6.4814354360792805 -5.202599893232389
368 -3.725809807403534 2.9282452870964257 1.860375248731973
420 -3.9211277763820553 -9.251064091009125 7.8614612111134985
435 -17.898922680971488 -18.84300842307039 27.675605978619938
405 -3.831211672192548 4.5585313349178564 -11.609684005040423
73 -21.94261539847767 25.44150766115006 12.223406799082827
447 -37.190826324795495 6.5391551986075935 -7.788458508763373
675 -0.16200266031618835 10.350333364562864 -11.784471029935355
431 4.832932061075513 -3.5613528416052893 3.5457238527659816
433 23.975503528275404 -38.586906935561 -31.046926397674184
261 7.152595743863118 -22.310040654574212 3.8803552735553697
745 2.391425696191391 -1.7385120142253934 -1.8652047041236302
432 -23.203378825274818 -16.017323880232315 5.096372314464306
728 5.122408113763415 0.8573435561341092 -3.9448007914286682
760 -2.195847049881535 1.6939172775465232 1.6093990325184375
780 6.828912673969447 -0.6945839358272407 -1.6714953930147927
256 -26.530431394833766 0.24812784305342853 21.836882836585726
531 9.247481563108552 3.8709722826882507 10.537936005850117
260 -11.552338989929952 -0.32223022069218155 0.9812269285287921
355 24.67915380338782 -1.5564011116662038 -29.80714479334505
532 -8.183512877262539 -5.214814379066574 19.431558124952343
252 4.228315914806468 -23.673653824937222 17.460124998870583
538 -22.64782194264167 -1.6296817728605326 -16.07786447265563
187 2.240974920946335 1.913436401360813 1.9548271301115456
78 -12.847547471798446 10.815860743557211 -26.05384435381531
166 19.479008430589936 2.6111312358414804 -31.417480797901334
239 10.704076006815306 12.61249962651046 10.077533800171235
164 -4.515396181054199 1.553097200589754 6.210033681475062
495 2.0782398510911104 0.5773273857451449 -0.1186721225171232
241 18.791992489675533 9.284748084853428 23.814954172728022
165 17.243678668997457 -33.12525359451212 10.634862621247393
499 -8.976391719943654 -6.412723027667759 2.287684119581581
479 -3.852492142368642 -14.246940693169739 3.370708232074883
503 3.3256045623372024 -7.390590088554425 5.361260543097136
458 0.9058214739639181 7.159437915846226 -4.699685264740709
525 7.054926638943373 33.79656545857303 24.090822191883305
510 5.844069562051164 -1.7083974282860372 5.2019364649847715
250 -5.919485278178732 -2.590541573960541 5.601291182471715
522 12.524817448753083 -7.946917403468705 7.032964915650774
524 -11.0174973589722 6.845289175913128 2.952385817889174
526 -2.7277778272488766 -24.00514434216183 16.473688270777515
801 13.289776898026657 1.5425796501365976 5.655182621976336
712 7.267391851371433 19.96107903170752 -3.3343243652631083
471 0.9305252251914247 8.763922422348822 5.570930383883159
440 -1.1379197791557676 -3.5675578000328696 -1.5385715564550966
530 2.025154879535813 -7.063035173474316 14.189713533904031
802 14.918243485338099 -5.496322644370538 36.54692827458232
565 -2.17726860538235 -7.6556576223826065 -1.8317571624053286
617 1.5756346458616741 9.016801012413824 -0.18838903621269595
87 -7.223630422307704 10.733218572631893 3.4354012274476986
808 7.821176787994892 25.19124483701195 -2.3115480507656794
765 4.940254190676471 4.823498350907955 0.37736553489194097
623 -0.31843615883353504 2.08226668466015 -5.654401152520813
749 2.628548932142995 10.427670501932678 -2.4304047961406914
624 -15.657874654378068 11.154582963344268 -22.38135256373954
781 0.4223639861645478 5.948186391901597 -18.35086785633048
793 11.86318110308772 24.295752104268665 41.9501284944303
795 -26.88970382073684 6.337214866646238 23.669308005809384
796 -4.058431798361021 5.723238300399112 -33.7472615809181
806 12.139786947837571 4.497887632433646 0.628499501390203
262 -4.788303982675019 -31.970540755928038 -35.14227494056451
800 7.132222450280433 -10.755983787703602 -3.3057909800612024
807 -0.4167455545616191 -32.76582640044195 -18.110846097173116
608 -2.9112408454436864 -9.372377373154825 6.152851728194428
761 7.59317632619078 4.7963373361021855 -0.08412187674237792
254 -3.9582863689876326 1.2739330346882765 9.409676896316558
255 5.163588066991275 37.26614742435065 10.22597523391277
268 -14.572061479894936 4.846653965366289 14.552157945543266
238 -17.77664276902957 -4.132063286692114 5.759611914699385
294 2.5908922361578113 -15.121970640424633 1.43116707045989
277 -5.569520980997381 -2.2801846992963206 3.74598734509173
273 2.8654829538323 -0.5778442440932254 -3.271693209946084
302 -5.459755786898677 -3.3426760831957383 0.031133170763086464
285 0.7543964446545017 -4.788860852371687 6.043017823952089
391 -1.43569349014375 2.2338991959468983 2.4165417417706387
581 -3.052275784491366 -0.051671040514105496 -6.508111979535781
598 7.725016654042962 8.692495371756817 1.0012488275023135
339 12.965402960165658 10.75024216513747 -7.631063571040302
588 -3.2085904279088364 5.283750460286863 1.6809368008911423
547 -2.7207776858789905 3.2121799816118735 -3.9891536040741284
564 1.4759135597665676 -4.273112127837812 -8.528067151024336
576 -9.371510960046146 5.948206518963319 -4.5645531067496234
584 -0.79413605708225 -3.8496346661517973 2.454049902746328
682 -11.137709857513398 -5.92639363780558 1.0886227796780283
661 -3.549911283442817 2.091719421350067 4.15156509826522
575 -1.9575191888330743 -1.12905942982939 -2.9694428794312193
551 4.87348720555782 -3.778861943479822 -1.5316881301649923
543 2.173537760264128 -0.6760883372894636 1.8562131784616422
340 9.379263195512667 -17.11098147547953 3.6747278552440257
41 -0.1381746559369221 -3.2887300572554587 -8.25807218325679
24 2.37694854265125 -2.882139212009641 5.530079412502369
174 37.162284561439826 16.461133704333353 25.610938204950596
173 5.46952929748699 -1.573116125931175 -0.4584139615737126
351 -10.858634434424491 -34.712800179926596 19.179532250950356
281 4.355505106984112 -0.39018146141895504 1.0523466212697978
356 -5.486021369937398 -6.6491858941054 -1.6434964590841215
352 2.854868678776406 -26.350544168331474 21.759292037063727
36 4.062769851100657 5.207096383150642 5.93485163141035
175 -2.92744256916184 11.87614516937886 -53.545621611026654
7 10.700396808954489 2.7048447771713966 -5.216489167981169
3 -8.677498446793264 0.15562669940937462 5.087006880216083
32 -7.317695587979765 6.157960951299225 -2.0204069024552322
58 -9.621970806362272 2.712717324325476 8.19729911061465
59 -38.86720067499191 52.797980926068455 25.519871431118254
68 -5.825692998756371 1.2171219621954006 -5.025682282419973
306 4.111470103174021 1.623435448875292 -8.485820401154497
329 16.255499796735656 -5.818558269152254 11.077786259816696
437 -6.590184288043781 3.580931724979583 3.5205622496469293
708 9.733950491130498 37.97225095069284 -16.144271565859594
438 28.772364476403222 -22.451023044517967 -12.854058836942027
468 -0.894566084766072 1.1115699987190624 -5.987928385395918
288 4.416592447277122 1.5563812925291052 -1.773723293359973
215 10.44244553831957 7.437759785960372 3.1527080750270944
284 3.34700165196216 2.4634694449720786 -0.5478140515426704
379 2.6719534991095433 -2.5942711724668768 0.9845200224521858
666 -2.3839403644351056 1.565154286503291 3.6900449186543707
648 -0.5035120589433726 1.4480389240184481 2.600637300076819
428 -2.5078966465332786 -4.718993919884765 1.5715470375770537
542 -4.347775888489117 2.359881795215331 -5.1273319335822185
662 -8.78577009970182 4.4698993186919305 4.100199116332487
633 1.0891731224875412 -3.4565327923696127 3.5240035282896023
658 7.755251849368514 -2.929712572103672 8.25936775405429
167 6.908175418800086 -4.258303542677912 -3.1646221025118555
264 16.55606454863581 -27.131726389207635 49.75032172277037
149 -13.6103675130249 -15.388127965848236 5.65117856682822
158 3.955649498776739 -2.178260412840444 3.694223912533926
176 4.334518789050338 -5.502705331454306 -2.8774702585146605
170 6.341892590831138 -3.799702055907708 4.477145681400797
177 -5.154068221819066 -1.3409727676590009 -1.3784055556168204
126 -5.243101080008294 4.191773258193767 -4.111021774693656
93 3.7873264270142477 -0.7617528597148789 -2.340433768765929
118 12.53649872313224 0.2386155071988144 0.6988706955564703
159 5.225236399214682 -22.021406429266264 20.122263261833602
114 -0.7104715526396008 6.215452169657212 -8.707475479743332
131 2.2112782534750806 -2.9881125326181524 5.225685688514175
408 6.842208233857126 10.000511756034483 -3.375070630931941
718 2.041432897553131 0.28485709604705745 12.93840512723259
446 2.065817524367027 -6.748040186563181 -2.726227511289064
384 -4.7381882669273025 3.5060954085112104 -0.8584590353922206
401 -3.2660728454753736 -2.1455791212908655 -6.752489621992981
418 -2.788317208103338 -3.740391187484365 -1.1138211458276066
533 5.21763241999798 -4.134538113594636 5.3524357979086306
411 2.2854009823299424 -7.981779042459177 4.1753130057631305
419 -7.425962738873058 -8.673270914771381 4.468601846946715
44 -2.222723422199042 4.370301485618283 -3.9159341864205452
367 2.6275472875572614 -4.780040656991835 0.47473879475868397
396 -2.4057563885974043 -7.162420311150737 5.638318864222234
412 -1.0385591588440217 -0.15846984793279256 9.806306412361172
363 -2.064549962588204 1.841971164718851 5.805530073922813
370 3.9859344171610123 1.4401043285207507 2.349264422652422
407 2.118564246808059 -5.698925854044211 8.69228092812347
741 -4.72262392471343 3.294993887008565 -1.3554163257760936
272 -1.729916145557867 0.7501408091922405 2.340033030591308
698 2.1512339024567257 2.1494073576166257 -5.073222132679375
700 13.683407022602477 13.27685038452209 -30.334268663727784
134 -1.1122928108148704 -0.4156702615045134 4.803052924962894
208 1.9291297912555654 -3.086250399349323 0.20691433686893282
257 1.3095667837231066 -9.160651090344864 -0.35028378247942926
689 8.951656972797847 15.280797373492211 3.831620099227945
688 2.0019814045478332 -1.9845176376425848 4.812496499912707
263 0.30690517101722753 -6.338360172248396 3.09579750823348
258 17.287912497960004 7.4701076668894535 6.963016068189754
259 -0.5265579387416538 17.212481849703792 6.437679671587352
183 5.156288201771892 -0.5093001297407748 3.0430676870759465
160 5.2277211649352635 -20.844467204247113 -9.997935123048245
97 -0.1060383000568902 -1.8270932728922253 -4.804366279152158
148 5.448026989953982 -0.38246510147068424 3.8741793201920016
371 0.9241981470476549 2.2966277251124785 -2.0902128630515224
529 9.5586754339174 -9.475210269875477 -24.64570511495373
404 2.1032543873538607 6.84399578628073 0.7427561729947325
491 11.972289078144472 -6.023144623509475 -9.867177979638884
248 -0.8963853603144557 1.0425764367387298 0.21304415629590243
717 7.160610107409587 -6.4787357784992246 10.658878531034846
527 7.629134510907553 6.933408239073974 2.129675470897492
502 -3.1802620539919237 -2.220447842723707 -3.108896736356548
448 -20.09962289250195 12.674896885337061 -23.377538658063802
445 -48.66267843012408 29.785203948653557 21.0453391699597
716 7.736043715771279 2.0567900141310247 -2.7238202925788166
534 -14.008718206237695 -13.852670764338889 -29.954905194100522
535 20.391149134596912 26.257398563867046 6.2812568739234385
378 2.0053875449258762 -0.9972012606394178 1.5984317644505819
678 -3.61008728116029 2.8298299170464953 4.144051682057773
429 -23.95513154191754 -20.514445681885736 -3.408907116920085
443 6.002788351783501 5.149237294154669 -1.3682509108790115
444 3.1258775057610557 4.217262134030596 -11.412854433413784
641 4.93506221817713 6.080777903705839 -7.544277646294783
674 -8.127370129215945 -6.033411392079482 -2.650117558343747
723 5.263348529240954 0.4637704340648004 2.907899537258888
748 -2.9145820869726182 -6.374128312115514 1.503363150426356
789 39.94309071899725 16.960166350479916 -3.8450779557039816
797 4.740622065096858 -3.9619156524031416 9.303198410263768
798 -7.142947928320288 4.408713321091606 14.288292178148817
799 -13.229891485924817 3.582953222626768 15.157486726395925
790 9.916220823433003 13.418038303914111 -12.255708900485045
804 5.571505902578698 -9.793733226457718 -0.14020930964003317
267 15.8638623385931 -32.90423793949988 6.630807268607755
637 0.3962234876461994 -6.487206603808318 -2.038376181665015
266 0.2597279910326594 -1.57744708772826 -1.6715982298492649
221 -3.0298048867873333 2.464582156170152 2.1916250623819
772 3.264695385965414 7.249516028410394 5.639487065179591
430 -8.560297060208619 25.3621824558284 -14.487867553860198
803 -2.2774201530244618 7.410950322772567 -1.760167321716737
805 -5.242391446002766 2.5290566173329356 -11.929456526353826
671 -8.236305588374528 -4.217630075113283 3.4492003691683353
699 -24.340338813083203 2.4563056639891516 -30.213835195877788
69 -5.906380886553647 -5.031431055585546 9.791373177991609
289 -1.9911939091274864 1.746371321009727 -0.15598689592563483
204 -0.7544891609783829 6.619689045598172 0.5809745115666561
28 -4.785455080087061 1.7281297255554653 0.34780233705272384
536 4.107008567497579 -9.323132627789638 6.26145588148738
212 -8.483030623261149 -15.607721712220211 -2.645941062230856
348 -32.40153398890835 -0.7524025012223864 2.5745822595738312
482 -4.207588887226143 4.133537805378954 6.8014628743808165
347 -3.3476205321674413 0.5416641945541322 2.58725268317046
349 -3.454850919016049 -13.200139437792654 22.564288806795812
537 15.511280548015648 -11.741636425468558 6.585607627929009
249 -15.840451631678146 22.68042811368962 -32.368286484886596
322 1.9284956567580274 -7.0948119930181175 -5.690130805760521
457 1.532379445824869 -1.1300686408082987 5.548632823009265
461 4.7565065847307535 0.7875429484569009 -2.899205389237098
494 -4.6136457903643 7.765186135254976 9.54563563417481
498 6.90876615052979 -0.7351236388159916 -2.3284709468113127
508 -2.585995200782059 0.08384680005739259 5.348971857716662
469 -4.723567424323418 -1.2964350018273074 5.901003020724839
298 -6.363337486456222 4.209235904880244 -4.819535689428261
518 5.747497971954325 3.0852555905696857 7.982315461907828
519 21.49926589679474 10.998168959318884 -3.3745310505530415
520 -17.882167302684337 -3.0730114159626574 0.22597292720964238
568 -2.511567986947657 -1.02023594925544 -2.9697665901815555
619 -7.39375852143374 3.0991796839926575 11.98603910176704
768 2.7175157165162007 -4.974326137754609 3.0671470461334427
788 -0.08418570729609423 -7.190161049726054 -9.401851861076485
609 24.827710551051123 -18.586788980654738 2.730305117768798
610 -8.506020814282126 21.228968276959527 -6.358544823116343
744 -10.499993215172285 -2.7423568880584375 -1.259209741301129
764 -1.9622265803929362 -0.06534868216724488 2.3720178099437166
727 -6.341544017207449 -1.1622948562365056 2.6464506359537987
778 -8.889583677909298 -11.152959226805928 2.747789395602245
779 6.8057999963154625 2.661959844738753 25.233905383425043
731 3.153523467463027 2.449105681309841 -1.7983653512205422
224 -0.38635829043353753 -8.185813367182135 -5.5079547894428735
52 -0.316605485592776 -2.566766527865328 -5.4746546913489285
228 -2.8466004961202276 3.045313198326424 -2.508969296638696
77 -1.9186079683371091 -0.8820938843914009 -0.12648988041725162
79 24.875494414056696 -12.786296300928178 -7.73301308875305
191 -4.972760722812865 5.101003896564455 3.703078889556865
182 -4.495259709944102 -3.9750510232797573 3.1153616992234086
194 4.949784967818576 -1.2121225901627124 0.9258756149977811
198 -4.330730097658808 1.7710095498396246 -5.745924817513266
280 2.3967598909031222 -0.03167511879891935 2.3451598843773436
605 -3.1193028143887522 10.357781881343485 -1.1568592090876957
607 -7.837401480817315 7.329918482858925 8.630822456758594
321 -3.7106159294160133 -6.366272321805231 -4.194555571648134
293 -0.23306610427313967 3.0987546146172624 3.8950993723963654
313 -0.7909847805154057 0.9932528547582764 -1.9742969198101528
653 -0.48760426774502896 6.172605409395472 1.0964017169843636
452 -3.2192362015441818 -0.7122422022457572 -0.7924684207454076
572 4.612349759272906 -1.3753514822747388 -0.9941070561650649
109 -5.532768599498955 -3.512835775421771 -1.6901053952484164
555 2.421729917364961 -2.1855274715052193 0.46612215058162226
18 5.099259775493527 -5.704373444877153 -0.13659467405998282
567 1.9129028909315064 -1.7020922010530908 -5.023605187415574
587 1.8796977192493456 -2.9946958663039327 -0.46477944830243734
591 -6.286435206285063 -2.5120278130137996 -2.9582629866180348
67 18.304246321168662 25.574180938050475 -1.6859467797719285
57 -20.371402340471363 -12.619356650698126 -19.573022805860035
141 3.6849274799158764 0.5920094971883925 -3.2695684854243403
48 -2.743068594373483 -8.482183594314487 -2.434806199474559
571 3.4135520865402866 5.957887503079101 -9.731724703059848
752 0.8613084247117022 -1.2705162904856706 -1.3759905402772736
35 -8.238302891715897 1.9028367199733858 -2.553401691450617
66 6.626268698010863 8.636388331116239 -10.626122052391844
15 -3.002328964240859 -2.9971779525917888 -3.390793161346937
1487 27.324320443069308 6.151360375796726 15.441684416160651
96 1.669281681798346 1.6895837952043702 -3.440106694368369
318 2.6501992343856973 6.611454819264162 3.1034705498376707
27 4.002123314604298 0.8806002845692171 4.041621978468338
142 0.2533014226366946 -2.3448854366109244 4.362796268510436
645 -4.28559364968982 0.6453918189252583 -2.257812978918181
649 -1.8450836178128196 -3.095831276544394 -2.5874236351138356
137 -0.7533804177051008 -0.005140326776617284 3.937337987295295
558 2.7522256749856404 -0.7032463888437929 2.5904354650196124
640 0.5129971674539171 -5.865940960858067 -0.12359118879661403
1396 10.454006118992153 -13.617062298839505 2.728816577118498
677 4.824725933822142 -1.9436078073310035 -1.744561947070918
1398 0.1280672724614254 3.2867725388180986 -3.8976804455526115
636 -0.11968308580163431 -5.487684575260963 -2.023285889613816
673 1.8195080347316233 -0.5596765563314289 -2.1915027742109463
719 -30.975742685969916 -2.874558900162562 -6.6052245395546745
146 -3.072393477345082 -5.561340793011539 6.244722753214772
668 -4.633191081775407 0.10497210893001457 4.084654678645246
122 -4.975392221097253 10.999315170551936 2.2208270531427123
657 4.748119955754806 1.1979802549627356 -1.8872415937510028
1342 17.445063404334658 15.581217421499677 19.869577257648395
108 3.9741351621684617 0.7505139957170386 4.868051877660078
554 -2.039659886610924 0.3316557397764283 6.959613974432242
100 -5.317020782975739 -2.2501601667696516 0.018266069143676452
105 -0.2663002544573983 -3.507062049276904 1.308789801721611
117 5.947524675724278 7.321791063363235 7.412166085196444
92 -0.5209883699945786 3.525702342568552 -1.5455236090076423
104 -4.305576253774954 -1.232141587566364 3.3318414351631906
211 -4.719109944269502 4.005344997061427 2.1243180064866287
1344 -0.3060821836630542 -1.4640368053443815 3.954322594873353
1343 -2.4817247382207803 8.479797461971861 -31.62580781322895
11 2.147217832102686 -3.0728411344396984 1.7950394086561237
113 5.775477853559843 1.0569588237025662 5.82586656730433
2 3.566841400117845 0.9778403566131879 -2.244668739597399
121 -8.382256303327189 6.619187247782054 0.6548181897652043
395 -0.03642767246137755 1.9885003490893127 3.655073702866483
362 -3.189881702587048 -2.116483024776001 6.053596821813532
14 -2.440506628518198 1.971805476824963 -3.503588380295925
403 2.906276218157474 3.8642573314244815 -0.00898375824876735
1494 0.13391556039984118 0.34172927694743366 1.6248920272344525
138 3.619405832956655 8.143840087489211 1.113119900172158
644 3.546128575362016 4.96275873148517 -1.0476143648736238
216 -0.7980400295176534 3.90513508958295 -0.7373747225236924
195 -1.7469881179270823 -3.1660218589696845 0.005345866711257851
751 -6.052044265707019 0.4973098329309795 2.543781502264759
874 9.716251560915794 12.496277412705936 22.47254698222458
269 1.8816498042074434 15.154626189935609 8.446268098198471
227 -5.617095207592705 -0.20729992028653899 1.1927499741927707
236 -4.171826757522179 2.0715798223503525 -1.4384863444936868
237 7.067368460463344 5.598781080554917 9.697245677802586
101 4.748374940312751 -4.325406374994592 -4.436840408196776
478 -1.334323610878539 1.3646946763150485 11.985238056537147
474 -8.991806609850768 -2.5400913074005844 -2.343812970713103
231 2.853894597153225 -6.087704849362704 -6.71046705678913
207 3.789068885983804 -6.010062970429507 0.013065295441840324
453 -4.42999374764343 -2.810408124293732 -1.742333292453737
486 -3.2140179065414602 -2.00888870737904 4.526091782963507
528 -11.396473731123292 1.8759577811770576 -5.284641794021545
125 -1.0989612410381493 -3.2468622106298985 -8.271839051966396
232 3.831769845576755 -6.11922538490014 8.234299396756917
199 -0.015263520577769871 -1.9029697792777838 2.2147270638001357
223 -1.9521486867504234 -3.4747946647734747 3.161308489356814
465 -3.990682483225706 -0.23785032038311454 -2.918798995140128
203 3.593883539245 -8.3103224439905 0.3076219387741092
497 0.11996246779983065 -1.9176304912379547 -0.7787818101271596
1102 -14.466429470673098 23.2587708627134 -6.707248485684605
1657 -3.1472512752728923 -4.039913458070227 29.622465848516867
392 9.235316980998975 -7.332316276142068 3.0132586207847183
387 -5.01819834889949 -3.424364495503591 2.967207555211799
460 0.06804179034048377 7.933124839633568 0.17082768658601996
493 3.3014289109843213 -2.4513118907998455 8.343220196989474
477 -5.633603752054599 7.652152227856199 3.155561182390804
473 0.9197932587150257 -5.997293354510765 -7.812737108702982
488 3.87914701601132 -2.4397176026313363 -4.8825109052492355
776 -8.120536444636206 -1.5932379626528252 -2.4575673104808833
1658 20.679726686103105 -12.43892940304094 -25.98565405914366
1659 -3.9713003937059796 0.4424191916218739 -3.8789466387211857
374 1.5555616070756484 2.4779579785746075 -3.374961554722128
501 -3.6191237445971662 5.199375448072769 0.890581455662169
539 -1.2167592514451608 4.563248046120144 -12.886004288191323
481 -3.119900483580956 2.2430748824642803 9.147147716195612
1553 12.226465389346648 20.589258013580476 7.632900013103176
756 -3.2551108554095545 -2.0954293498303334 0.4213989182106882
456 3.178056283308437 0.824376327443373 -2.377127206839255
777 8.971382928432918 18.794809249319865 8.17156440684949
1481 23.492328779773665 2.020243077570205 20.66407844652269
654 -5.339655613435964 6.098756109176454 -4.2837337937818045
1154 -33.503843009711034 -3.510991383195058 -8.368272500673658
665 13.737991681322857 2.5033883726645865 -0.8515782121096109
758 -3.1444176517217715 -1.7396958334419648 0.0668280557508101
632 -1.9352527553443166 6.483904436839393 -4.0915339485868705
743 5.033458137721365 -3.7282666022239717 -3.997548209685432
763 2.12778370204896 -5.2228997572035 -1.07282903704728
726 2.946323916645994 2.2906889778954818 -0.3442730756014602
618 19.38947544637125 -10.749687886590582 4.800261756092875
317 2.543262289870556 4.430167780093407 0.8798296580744326
485 4.702265192156429 -4.183115813005569 -1.6120804870952152
509 -38.03288763556833 12.046269513848536 13.797448373285082
464 6.707925397109607 1.0760962423669662 -4.773492207566305
596 5.189237956656759 -0.24576484441167779 -0.45219930122772684
301 0.7558527576659113 6.264480846323533 -4.436833266736366
1999 25.68319168995882 -7.650335073184198 -13.185481064319058
1501 2.737014280612909 -11.349365885475747 2.0377491319347074
738 -6.462945871327447 2.3430460151189876 1.9049093203986425
592 3.2373120299092952 1.0466497798786991 -4.561464970602523
559 -0.5842461603094337 -2.2435968364368004 -0.6561859509686303
735 2.1268537218580468 2.534438487021099 3.9852579961861347
767 10.266718630454621 0.013756242499336843 -4.797952048638984
722 4.455513740668194 -3.7262433014614413 -2.1691817745505966
755 -0.44703815372226596 -6.053868849398623 -1.017670079933271
730 -2.293162671093442 0.733511108218141 0.778681577688292
739 -1.9931031659422926 1.131391160663254 -2.2050115823483076
734 -6.18302480541568 5.304382823057868 -1.5951568412209218
771 -6.593910641251674 0.659288898428453 -1.1893501121603898
19 -1.2305204148114155 2.756389968748069 2.166663538952339
245 4.3242841387856705 1.2384154280789708 -1.308144016813634
1000 14.055500895465087 7.7996831075632045 -6.106070305563011
297 -3.5215538053640376 -2.045397175132019 -7.6387296935031515
606 10.605554417235613 -7.380927898010939 -10.303475208109536
326 -3.2889937489034815 -6.777491861006563 4.865776465706369
308 -0.9285824236951643 0.4833829639421295 -2.1941028168308603
327 17.10607410907763 -3.9448007592045364 -5.386310986258212
1502 5.281771567315485 -29.258161618969467 4.604583611137979
550 -1.051921882804622 -0.5933657094733293 0.6446697269550743
583 6.289722866417666 3.2655748315210857 3.2912596772324956
2000 -20.45832208521622 -6.959887342265482 -16.112416485900162
56 3.1806163792940736 -3.514377284903276 -1.306598484323754
65 5.922149233609586 -2.252952752679902 6.285346075247185
1777 -5.715152998865804 -18.36340644899901 -8.223647361295182
1778 9.226850111239749 -9.567272142581217 1.1994361018818533
1779 4.533391565206567 -1.3048221455065998 6.978133435751175
830 -20.502367757745056 -21.232644901038658 1.8670279763321498
546 -2.6114680583335472 1.1748392628770816 0.7325543826773407
629 2.6368799983490687 12.36454011261408 17.386033852494293
829 -15.487237886790275 10.941330295042874 -14.630748560857349
1486 -14.362046745277327 -1.5592358282063037 -18.881162027407555
10 -0.7501547042885252 5.204243154625041 -4.478922523198911
128 2.060239992013711 0.8105884560715082 3.0108333684040707
47 -3.4548768510487573 0.9619941528752722 -2.7031505867358017
51 0.7057225348575543 2.018936312213561 -0.4907861255175501
1523 0.22828383687190723 -9.46028713336941 -7.203653921157464
335 0.06920844363091068 2.2621467447744057 -0.07864688822944438
336 4.521147722450022 8.426705571215688 11.687568807643956
337 -6.845062677568714 -7.118750918734729 9.87795154562396
1488 -0.18964368980417873 2.1525126184602033 1.833730003079493
1524 -4.950701211915046 -2.9440001804757916 -2.8670160339396906
1598 -8.760807077554745 10.54835080645493 -8.726520769871962
986 -20.950626419458636 9.777576506392354 5.353271965516997
989 23.001912300260997 -14.331252475434178 -2.5772634142433217
305 -0.3638974283461744 -0.45363450804588407 4.034333756329966
449 23.71377602516654 -2.3165108495986213 0.7842230850058729
1002 3.7442042623726364 -3.671772883104751 -0.6869085531379777
1001 -26.253130695074436 -8.23897325632649 4.572324633211893
1464 5.431434103955459 5.100206639090645 -3.439628678271295
859 -23.744573749823825 -0.013726733179612668 0.5327392361898687
1493 -12.589726220505677 2.7349636819733782 15.452102122731656
1564 0.8230487215307047 22.503958828190438 4.42525900484432
861 -9.960088142650044 6.621098769203479 -1.4261461549511312
860 0.24634782593391863 -7.436165882796483 8.640511578756831
1816 -0.38453851437351205 12.389980586848008 11.889282408466935
1387 -0.9585309999369794 -20.606070357026567 -11.917835590831732
1480 1.974695554233336 -15.792285424013054 -0.7380308836724604
1101 1.0404882664673412 -4.429369963816878 3.1873944935802507
1205 -3.269043306972646 -13.128279469700015 -4.373374529137673
953 -9.503723710577995 -20.73952828342817 -13.870555184151469
1216 18.70058402102411 3.0708693717126168 0.4883135748355018
1442 -3.8359050090271674 -35.47568910926873 -2.4572234864872775
831 5.788951123326661 -0.6699788231581226 -3.993314388581247
147 4.344973959031561 0.31778765508298595 8.394639546215313
990 2.1835393422984755 -3.3340003295272007 -0.7119292331408987
1625 -3.450458962228552 0.7821959964186569 26.198802226872974
1626 1.7763446163349599 -5.6818414233531795 -1.4963542816322386
1003 -0.1173495389214679 22.590309383211924 12.156890572029328
1594 -32.230416273513846 -23.920201729472627 -16.648025892439886
1595 -2.0443842197725863 21.209248415280406 -3.2896072208419693
1596 5.9780829830378375 4.170227537290859 -9.513986348115738
681 -6.071265919501199 0.29538928904697415 3.828453091010464
133 -5.971793277695499 -0.052633092775719745 1.9697872730938784
1624 0.9348184302777629 22.312877443743954 9.99918189640198
988 -25.19436176135678 -14.843295363897964 15.24002423113375
1005 0.8119052649151594 0.8714171438053483 -0.03755519124951817
375 4.809799359799916 2.3533614861963286 -2.3535993591294986
179 -21.225286670299194 -16.179642937325806 -36.16500122335281
416 -2.271963972242769 -3.678063114874747 -5.356975524107505
417 14.701404816105972 -3.236242189550331 -22.21558067517513
425 -0.4273151326364687 -0.36823350480954803 -1.1078956002360296
426 -2.901566298958981 12.392233758466466 -1.886428834318487
985 -11.922347688513028 12.399190568467743 8.56384658096009
987 -1.650100069372655 -3.364374023674179 -7.648991593233284
427 -4.593307050011473 -5.171042783953903 1.7985356457497421
1552 -14.708479069468478 5.141633392146753 16.491793653212344
1554 -1.0486022596589206 5.21391244333651 2.5265129386891676
991 -19.611701192886247 -11.198023853305838 -2.6845693401386543
992 -10.55253063537788 29.165647252102435 7.109754463233098
383 0.5670786722020347 0.9536008154996134 -0.6226563828252869
686 4.793999339996538 -4.75706746435416 1.3552099968590394
366 3.253000594266988 2.308209281473598 -6.443345183536284
1522 7.223607755143041 2.8930661511309252 0.5954763594190678
398 1.5736058241041317 7.97677072658024 -5.275226816999168
1397 21.211977587832152 -10.385335208119326 9.825490186020694
1492 2.3678420668985547 -2.560200679029956 -2.6057549402211246
697 1.1029213498916108 30.78617540975102 -7.234762526312422
1566 -1.3470623131321324 -0.21962671443910978 -8.7167418757573
898 12.422694603654177 12.65416246139756 -18.97934909402099
1099 -12.64952829326664 -18.519767745301817 1.3700484535702446
1100 -9.762763557410892 9.811297834413077 -10.62862893387498
875 -3.8263027494265347 -11.279539368172848 -7.316614046457266
876 4.2413378123206344 1.1593989258283048 1.7740539746953767
515 -6.5023285404784925 -3.6311651546677646 1.837341370673471
516 -25.62750748314803 -17.624263437865196 16.597141312135538
190 2.3488746532382305 -1.4496386058370603 2.290943154901469
900 3.3809129770141704 -0.8597267956694926 -3.365745714580361
1565 13.942907446848908 18.426737201900497 -2.437109495595763
899 6.310594512803424 7.487663565408915 -6.088928091957165
506 8.823364453675156 -4.758565932672866 -3.021748774316105
218 -4.101942019662051 4.169975357175666 -5.221509354841077
186 -3.2627780940296383 -2.8565898481226757 0.33535179557474193
1195 3.126291689550394 5.000083529899246 -17.251565356719922
1104 -0.36547096887067754 -1.4409483039529845 -2.9439387219448823
507 -7.800576163882558 -16.484012815495557 0.021166286476473603
1673 20.519108509603747 -12.783054862966246 -11.592224325195849
687 -7.636403188244702 4.844630126569102 21.409860770384434
695 -5.125142085026404 4.339045625562715 -2.5098914326309143
696 22.381771470971337 4.218189011314301 -31.278685798267546
809 6.589118140806169 -13.160327992250018 -25.950631567891254
1155 2.899333859283878 -3.9926055944390533 -1.8697273823944895
787 -17.40572950533642 -6.08844463710395 2.563798012352738
1153 0.7131571858837611 5.0658691068563435 -20.21059707895402
890 1.9127450552742864 1.673611371717653 -22.45402893330804
889 -6.169830954133987 10.369208614304776 -9.843817987101577
1482 -1.8687837487687742 6.833539319974345 1.719213780024711
247 -12.34704149479474 7.849961289075141 -17.179132681240503
1390 15.980035762906358 -5.121358577378147 20.747599868746388
1392 7.579894660172188 1.9699661298167341 3.010431459281391
38 -6.937628016603795 1.218482620774989 0.2535454765932528
1867 -12.243226828750045 -15.56536283585309 0.2191866868515267
901 2.6841252169428467 -0.7806633091951976 7.6228551887129115
1056 0.9961640124988108 4.4995955066946145 -4.62239979578887
2001 1.553998876548261 4.291545404922968 3.8583606188445323
276 0.4013589035059265 2.7213904971568286 -1.5140196440027933
597 18.538611520178833 -11.759467010755417 2.135291350855512
1642 -14.025269052175393 16.108379320621992 -20.74227707981575
1391 17.96390602879027 10.180776009187765 -22.144134898569426
1643 -10.839608486807899 5.416729907684572 8.24702296180691
1644 -6.340136564894852 -0.0838284127514032 -4.613409163070463
1856 -8.024912367865758 -11.001523650804879 -18.35160040021329
1028 10.656203941864277 19.53378080713579 -3.2701321191944075
1174 -16.529961810078536 -1.2651839810956516 -33.03108584626652
1674 2.417052348726291 4.675750731554334 0.6872472449346172
1503 2.394891495119422 -0.3659099225991711 0.23356749785141034
785 -1.3035907066488523 -2.1171424595033987 2.448726575804096
786 10.845107849887494 -17.46284686060134 7.700660155658814
578 1.863102773998412 -6.935911385015053 -1.7650709052808546
1103 10.189437142671128 8.935334347242623 -0.635272654005462
1436 -13.68676741316867 -10.892503259459042 -9.28037248630462
563 -0.4129524408468847 -5.507298100465123 5.1930545811164786
1435 -2.0771638895798006 2.0135790160723186 -26.604917098332514
1437 4.060922783594882 4.7011012855597585 3.939713944187611
1373 -7.750627311630819 16.378854915842723 16.930425229975324
1374 1.3199928027803298 4.752342595795945 -2.9381959006920817
31 2.6279539293781395 1.1366699689430657 4.261731218838138
747 -2.094700714686909 0.8675384569311387 4.383714221850394
43 4.685028926510843 0.5932433979628496 -4.637849968780415
23 0.6166920346032454 0.0026747132637852805 0.31189822756497615
1372 16.06921543914697 -28.70878155201102 -10.72846551671935
6 -1.3336195516748997 0.047182356728099464 -1.2156814239741494
246 -3.9317583330058135 0.5226838192195923 -26.119249504659354
943 -20.809192506097755 -17.558156409079388 0.2974685037250276
1855 15.511477790427902 -15.84872636465801 -3.0403536734388794
1857 -5.0065804511760525 0.11893467533792314 -4.101828639897851
1081 -7.92100483086683 -1.8026478504618504 11.63231898955967
1869 -0.7809246529374683 0.6325869006242693 5.006973784936739
1082 -17.71497224436576 -13.055671431045294 -1.8104280841650424
1053 -0.9800248513225402 4.434217302726277 -6.357323912817846
359 5.916963763948086 0.27938759062760604 -17.031359477587223
1818 5.3765212030340015 -0.8234611199772692 -4.425877260251727
1817 -15.432688827257413 7.613633023583248 -16.289102485054304
1462 -10.791856943148467 -9.36647091137916 -19.031293719293423
1027 -3.5823109700071334 14.112849505063563 -5.150663066882932
974 11.116878846078729 -2.1832348678625433 7.284390582635851
903 -2.524152223120318 7.104790805754263 -6.567465066512871
1029 0.7876639727078668 -7.462129663930075 -3.2620189398827693
1463 8.1065853222656 -1.3994979755703858 -0.8145167587995312
975 -1.9419834998991115 -3.293887885272053 -3.037245186705318
1933 14.274150827265501 -13.30568399409327 12.175716396633065
1935 10.817616963917493 -4.029885971289557 -1.087586598377921
1369 17.74690986756349 -9.334678061939277 -13.645610617813466
973 14.88273165375082 -0.08191509841426174 24.69507194461987
1264 -11.992946970498435 1.599566722638904 -20.622302144684472
1265 -1.8488123236792515 -15.668612851826232 -14.527805298795165
1546 9.651968679234427 17.51044685229971 -8.386565854511398
1548 0.09009253107896337 8.159885162532293 -0.7315206424785112
1669 12.182802661949875 5.778880921120069 -10.125947758028174
1162 -1.0965950185151636 -2.0175894254638846 -11.551976199196025
1959 1.6593563266167255 5.442722259527293 0.05807797586295743
1599 -4.068513797171357 -3.1765595510043747 4.330340147026098
982 -16.713297671719484 0.3574327235416454 -10.192781592003474
984 5.35738484271362 4.341990654874633 0.1210545312636445
1831 14.842012328882333 0.7719653591610955 -0.029913705039793223
1833 -3.8832325602647546 2.5400508673522695 -4.736040652791421
1957 3.814916253538674 -4.511627587074181 -2.8322717200885696
1958 0.9969198619836696 -11.001423385045749 -8.274002718033705
1049 6.65389390123811 7.990121839689612 -6.840848588731418
1885 -7.297035781143559 7.1938383315481875 -1.9171630678283769
1886 -7.390399841082524 -10.532910603485517 19.85130477702974
1094 -7.406182050207812 -18.434908859282746 -24.60605055200294
1095 7.060383347837774 -1.1095087348689767 -8.427590827112027
1366 -10.292018494394247 11.938332894088362 26.242903650288664
1597 -4.736393362439426 11.336166116343794 -14.898364477289519
1832 22.228032893273006 -9.95156462769395 15.258885178147663
1048 2.0788614300531276 4.371423031198091 -9.252041064282
1784 -14.796698061160301 11.943981661779528 -7.8546644169319055
517 13.081349052031465 -7.576419956306313 2.1806912143237174
1498 8.530147410844709 -23.401124759264977 5.8644898358631705
1934 -7.0804111955933005 3.535803579237506 4.026122943634943
1389 -2.327307869928786 -9.538798396188684 0.4050475297527455
1500 -0.007604295426690709 -5.449619574104777 -4.681470043723491
1206 -0.3134807852368932 -1.938418855041193 -1.6456643043689547
155 1.0895883072389796 -0.7831173197982918 -9.791107038549105
156 -0.864557129016883 9.480162382984282 -4.4510119147107705
157 -8.488894622008905 -11.535241232634421 9.010825380970804
1388 -15.525872938940113 -1.8187628964400235 24.1237005887826
1891 -7.754765525310878 9.20106581446497 9.612778315817398
1204 20.112488526373095 -14.27798134909803 -6.216205116064968
1217 -0.4734264409737468 -6.990484440731959 19.766633112636605
1441 2.9331058022774217 -11.102090434511272 1.988996092277434
1892 14.500005827519876 -1.8349817016530403 16.356826239542663
1732 -4.159937288094346 -10.23437715894559 14.99047547145588
1218 -2.5737476854364285 0.038801523322526454 3.215028151824717
1443 -3.551301840128807 -0.422308826387 0.6390862909072472
952 -4.286542910459141 0.23758708325618025 39.821330937182445
1893 -2.686721410930742 3.798624142874817 2.286068081271796
1298 9.207609595549208 15.750632752762622 -12.016274291816373
1117 6.205894468683135 8.840135179022424 -1.017868847436009
1299 2.212025028838365 4.168199964703222 3.674323868764155
1414 -14.567606253265058 16.65840274841313 2.8928782992425677
1525 -14.229898301898789 9.605144009209052 -8.409281485419822
1004 -13.532120860776732 3.640881766046118 4.834309572861322
1118 -15.523290055671849 0.9337783993538383 -12.945041951295075
1527 -4.577042147285199 0.3127150645665422 -2.489119693889976
1119 0.15509675124012237 -2.290515094682901 -2.4178002855117104
1297 23.430086736018154 -2.818353241943411 0.2746320358246613
1383 -4.279084127660089 7.776468639507817 1.6978474135902306
1415 -15.69826638217467 -15.452388217883943 11.932000115884154
1526 -6.361021451911269 19.000070954931378 15.370914623645925
1734 -4.560583289853062 -2.4767470257968207 -4.929231595676062
1416 -6.014420348908529 1.446884987333626 -5.2920566488290035
1197 3.249837288542538 -0.04773092508939334 -5.471521193804811
1093 -10.044285105491864 -28.98564138562207 10.082161757064366
1381 21.999489705480357 16.5100586391709 -3.8933285475757766
1887 -0.8229744550067213 0.9078859409214101 2.686627431030214
841 13.342233607731988 14.587738615136939 15.073951144906438
843 0.7413589325842722 3.9854322542754095 -13.148645452599835
993 -0.19861296666971714 2.3844545366635677 -1.3988260290357488
1219 -16.87029917661262 -12.4592865757379 -7.567715823940538
1221 2.4406859695299126 11.887356486482059 1.1561718501143792
1098 -10.598353701581194 -2.1817641643789507 -7.428918911590232
1220 4.936762025923869 -3.403375196227024 15.082091968871003
1196 5.60993126113057 -7.948096408707004 5.7987366846584445
1309 9.726782532255216 -28.21126577861632 3.5913909321744866
1404 0.20253415150624843 3.3873079311242105 1.4927637441462345
929 -3.58180791735922 3.11700186535847 -12.876725893732681
1412 26.13530179202703 -6.846122455884574 12.794855554341138
1962 -3.1779059250259056 -1.647711607022342 -1.6946609665216013
1905 4.28966312804571 3.934635979970766 -0.599171242021866
1413 3.3435144580004215 -4.548425762397291 -2.4223188586645694
954 -1.7773616844270543 0.18423867337626887 4.558928816241956
1468 -5.734171674722957 -24.025725275315597 12.485783890500086
1470 2.744109193006516 1.246775285952503 -1.1524927609065838
1242 -2.010779391744761 4.808041618879486 -0.6863223963055128
1469 -10.09353170174475 13.999082430745679 -16.309096716535144
1308 -2.301754598303563 -3.4280046582478945 0.6293085179320912
1509 -3.8402313125539305 -1.1882684304036553 -0.08572285068917578
892 -11.043527809720711 -6.3986309841187365 -10.919903118433453
1507 10.798397028930784 -8.329656864094897 -5.691882654680608
1241 -16.950207505173104 7.379920994824764 19.458524169006743
1306 -12.45350754856413 -27.89154232577983 -3.6819969337852423
1380 5.424453469806138 5.944152206531188 3.5659024276017433
1837 8.431485176449343 18.29373759987088 -5.554496143592648
1240 12.250538430676007 -11.544690589273085 -1.384737860157459
1839 5.484473887087445 2.396048357454055 0.2841705291773552
1311 -1.3737104177956574 0.8631806656731794 -4.884587836672825
1838 -20.309076986878207 -3.3333778705309536 -18.46951541954006
1378 -11.830801117427992 1.2836854811389136 -12.028756811191581
1651 -29.065169418261995 -1.615455615377963 -3.7719817515274165
1652 -19.287420073245496 -3.867120229971923 -1.0575900480067424
1310 -4.141663611598918 20.60625468945246 -9.659411825657921
1096 -8.134227419436991 -6.975005254150674 -11.61548819816522
1382 -2.0828516219458977 9.829402762756724 -13.275367271467482
1630 -14.465205929265865 13.115651499519421 2.0626937625448147
1631 1.1620860861887417 18.63058250305164 14.820212063256285
1632 1.317543639311224 3.5303587280869437 0.8126191523642045
1653 -1.0602508882137915 0.1486132295610077 -7.252884192402362
1665 -2.3269656750445815 2.6654285011163696 1.8710078686240055
1664 -5.312786687342797 -2.513947858873001 15.42690013685807
1909 -4.233889472137197 11.369424829975198 -1.7565384531507613
1821 -5.500686806400348 -4.561330889931082 1.881125837963827
1663 -8.99052271655086 -4.821981654751128 12.71550333106896
1097 26.87762096345325 10.647300914165339 -6.86720426391881
944 -17.154683701673335 14.684063224488701 9.464225597677855
891 -3.604484083619377 2.608963702063208 -6.436833557370514
1645 -11.289740828011286 6.873740524689089 7.458843561266183
1647 -2.109808612220113 2.070013240033858 -7.4584598187177615
1646 -1.377755032851753 11.123925872299724 -12.5082467701697
1714 1.0873722599886233 -7.164638650002929 7.6474500679429935
1798 -18.00630816515314 -9.48167104334613 -12.345307310120477
1799 -8.2773105464806 8.578787387064633 -6.885824011173727
1800 -1.4430299719827655 -1.1051697553322795 -2.1269322377719537
1930 -9.291233356098713 -2.7529351239063575 7.747986585822748
1931 -18.72576044060142 25.309053360388617 7.185175298652264
1946 -9.365382520979027 0.7194238548868547 7.430243754038487
1106 21.420816519297983 5.18569437604662 21.61688035860454
1226 4.5381735211353 22.43048563954223 -19.210043315337483
1261 -10.44578105898135 7.214609575787217 1.4224727004203936
1715 -10.224995417660436 -41.89509927517231 -18.481464184377725
1960 -11.19973159640005 -12.997019855118763 10.105068572780223
1716 -2.1758924054118696 -2.0345604019054067 1.277698626771252
1307 -3.606151166586056 13.249457922495784 16.337916173644373
1932 1.8928939421941335 3.9633088537321637 -0.49450422001267746
1262 18.70897865909181 -1.3764965490352636 -9.404951484079586
1945 10.93005869329805 8.353805928028327 -12.743021594329733
1225 -4.605572995599247 -0.5766175874707256 -27.017744867248208
945 -7.532243135386115 -1.9222412440091972 -1.5329422268052817
894 -3.43228332456798 -6.117025564746619 -9.243955775573044
89 -3.6968394372156683 -13.735805412759476 -19.031248445121616
1054 6.316333574407186 -3.824075935235605 8.19633125805833
1619 -6.582477109704757 2.6811785654877496 3.4087365382948183
1508 -21.47742876980254 -9.485520870780393 -2.556081413222234
1620 5.37898021425501 -5.252478411244567 -4.213378215157336
1868 17.17225733860849 -6.32829099423307 6.413261297063869
902 -16.74643120967383 19.24196962779767 -9.647371553779342
1175 7.113987294498844 24.896063610123623 -12.13423483837712
1253 -4.14537919769298 -21.34645318783675 4.46400577829148
1618 2.123817559417902 -3.8394625694169884 -11.737290299449986
1176 -4.746175458466456 -0.2686724222154735 5.019499357429876
1254 -0.3905776662566965 4.669329625046826 1.5524465166014159
893 26.99590280191378 8.526643753177261 -0.47012692889095536
1055 2.232802338801842 -17.80436944577437 2.0485558992109723
1252 -8.961545714896863 25.2974096741278 -2.3312353327705035
1888 -17.104215006565514 -1.7631680753302268 7.712991898565651
1890 1.1186648901207485 4.90269443853516 -7.5340242611653725
1889 4.707503996860872 1.7320235376089832 3.968779231072383
1266 4.18184466382126 2.5774825796947742 2.580772825643506
1911 -3.366852612361716 0.56099811695971 -2.3131329626078325
885 -8.384884632962205 -2.0021745205252444 -2.1010311901174687
1947 -6.65138926761777 -5.855595187306746 -7.879573733310721
959 22.641197194037858 41.207351105608346 5.670962352113763
883 -11.259269953304731 -5.148532898354428 -15.203781542006764
1656 -1.619764060711771 2.655651800998362 4.918555199492962
1671 1.080285076639073 1.2883393409829105 0.16539532155630784
1670 -4.286076459103097 10.89365965407141 -10.514231421402076
1370 8.018396129643936 0.5664797077545226 -11.327435447685074
1744 -1.6725430228184852 7.290259761320078 -9.682428126615878
1745 9.839533579347458 3.5563242378240845 2.1566062340772003
1746 -7.690476508567436 4.251304018129128 4.651581210520702
1654 13.323883378770313 -11.179133481226245 2.3943769571020193
1655 30.98943775416369 -5.272638284819985 -13.111172971749957
1263 -7.7989339871424885 -0.8335941152777775 0.5351312527698325
960 -2.082904806159669 3.716191114313942 -4.902973013245409
1083 4.891543451667992 -2.8828218035593736 6.513425050602485
1371 5.755566911523649 -2.490512572038915 -5.31161170845588
958 -6.893750646475461 -9.53522260197886 6.147348703514431
979 1.9019048376309564 27.09613658976734 -31.12086694742963
1046 -18.003548267413624 -8.716372845259263 -2.081097483113391
1047 -4.557290019926717 0.029053767280423266 -5.176429724152815
1228 15.994105578695347 -9.173532431055367 -6.054686319242493
1230 9.771232341499664 -3.012161374997766 -0.09461024329672038
1790 1.2581545235464844 -8.627274320515147 -5.4721051354787456
1862 -10.251596811602335 7.55918810641322 16.53658830772726
1229 12.555398471141466 -14.820837083765772 -7.875202192397609
1810 -4.295940918091404 -1.115963638921741 7.4507140553802245
1789 0.9501539336026152 21.41812321498807 2.146251643137178
1052 17.126921298811766 -2.169687187116839 -0.6037073907642115
1766 6.972158898316759 -1.1923296994701236 14.300500360326218
1448 -13.43422737642459 12.383689837161386 -3.7234102522393147
937 26.072528958470144 16.168322430996536 -2.912671273691975
939 9.232422944738309 5.7647759564684975 1.0762551234099724
1861 -12.370337287900794 -6.632558543237066 -5.781136710110962
1863 9.35054745817918 10.825581194645133 -1.3911631731961125
938 -5.099109776115348 10.469528479028156 -2.318114038682875
1447 -4.62725970176157 -16.814271142829423 12.800826208634192
1449 3.047370350766689 -0.5720488800380625 6.369372609161648
1164 8.60195543926327 5.99946807400525 5.160749049366043
1547 14.791951163137464 -2.171220490620876 24.490622376502056
1163 -16.695852221947135 15.1045600949273 8.349248546150319
1514 17.912491323253295 -9.618514814379399 -29.734284325280342
1367 9.592243149467217 -3.6796197173106675 -15.011368956715257
1368 -1.7297503202989293 -5.305482511737744 0.4403572793041385
1513 3.711860350337357 -42.7016645528781 2.4310405677648452
1515 4.064501593874993 3.371038604846965 -4.235122948373423
1660 29.513787383727916 -7.932925990955758 -8.14477350718777
1662 -3.1159997674350137 -1.7160468329323386 -1.9503190086011095
1724 -4.6667065772196255 8.077818253329838 4.707347808509014
1725 1.4991351891392772 -4.145149354188035 0.9657708691622294
1754 5.3287043484629715 -7.023050141530477 -2.1745955995479185
1753 -7.60371056193878 7.975173766455209 -12.358162864968463
1577 -7.405621723314987 -11.30162667660536 -6.79462836492554
983 13.396519388036019 20.904538818307042 -42.35629788552601
1050 0.8302276619654502 -2.9842843916552844 5.559164274764402
1578 -0.9102278236937353 6.700593970168102 1.0578229329339617
1576 0.2045501842860974 -9.613308389669749 2.5258103862934216
1836 3.254999411855119 3.6451185509690744 -0.6472373663092241
1677 1.3125633588838175 2.4958976915854025 -3.4244269967792698
1059 0.18494097581741656 -3.632762997658791 -2.090997765332315
1340 -2.4311183407954573 24.231920202437284 -3.290564380337972
1011 -4.1470447075831185 -0.9578264164989395 5.454445513062905
1341 2.9918350254540886 1.6722287135578942 0.16481507234897136
1835 -3.1065674499032774 -15.225364710998806 -2.2902235505114645
1051 7.293712594354084 -12.862188899225995 11.453576513359792
1045 26.13211146844602 -3.932284001211918 1.916731808673643
1637 -9.337801764906972 6.2014541090817215 -7.501494387435892
1510 -3.8522076960542835 -0.3955164776228812 -22.66238453717129
1767 -9.698448030573072 -0.08346677211162928 -4.378417134628089
1499 3.6646713093728636 9.009956868684535 -4.940620123493522
1765 -1.4943773162724496 17.870329203298827 -11.52384726448057
1791 4.1234526877780935 -0.0174036323278075 -3.4983968517550563
1035 -4.533174286801449 0.9212989185415613 1.2392471045655533
1903 4.300187526334538 -15.685855055097012 5.72310744886896
1688 7.403588359178631 -0.6639947554512238 -21.235710477214873
1689 -4.7092771451227335 -0.7703173095198517 1.8525130221348816
1785 -2.8866329459084827 5.697415968986769 -2.5027940389514636
1600 -10.824444436164864 8.361716100749579 -9.683049700911742
1601 -2.6971891160147967 -9.432865057878487 12.234833914780998
1693 -12.612214691484514 10.584975083232695 0.023086330495161563
1648 11.459847537960256 -13.38917301556252 0.41438189994573427
1783 17.47187992374285 13.14904729517848 -14.087671991195467
1695 -8.075532856215688 -3.4201152553619694 -1.361016012466403
1429 -5.21647909961523 8.771885768476926 -14.021893095758443
1755 0.9181852130057993 -0.024516604716133417 0.1436632312774299
1687 4.3440685100786025 0.27560572506117664 -10.34981529454668
1733 2.6488653319087123 -11.409634365626244 2.648223458326671
1431 5.075991179384802 7.257738662099506 -0.6371414599825446
1210 0.7050587863802916 7.828685553026731 4.321094008625637
1430 15.30152223592436 13.813063712347784 -1.7755817543765278
1694 -12.847598100617901 23.087429644336275 -19.701984852953153
1007 -12.231876546795277 7.63816775432373 11.798928785123213
1621 -11.592437676340039 -6.1062955151304426 -25.951236477388093
1212 1.8845432613892927 -1.8619621185726094 -1.3062053198352876
1997 -10.908568488538247 8.735525585217323 16.67198307148557
1743 0.5382210811103666 -7.726394122669686 2.0601247466824324
842 15.906434516631474 19.948546051026725 -17.012040605761495
1010 -22.31057446713993 -1.2821929690438851 -4.479813683051228
1926 4.794812557787924 -0.8655563314028597 4.261785761083456
1723 13.901458192638366 8.063432202964151 0.5211167799014919
1521 -0.5535812763789778 -5.466833859370977 0.33556913231785646
970 -3.0379863699884124 3.7069534377497413 14.637553551790191
1519 -8.648719961378182 -8.340147504235055 8.975005013621642
1520 8.032399971747298 9.843754674276418 5.375899005450109
1998 -2.202717628581013 -8.184353461492867 1.2755015242696173
1996 14.97452100716332 0.07606253829699701 -27.230889399011332
971 18.33828362990984 -14.836590079183674 -7.544441661846653
1402 -23.443101331760023 -3.8259610971864815 -13.737774764860474
1904 5.824613768682274 -3.102459829355552 -10.356093772632406
1017 1.1708413804040412 6.3459956774093085 2.181488926025086
1403 1.6079664045623827 2.5532713318559863 -4.984518432308017
1015 -20.570007239660878 5.1995917443928805 -9.976823533490927
1924 -7.7394902650078095 -13.322754851665563 -13.010391263008207
1638 1.970545463157398 1.1160774266617635 0.6023819213685679
1636 26.823016816636237 -10.524021053998403 4.143996334826972
1925 13.437359380237323 4.735292686095043 16.346506862141606
1069 6.174020944561011 -3.7216166869163554 5.16439410676632
963 -0.5631829101328497 -7.870339640348011 -0.6644119701017317
928 4.093718043180127 -10.959370811377571 42.836711835043566
1411 -7.8728161556286915 -7.0936409655104065 37.69978953062721
1018 -19.213729967923776 -2.918590247556195 -13.935732264419759
1020 2.117131544991369 1.2325888479153992 -3.577090267401841
1019 -34.648293840598214 -13.15462582735256 7.8208167014611
1952 -18.960770709843022 2.2078160241427365 -20.985158291767938
1953 -3.7043397762244714 0.6049306969632834 -4.993616553577774
1457 8.194923343987098 -24.29438007062289 -9.336633225525198
1159 -25.63550676169479 14.977230177241752 5.638159208406482
1161 7.113269738714906 0.05018902939506605 -1.2321128627186688
1613 -25.947957594775826 -26.431700406402292 -36.18562409310744
1006 -1.776889135216884 -12.68987982932431 18.159839338416862
1347 -2.662453059341631 1.2053899451696553 -1.391802931416389
1008 1.025118465482534 6.78604275091567 3.3616451014057867
1251 -1.9026906681866553 12.361479708951364 -2.978879389754359
1612 2.0196295029957287 -15.36459631793921 -6.664242774229695
1345 23.545258117876827 28.085000836286458 -20.85024151386957
1346 -10.574270449653005 18.193060980806457 -4.709902290677905
1823 1.4739343699171046 -4.455081132375395 -15.74446164247181
1822 2.8855391509285844 -10.742488601105554 2.866249711649109
1270 -1.9318073803827442 13.42408605143384 -8.63098116218618
1824 0.3473399991126073 -5.509468180968261 -3.3069542769892073
1990 10.233528918024026 -0.37238436489003 -19.98264528814825
1379 -21.619370249768227 5.2249886821925005 21.159707123590017
1250 -26.371468043714057 -1.4181417405339598 -8.024442317664025
1672 22.870891798961914 3.297392021913586 -9.945149995820836
1126 9.964228492864041 9.999935495241042 -7.42893468499114
1684 0.27449818106873636 6.783155213742098 -13.888468842829903
1685 -1.2219719073247932 -7.091753801963695 -2.066592006224816
1819 23.290056572940596 -16.685337946893085 -17.475193914984626
1128 2.4559320024710902 6.729306201617819 -4.698327779248736
1910 13.619569517317816 1.27676178744294 -19.00567181042352
1686 -2.3813244293076625 -1.2074179922383388 -1.5495722892107227
930 3.8832185871014335 -4.1490725995840005 -9.180032804736847
1107 -11.073002561530958 3.0418299818589 -9.836970677696396
1105 -15.360039528926562 -27.64578155248173 2.1989157769222385
1127 -12.288811667368607 -9.169048032419356 6.8102930252152785
1227 -2.3778450768330988 5.939239422305728 -4.121163138298507
934 -20.688293796644178 -7.8543935819813475 16.814575572448007
935 -0.7345761782801211 -0.33766508679964047 16.68320997985642
936 3.552442393329723 -10.440142201577686 7.832790165205911
1961 8.796689454953825 -5.700979884992564 5.271016285987605
1138 12.108831486522721 -11.310517535817176 32.17257899609884
1184 -1.827728619112492 -8.885158165010598 17.189174116976844
1722 -1.3269481084885821 5.592356963023127 -11.300053025779267
1993 11.498506888892482 -18.771930997642407 20.710819262692127
1720 11.035682452568842 -1.7118906354778565 3.007667244193317
1721 -5.097416271906066 -2.89428889768436 4.21371098216071
1994 26.300782419776233 -13.324926892380747 20.408437539373352
1872 6.079653196907659 1.3261365498260447 -7.528395229882824
1992 -7.365454833562219 2.0866393407606227 -1.7925898768584854
840 -0.6093289981017973 2.7234856066980044 -8.184745755213187
1875 2.375388625902021 5.108208724452017 -6.6521880844837575
1991 18.148959258314104 12.70161327794842 12.210159578308941
838 14.267446052936524 25.56728547184655 -3.239404113081602
839 13.002559785253236 23.914002556792653 -12.231593095907657
1030 8.49367875491543 12.819891395237939 -26.191423289466044
1031 3.864331736786065 16.38147812677886 -3.9457741477660337
1032 -2.2523680963121415 6.598774034374851 1.4992450062503746
1558 14.477060638880783 29.973273267789605 3.6873971388859124
1559 -2.920710987400687 10.861462938545195 -9.753710818453893
1560 1.6594998146756292 4.1547495750233825 -0.7752423721896127
1820 -5.864764594047671 21.50165890960529 11.801805650855856
1661 -11.636464322927214 4.890349699796126 3.462584257606706
1009 15.042356886072985 20.94086363644889 -2.527332110542351
884 -5.158607750892429 5.780720644860799 -1.0732152882130166
1058 -5.150683602666633 -0.19029728663297735 16.42909470584161
948 -1.1613912939347077 3.672849093524024 -9.222002536601574
946 9.66239519891852 -13.339688833519004 17.79837497142073
1675 -3.588850187969577 23.913537976834835 -11.728970714799585
1676 5.0752017050009774 -8.130899711628281 -2.9679387165963353
1995 1.2882040505615702 0.8895101835142671 12.632150835089716
1057 11.032692016652526 4.434847208253603 0.3735628401228524
1339 -17.82371275604602 -0.6206006021620535 14.32087590931902
1691 15.030574170054017 -0.9256367314023702 5.806910785947926
1812 4.619976758431263 -2.9777697037198445 -2.0501628689216047
1834 -24.79890143428755 -14.05307201754417 -14.805494929387487
981 6.576791676698078 -9.121143037724623 1.6874278178744884
962 -6.124082637948917 2.290270161538977 -26.955866046631712
1811 -6.145209665006362 -28.72000725066962 3.343129031914524
1108 -10.825112187005622 -5.076019230598181 10.050592877287647
1109 -6.069499510332519 -14.814777439400208 7.032126925005499
1506 2.996288700498187 3.1607309740651433 -4.068557745681693
1634 -7.203190727147408 -16.1742958869593 -13.362310372278158
1633 4.846894052375275 -20.132769764173407 -1.4466665820228688
1964 5.18307829108048 -15.938461938240986 5.9277909917718885
1150 -1.5024117784526605 -17.678870868869687 9.05015067735978
1151 -3.910603323804379 -1.4595818756814398 -9.510007455060627
1152 3.4777294173415023 -0.08579469144459952 -0.3166061642127216
980 8.08377686209257 20.37239286001885 1.5210651551815155
1168 8.089363308995242 21.200071564030978 -2.235215789633025
1635 2.8689967012159374 5.895130526422575 0.6597413923687327
1873 -25.1808456712711 -36.16699063427815 4.899974942488217
1874 -3.2974877051914606 17.82328451107672 -19.599202186409634
994 -35.216993864563854 5.655223649385786 -7.737796275769016
995 -26.964209337889397 7.099749859302276 -10.43213072698049
996 -12.038746221725043 8.552180725425542 2.6086114308566977
1169 21.02203607362584 2.846243022118149 -2.5739524361358574
1170 -7.7303234906547305 -2.891379241954118 -2.2402254021779764
1178 -33.760695680428086 -18.905524101781072 5.5023868057821606
1729 -4.462502678838856 -6.067190850108585 1.1378069517826883
1194 -1.8369625817637152 -2.367844665132916 -0.8071498028355085
1177 -10.168849797762357 0.3727408169486252 -28.597072955117497
1179 4.036748507158576 -0.39723410924523 7.028005243822529
1193 -4.795935676730247 18.399160716787822 0.64578883180969
1136 -6.8259035765853024 -32.26698626748152 6.292494609589236
1137 -3.0837420928352146 -5.74261691803895 -3.7172907129340955
1144 -12.455430654181264 6.714219194136571 -4.518736428946317
1364 18.464371389235602 -24.095535341652372 -9.646870274468137
920 4.409919684829479 -1.9773983505096118 12.078111264709387
1730 11.767295788209982 7.621971628547563 -7.565921087011244
1363 -5.410956860711622 15.794601756526976 6.2420029334973
1365 -0.48668763343051613 3.3219990178182317 2.376699381615352
1731 -3.749841509837197 0.6626591020511504 -1.2125003541231096
1115 8.187160656384451 -6.779616902021714 -10.227331921113661
972 -2.1187912052916906 -2.635459040027182 -0.5712455111283803
1116 0.2690769107650742 -2.0420334937681788 3.12991395642206
856 1.5509670646759652 2.6620540476565737 8.440855544396737
1330 1.713268683392977 -0.16024632410257986 9.53533785132941
1332 -5.589475576094711 -3.716165528264328 2.7019506737649266
858 -5.955803093696099 7.533083217226277 2.7726950632013105
1432 5.4190103795388165 23.72136618938971 9.060928302995022
1433 -26.662388125177188 7.1371245491573605 -15.261079869290352
1697 -0.5841012767500364 -4.950284461132575 -1.1607773460383657
1696 -2.502385323316277 -9.85507718762617 29.643653157866545
1623 -3.061670404516871 -4.849275776227718 -10.462408932967834
871 1.968784510223223 5.825063934667419 -5.922627073681419
1070 -16.293320672773273 -3.794318423713666 -0.5229143116408083
1698 4.85789573946094 0.10375150910309838 -0.9014095732306303
1511 11.355173561111018 24.163525397022624 -2.446769662454741
1795 -6.909184593828007 12.178634443355005 -12.551893003299057
872 4.181047398491759 -13.144954415214228 8.461982841214052
1071 -0.4017224688621141 -5.898230372195179 0.379483544475448
1110 -2.2829602519211774 -0.04360961819620469 1.6506801966955666
1033 -16.33412228627177 -7.844025633213245 -3.8214794424446605
1284 -0.7414368254892176 0.025271165015998163 -2.9445437225358377
1314 -1.3742119303995557 2.643446146070389 -2.1119740435177348
1034 -24.235367397123863 -22.53625443041442 4.173279046334066
1988 -2.9344522716280332 19.53007937325144 12.118772664222798
1313 4.935223248175889 -0.8222057720109205 16.059149560261687
1065 3.357619148758424 3.6148493182645085 0.43031556461536397
1312 4.16799786125473 14.064594168645758 20.1081971696594
1781 -5.010669376651188 -14.378109016207723 -4.4266702836956275
1987 4.422609595627089 20.56179021125516 -5.720810651972826
1649 -8.404518217248365 23.751440418044535 -16.175105716316242
1650 -3.1382776299023787 2.2669581037234 0.36943936029325486
1780 -13.855175004359458 -16.81589198339394 -5.940798496875967
1782 -1.43974222973102 -2.0928000875046338 1.3366936289719367
1602 -3.6651905637252753 2.55122291236361 1.1503616384684772
1989 3.518756390446314 -3.0637982684527683 0.9092944100729287
1063 8.317979089369679 0.1001278465913598 -15.208099863855155
2007 0.3800667319988617 3.4246479558547906 5.031699891699407
1405 -16.08378556403583 -1.3118784093466525 -13.2667146289476
1211 12.520009261241444 -3.3034441862242057 -19.907690629248357
857 1.1053181346372698 10.616161361792214 -17.141101101670237
1192 -3.9359300199097356 -18.83231125286235 11.72460861775815
1077 -0.14268968572721918 -3.978710867618151 -2.797800993357353
1064 -10.27282374875626 31.981542804678494 0.03959202277749933
1406 10.636150919634066 25.309206170355598 9.082316377569295
1075 -3.5763418535298697 -13.692290374711526 -4.167262701384374
1395 -3.1156801709600126 -3.1363948448053733 -4.136335674648349
1622 8.602360346991524 4.53470861407399 2.3951159955519326
1434 0.12200262046169122 -3.9370594097383997 -2.7175965528297494
1331 -12.092497835553326 0.9500582401111216 -3.9731665009139783
1742 -8.631998403045229 3.0447997367709894 -23.488634245486743
1016 0.3353489632079649 2.7394370782597863 -11.840146947950775
1741 5.948991757933517 -30.87519151254036 -4.025199316281466
1393 2.389527145587576 13.897802699254845 -14.006886599103716
1845 4.481390611179871 -1.056613677359745 -4.082148517210806
1843 11.404387684130084 -2.3797895199148735 -12.728187155396316
961 25.169130731948588 -9.184846770044441 -0.6793974147581404
1349 -2.3110076662462435 -9.043990567920506 15.479437621838086
1458 4.302345506916415 4.169073390512151 -6.950648331017919
1319 3.394151278127537 9.575510060556429 15.546968691668958
1951 -2.3805614726267588 3.7744414088617586 3.894320445056799
1318 -6.292072485026187 -4.69025852778828 9.098214023266975
1320 7.6675649984653225 -3.1851451240810666 -3.908382588773138
1827 -2.480125981795177 0.20145235000059095 3.392124523387048
1864 -7.848037470448346 10.090789177053946 -10.24104254365115
1305 -0.428431768524697 3.9835980467450587 -3.938903453962293
1614 -2.8524883187300354 -6.417489368418843 -4.311749924745957
1249 -2.495418802649532 -3.384822996404393 18.024688667187213
1222 7.032210609696155 11.343635227882697 26.159278820100432
1224 -1.2675648453605899 -1.1144865847961918 2.2716241804898365
1271 -14.778522211420851 7.689705263169887 11.642866725547298
1272 -0.18688261041617993 -1.5705895044983347 -2.4999564259093066
1814 6.902958453916618 6.644158093019513 13.694095540499347
1815 1.850486739316516 4.937201612972534 1.857068241327275
1813 -1.6506542593391196 3.590620533326283 20.676870874337727
1844 -4.823873703672465 7.935077365974784 3.6374116136038843
1771 -10.9590165200735 8.032137763132342 20.607690612144793
940 -1.2163918507001725 2.6154674603433223 -6.548336358904374
2005 0.8663716006296736 -5.7503724401828205 -1.4144363233517074
1394 1.1271286524626827 9.11820991955062 25.30977276971169
1773 3.847831544830354 4.795925703204642 6.587129521035396
2006 -4.733864234714984 -4.553028808070959 1.2245517893814868
942 -0.44316384125082153 -0.1500165194017029 -12.879974903362518
1351 -16.17512876409276 -2.9731257479497346 -12.83207583497973
1352 -0.8945993917382693 0.10878541535388751 -13.628040452424893
845 -8.07712434853198 0.6323645254147181 23.73320826797315
1739 -3.8887495883199 16.499075554044307 -7.719433208942681
1772 1.4656060230844075 -24.913949368987584 -4.790414859339368
1738 19.135759488908384 7.099895554999288 1.695532557166262
844 -9.615874551042303 9.66703243772471 -5.941123334669169
941 -7.273242695200369 16.11458205740564 9.460169621366624
1353 -4.262607413925576 -8.538855697590126 -6.2059669367768215
846 9.47493099392115 6.260776292679964 -1.8692730971084999
1569 3.0655231882230267 -0.9593708705058532 0.29679708390903864
1740 0.297915207618904 -1.2689230087588919 3.1596545700161087
1922 -3.2200996630480545 19.146799413126306 0.08976090284013206
1295 12.27736902558095 -20.503396038144903 3.362619221476898
1568 -4.60970919880174 -5.035305507500937 13.964015335024373
1512 -3.401990010850159 -5.6891422907245195 -2.0691391381046143
1185 -3.0846888726380555 -1.811955582628234 -1.667463019778535
1348 -9.359255893422038 -25.56037163950089 -2.743373806569879
1139 26.48968610387418 -15.182478383908858 10.900788731812618
1183 -4.251335333189757 4.420596632396399 15.447826353388484
1359 -2.6353961018245746 -3.7605720520361356 -5.784704868428793
1140 -0.7374473731988204 -1.9519274498286012 1.3507903120389542
1921 -0.3422941688100305 19.535726731337192 -8.290497992989716
1923 -2.6697472215963054 -1.42213286728773 2.739659728539316
1350 1.4706119151894983 -1.3513910664472095 -0.5880297615636586
1357 -22.417377373120132 18.179404925325183 -9.368984619273453
1201 2.3714734313463057 -0.32048033914690605 -2.2701568923848345
1334 12.914814695755334 20.09476366300392 -3.381346391727476
1358 1.4179946502442724 -6.209172893860903 -22.208900476105203
1865 -9.257495998878651 18.146289679344363 -15.113117310006599
1456 -20.267384335413276 4.336299682366991 -13.711471065925734
1866 -1.2357281191331146 -3.007876556672595 -0.3904454286428141
1160 -7.110059116706803 3.9312316180829954 -1.131342447812647
1545 -8.794518895273749 1.8749471098617627 -1.754419298582425
1135 26.342728920627223 19.251931592227887 9.493430986041817
1543 -3.3402716603519877 12.216912001400859 13.546995342882479
1979 -10.1545900932001 0.3987338885086764 15.339464730173077
1978 0.7732088798342214 13.912176432777887 -2.827570013737922
1061 -2.297416476232607 30.500663496104877 -30.26998943967252
1237 -6.103387873999203 2.1807268356091662 -13.308047194825118
1238 -1.6344979231432326 1.3245051101746381 -7.084868503259397
1239 0.8729757346013534 2.5530538314478712 4.409908619139213
1060 8.453949203047555 -13.28871770244436 18.248637685469994
1145 -1.7305926218291048 -1.9817396134545127 -0.47320131954967587
1980 0.1657114873079906 -5.1382880139888645 -5.065383444714441
814 -6.376545648051128 24.74226949420278 -0.23894407552783709
815 -11.941169143585798 2.0205850639772818 7.339177569499234
816 0.2824732503443008 0.33093761743059263 4.093432802649044
1303 -11.323299718292452 -5.664455918909331 -2.0137153344425616
1062 2.779531999725912 -1.843279976025511 -2.3987497884710187
1870 9.385960591090866 -4.329147206360009 -19.70880411311051
1518 -0.9848502395230254 -6.011753244337398 -4.686273260186021
1517 -0.7827702330815779 5.50413254889715 -13.229759479520071
1690 24.33514111010566 20.244635896202226 18.456954654718526
947 2.4353717009453897 -5.280948751241645 1.903596143147852
1516 -42.54508377818621 0.9746163550677708 -21.47900337736835
1692 3.4037343639737974 -7.0375106217767645 -2.8772671688481033
1871 9.135312214122573 -0.6371445944404805 -3.967280492942879
873 -1.226451520285179 -2.591737744617849 -1.5498178644523022
1967 11.646899211096535 -10.838097276743667 -0.7402393116795669
1975 1.9023093541922744 5.231302406512342 -11.988777164329068
1072 14.072565942997823 -16.864403546546523 17.049306497065302
1384 -9.315498704875802 4.720682827417182 -4.971900392221616
1073 -4.7975389550038186 13.272930833806614 3.48329563843684
1963 -9.247476726444393 -5.0209420432508525 8.51051647045213
1198 18.717608392644507 -3.966296810461351 15.16245984962925
1074 -0.5451309730709815 7.8069707632547924 10.286210619648738
1737 1.6269980243975941 1.5831190356057079 -2.8597471575676847
1385 -10.757975850795914 -3.641320452801262 -2.148089412603105
1199 7.886832867991701 -4.405493481393926 3.1052218705287573
1966 8.657308087996626 -1.4406941065856549 -21.27556729569237
1425 0.152418065743413 -6.877940118553733 -4.866833384482646
1474 -2.3162233933588374 1.9012145412325718 7.257562313886259
1977 -3.157684633584651 -2.5036172071799547 -0.5077600507466018
1439 -1.610053576727465 -10.073874915491682 -1.5856517370771062
1476 -0.011445559704346239 0.6755595379442675 -1.2134791883867968
1589 1.2756222696165527 6.039003108273455 -3.498239004144508
1707 -1.2519356737548115 -0.8740256738733313 1.9442845685383083
811 -1.4329842735888922 -11.528503435711876 29.938985506397547
1591 3.2157370395910023 13.425090780458483 10.761522811542653
1976 -11.393603827584256 -7.578773949113396 -1.1230899914220551
1467 1.9474896375868596 -0.4823549985833847 3.645978770000786
955 -0.5319684142490175 0.2826495272406484 -19.70066702006192
957 1.8275652896320524 -9.047307034087998 1.0461663522851032
1025 10.635711929865558 -12.207928957164098 11.06104625739633
1445 32.12133429209578 7.149800240193252 -16.111238979682756
1446 1.9266832772179505 -0.7619153241082027 -6.5806457048232785
1465 3.1633925185775715 -7.901212924247339 -0.6753385656217177
1944 2.06132576395422 -4.216785228057583 0.799998445475372
1942 2.6133481180779414 17.990904405957185 2.9438230122231657
1943 0.7322865771691639 -22.919239199851607 -5.504861359973034
1187 10.002671071348399 0.7636985070680198 3.0977860764757796
1188 4.22189372667362 1.9359596318574652 0.5604230449080064
1114 -32.381932136108226 -18.76879034971914 -13.783878594459331
912 -0.915898152656885 -4.326054704285375 -4.969282868927804
833 -9.960668373189325 -0.6666764779665469 2.9224649274931283
832 1.7713332145286846 6.910067625559334 5.470075106486443
910 -25.5475238629533 4.4287320097108545 6.87725770358844
911 1.6665478019332043 -10.58310019045193 11.526831525761482
1121 -3.1484396595320097 0.1115116952300539 -7.344548289698661
1122 -0.05190329902822487 3.034017183849343 -3.290245826161408
1768 3.1751369195345447 2.988442723068377 -7.422735408539675
1770 -2.142357769430672 0.19271461253472266 5.460558157932048
1471 -7.110967144191223 31.125537542460066 18.913924274017035
1473 1.5894592855248388 4.836432970993937 2.0606990128099563
1954 2.3725219455202033 -10.589231485079315 -5.560810305080656
834 1.3258453757825266 -7.148719454038913 -2.804345531609471
1472 -0.37436567742197563 11.835358028844663 18.821572021793276
1769 -3.574736485959178 -7.027554766341175 -0.6313584441141631
1956 -2.2182235716273953 -4.532054592660079 0.6472289641722971
1735 2.2488766095154458 5.78080469126879 -4.346949525505143
1424 6.046218503679438 19.02001963054243 11.441661077174853
1423 -4.613965911653513 2.6492304816449157 4.894950139101897
1736 5.5151698285409845 -4.527238243632524 -4.660363327503469
1120 8.017437013243674 14.219461587403535 -30.579631562720518
1797 -4.83683262315948 -1.2746707346846682 -0.8745956593763475
1901 21.175805611913873 24.17257234596338 0.7724836324884657
1504 18.693327045507456 6.733279173721092 18.997242895879417
1505 -7.012841982191581 11.549909312203773 5.170528686559092
1796 -14.677486593002296 -10.692753970527841 -3.613109212273081
1900 -11.656830112110399 -16.336899185604562 -24.93180529040937
1941 1.0806229596447228 6.73385169540597 1.6491698277931606
1879 3.1457297855358726 -10.342675061871311 -9.299015685244042
1336 5.778599209941006 -4.677372116886978 7.127065048488714
1706 17.2076451330922 16.866559123819954 11.429087460092948
1111 1.8102336014988492 9.419943030973593 14.2519574003795
1180 -5.982732639723411 -3.2757795240527416 5.863693048727702
1705 -17.79217751915402 -14.784646786694651 -13.528507372594193
1182 -11.48742934494128 2.7090478739250288 5.963880699790869
1024 13.200864580455105 -8.770663954163068 10.410894444641922
1475 -2.6138943026378167 0.006961445794296985 -6.793114905459539
1026 1.512729968160593 2.1679516740856535 3.405698964985209
1444 -13.792908216623985 -22.27768707558393 -0.1514410368697525
1466 7.794135583620236 3.0944299043885364 0.14505316737061963
1407 -3.3793367122425764 -1.327523490665805 -1.3552655420216793
1076 -18.15881239858068 11.473467673018588 -7.843591939966035
1417 5.474122915514634 13.87805158116515 -22.955923096036866
1681 -7.504695899457865 1.3323291210732933 7.936208059917752
1682 -6.285098940487059 3.6542031262805876 -11.570820100470149
1683 -2.3184065782327403 0.2842734503389196 3.953183565523674
1828 8.081852483193398 -7.5418021667253585 14.84137659463901
1829 -0.6950721826623427 -16.12360249768791 13.781105015580499
1830 4.967447896613701 -1.7792761172380986 1.8624267400149424
1419 -0.4336319644549076 -2.747066365067032 -3.152524792420626
1084 1.033581088071085 6.983190230391056 4.208851775688417
1418 0.4706101695317421 -5.69028171270955 2.621512632971906
887 21.457580870759635 3.8304942388231944 2.002800307585243
1085 15.082351164049197 6.793628339445786 -14.956061697535928
888 -1.1238914135673488 -1.9121286735036915 -2.8263307080150435
1086 -3.875614337015307 3.6112536546026304 1.2157362509390193
1940 -21.2308755916639 -22.143901107391216 8.655262168418757
1338 1.8831701709039332 -3.19584126734309 1.4450284678993102
1147 -0.4911107461997434 2.9482654878479218 5.650410063763387
1149 1.776856886205537 2.758284891137243 3.755692192774737
1337 -12.007786200633646 23.21770828566626 -0.09478520962238696
1880 -8.562020523498301 0.5107537911726454 -9.330169158271554
1148 -0.5272819932871429 3.6797069940298184 -10.066812210243404
1881 3.950848353141597 -1.71892590812417 -3.478595824147116
1202 0.790231382410148 -2.1106661365788364 -6.0233384495926865
1203 -4.547761909882752 -1.3449471264668944 2.103090467115828
1902 3.7423414807479194 1.405999485581911 2.0903278215246974
1939 28.050412557315724 -1.3014542475103414 -8.573037323844687
1282 0.4878840262911188 5.351243445704214 2.476493110456861
1304 -22.597663695481238 0.856134598998827 -7.0871000051902
1283 22.12203591768058 -9.027241888732565 -4.818098360286141
879 0.936755637240472 1.4183767764777717 0.5276219293698381
877 5.495801163359598 13.39588938932682 3.507996932530521
1549 -8.923955294863054 -7.55331015022691 -14.881514777387174
878 -6.2535316401806975 -1.8697023253480949 9.937717449967781
1112 15.936929227920631 -8.650773964965879 -4.165715833040331
1826 28.208701729708284 5.76750031112872 6.412783337550226
1551 -1.0248165221367584 0.23716868575320257 0.4356691851868661
1550 -5.804921859229469 1.4014223214107762 13.755213869443304
1825 20.597720797643223 2.270012479104351 14.031382623882477
2008 -3.8822183132716197 -2.2578818948604176 1.1371992674695748
1377 -1.4591948861818755 1.0281890924611774 9.001111111997998
1289 -5.333768133879024 0.4182493964275174 -3.3566543592998817
1376 8.909672532998567 -13.314422277348191 18.015720645854547
1223 11.49868081931633 -7.217845985074869 -16.474901850683327
1726 20.537506860689984 -4.049869726539928 -4.4333936331735195
1207 15.830646701405783 -1.9083861466339527 -12.495035111695678
1375 -13.66233036521772 7.440025011100062 -14.580060130888608
1542 -5.13312789165487 -5.2623353776145825 2.6928057557334775
1727 4.800182257484357 -12.629739927681378 3.172988853064643
1728 -0.6566662735092584 7.635603937153488 0.4481705356415852
1208 19.382295775612544 -2.9277776939132987 -19.380659746683147
1846 -9.963582830250717 -5.437519135463423 -4.256603525729047
1912 -0.6158820542062947 15.68509229767554 0.7013214209126678
1847 14.121684901146606 14.838908362424602 -5.86046892964238
1848 2.699309849550883 4.035080894711907 2.6425375365475565
1913 -11.673753206371982 11.536545369686245 3.3285498622303598
1914 -6.548256685446711 1.3658701514697544 0.3598756860608622
1540 8.73121213195208 -22.99374337290175 12.89500678769913
1541 3.603776935490761 1.9714252043330696 -13.569128287986379
1567 1.440899101431788 0.4694228921450233 1.9277075144057225
1296 1.1152838557473808 -0.1961733874547423 -0.8188381084956402
850 -5.225762941196907 -16.97428525563923 -32.66223409236309
1294 12.866848925997804 -6.584527348366392 -1.2859673465137116
824 -6.975090730943249 9.795375547644582 3.6049912101204127
1335 4.059388275876923 -1.680542457926314 0.28007654239361973
1571 12.365386204536883 6.305474373844815 -7.99325976143278
825 -1.4859067911191548 1.2574955305793611 2.0080977321629794
851 2.947431361894559 -15.131336389057346 -4.774788553039346
852 2.334536369851881 -3.67601666324812 3.281904208370892
1036 -0.5231374567002358 -16.989676676143503 -3.013074674484071
1037 10.79761669857136 -0.5597320005526645 -5.091045441072118
1038 1.2806894536062432 1.1524958201675077 1.046812920734361
1333 0.2935550267283737 6.647404153657373 -15.76225342722001
2002 25.586707545743106 -1.1395043811998793 -2.6571582044187454
2003 -4.077932087040401 -12.278257019692015 -3.8098880255046517
2004 3.890219171148997 4.274598851783228 2.7394881273337326
1853 -5.0094856212538845 -22.24922272165838 1.2340009457807892
823 4.777297825416573 8.05990111894369 -15.060732003090926
866 -1.505479703337536 0.10489116982122942 -8.942283515046169
1113 5.847443408562094 -1.229882393375767 3.7456312446362965
1882 17.244614385262736 3.5555247248670283 0.24684073023789488
1209 1.446320392745091 0.09916786797708733 -2.2428090645362637
1386 2.28368576990033 -0.0605338585484196 -1.1374400377971146
1965 -0.3865521413710659 1.2352000859728482 -3.738088965265408
1134 -3.082280591097389 0.8583283725004517 -1.5087608605747111
1794 11.342609342930038 -12.056976651001882 -7.667387758468986
1544 -9.889200441752402 -0.9332996597579684 -9.36521483727642
1133 16.6103180504535 17.72281538170919 -15.050993470660552
869 16.856031485560894 -8.445437575822199 0.003079017738510923
919 3.8905061866777544 -3.4092211691251526 -6.946426044676194
921 4.811202738483554 -5.833372454433205 -4.06592494621135
1200 2.6452287588312986 -0.420886121342469 5.351192667339802
1585 3.1160136763751827 -4.079309405835182 13.001715608627347
1586 -18.03351685692336 -0.541131905682757 -2.7534715257537097
1587 -4.4157129133660495 -2.4393642315223834 -1.6265698613556547
1792 -8.628361577642046 -14.688035847993062 2.50301409750383
1793 8.951917939558953 1.0156862857346616 -9.59503637215144
1132 -0.13177002321098263 -1.5888470457588697 7.891904422394887
1678 2.8595858346576626 14.987152304033714 -2.3927655066996905
956 -12.10079734157952 10.38714294534805 -12.811879998663207
870 -0.24925396805464892 1.340244345142123 0.034075657357369074
868 11.374408705183532 5.274115876955617 -20.085806990441412
1146 3.7231105487986103 -0.1532362231272445 1.5985803443728572
1409 -6.311752216947674 -19.860097133607223 -5.715900584318357
1908 1.4129112034317517 -2.289241640548884 -3.894512780173778
1907 5.40043610162294 -6.75543806036771 -9.819552394559343
1410 -4.745121706143523 7.557553172211457 1.9027636543611315
1854 -1.5730353013624085 -6.0552611643006236 6.188243153603754
1906 9.652229484597163 -1.9924188162845886 -0.42140658061908043
1408 2.0262160774260085 -13.350825013559662 7.666455122051314
1454 -7.466522676659527 3.354725583408418 12.962150391423098
1453 8.320746016774416 -6.410247604056485 -3.3773504019248928
1300 0.08059668510781463 -2.1335493799882923 30.554931845818764
1852 14.445139436096607 -6.222270985605575 -1.8148309582805655
867 3.271309172232078 0.03077350750713381 0.86235567469545
1302 -1.1213437556988897 -1.8730378104171412 5.449623943614448
1301 -21.842378255478494 3.1048667337144495 9.926833070419137
1968 -3.144191499266142 2.497575646335532 -4.310138017502125
1496 0.5596175453612842 1.9718551830047677 -19.30795859175055
1495 -24.542458659898248 11.122156209423347 2.2544784134755878
1497 0.2680270825901231 1.4502697634672073 1.5879727623209368
916 2.7329650831373637 -7.658913672989455 -0.572744230368465
1611 2.2354798272433656 -1.9845039640957167 2.5866362518533412
1606 -2.5169348748456337 1.8092539829813128 30.453241636447757
1588 16.801472187598446 -24.16826922618872 -18.449820156469663
1438 13.674938156369995 -8.515106274542244 15.299036048489734
1440 -0.9199908621992983 0.19116603377682626 2.118060592340842
812 9.345480583244193 1.8104729235628239 4.048504165314167
1592 -2.8348169188094454 -19.61861497866008 -0.5859014816809982
1590 -6.874667054840335 4.820002675497025 2.546321177945531
813 -2.865978956447546 1.30212246945989 0.6139711844873113
1842 7.338702783370207 2.364636704416244 6.23273922586146
1938 -4.112105479756586 0.6903570619555419 3.6019108554054697
1841 6.659764004076848 13.270745528420546 17.066761808338523
1315 -4.947560358014228 -19.400392614136386 12.43680787297126
1477 -1.3887484188683814 13.20904346392068 4.986842851268043
1478 -13.033856306765983 -2.898624951611097 6.211390653774265
1040 -9.744058114263105 8.135071505287087 15.663945193744809
1479 -2.361284540645884 5.316377727422341 1.2939251234048597
951 2.561704158493093 1.1298938251332664 -3.724952727709232
1936 6.670145472845241 14.185655800850627 3.199351205181571
1751 1.9209219291539166 3.7310481309369146 10.431097157495827
1291 5.316476465214915 17.16300078544754 -2.621969351408931
1293 4.033180083859756 -3.6375091010060716 -5.463599436266156
1752 1.9383827256930044 3.842857073095409 -2.460869253373828
1955 0.8939508032786406 -23.86445259238563 3.63330567016441
1534 9.306117300368237 -8.733379235447773 2.4739556625497556
1536 -0.7120177789245176 2.0708149255663626 -0.8652120113272843
1535 1.47888087839087 -10.385798309192067 -1.45667193536714
950 -16.821350980636755 -10.790960433603773 -2.204288948552686
917 -11.915313330315817 17.947558821750626 -10.90303471941773
1274 -18.32300559134664 15.884948064272365 -0.8368485439940964
918 -1.0002925967659362 1.977597620721565 -0.38079666490210085
1607 -8.70394660769344 -5.508395751822169 2.1653144172355927
1273 5.70942544999903 1.5343985061556693 7.189932479188151
1275 -2.3109405754233046 1.5865759355038074 0.5319617199724913
1593 -6.928378898092694 -7.2213057310068836 1.2897503182819512
1181 -13.583182534406637 -5.690151579923822 8.68114006932121
976 -9.11963905122085 -1.2857452197125676 6.395971829558645
977 11.517423463822007 -18.980906219759785 8.090221113243421
978 -4.998335614181401 1.268412960451928 0.5167225264920716
1278 -0.4907621507495806 3.790974271613271 3.1676711676245635
1400 1.7511040310152015 11.590039333673078 1.2239056806554878
836 -7.660356443259607 9.976597350797164 10.646920163106602
1760 -12.164615966225957 -0.1876218093468905 22.586498913911775
1580 -14.228044661961704 -9.525526622386213 -4.448682682806646
1581 -2.1359999153008924 -1.8790993004586944 3.2589119530777664
1699 2.3348389991602607 7.945840102948963 -8.61598921627467
837 -2.2990624252786267 0.11227162203584358 -4.015329039591177
1399 -7.02555537537346 -1.149022242892658 -2.8051313169422767
886 -15.745278037482699 -22.72130479705554 -1.9845131736590849
1317 -1.2949422245371487 3.426751124970891 -1.0388790376891526
1290 -3.5193253450405257 -0.5551817683070984 -1.668645161282331
1316 -18.953109624407276 -10.734153344146728 -3.7871231408561106
1041 0.6576397942886107 8.913995727052212 -2.7764612689795025
1876 -0.043812157913839855 20.71876012231396 -4.275433413202578
1214 -1.0452754657909515 8.826923230824416 1.0868408402042493
964 -18.90308207001708 -2.3151252882798836 5.9597590269586584
965 -3.2521922544562427 -12.052692589249054 -3.0035931858481257
966 2.875985539210992 3.929615208687251 -5.434494145879323
1142 4.223903666435044 -2.281734991918663 -4.749613714260601
1528 15.78446052285046 16.868031055227302 11.01966220063141
1529 13.249209686657647 -17.59687266132374 9.18866826077689
1141 7.351531056291557 14.735260047295771 0.3194874174014338
1068 -2.712511822949991 0.6230693028215712 9.928719510566737
1215 7.958161860668795 2.9957494579040147 -1.4459686036438135
1067 1.8273647432246083 -9.77011713658176 -4.240316078812032
1213 18.821622170819133 -4.749928358690449 12.814896948939985
1640 2.434512637566787 10.167035112300104 7.194508777647179
1776 -1.2841349262036297 -4.359574875088296 -3.573352240023656
1639 -9.567489109796137 -3.3685818220648844 6.758673380774806
1125 -2.3237762880592916 -3.049741820842578 12.0776915461356
1775 -4.42988355959657 -17.192024393671183 26.409619120005722
1641 6.556795373392118 -0.9919513373504636 3.266729584793864
1401 -9.30160478027053 -1.4120477924969181 -1.4068329552427123
1971 -10.277662949574486 1.7645122993503028 2.204518553130088
1629 5.244173867093266 3.772487667207554 -0.009615898121096807
907 4.775771200416059 -3.2623155412625437 -4.370170880857808
1701 -1.388123784379211 -7.406996185296131 0.17718109098592014
1277 7.7200895407853505 26.308204782824028 -9.329234244942016
1970 -5.637023898869938 -18.608901322499992 5.213395229547099
1883 -13.994676196937304 2.650212223498645 16.590753016904255
908 -0.20576185185943066 -0.8309841926248653 3.1499656854733007
909 -4.148372088902536 -1.1651530854014418 -4.416506108619418
1276 -10.102681052478218 13.954296415521645 -15.122611068650638
1603 4.879703033800906 5.5980110415673785 7.601880297295015
1747 -6.9500561870101505 -12.161091232548848 -0.04442718640347246
1604 -9.205093076879434 25.86832911950784 -14.36849679381474
1605 -3.859472732088554 -1.2744259888724572 4.477168984017719
1749 -10.245532029492976 -5.2934134144008045 -1.4857181743021295
835 -13.905201271181076 -4.538000291331129 -15.115745139229805
1452 -9.082155278852177 9.436073457910892 -4.448706341734452
1087 -8.466232205952858 -2.2723262637611183 -10.280515299802342
999 -2.4780270996147213 0.526491531067791 -4.130029571475202
1451 -28.712227248436214 29.200378175172794 -22.17094208500939
1288 10.47776082308202 8.796252843480442 -10.277322737234686
997 -0.09466028113038544 5.504543083788348 4.019847240808997
1530 2.4653063185913586 2.9622270429973354 4.777956449033438
1450 4.46699897431208 -3.967905443456554 -26.948360559269407
1129 -10.176383438931797 12.38481586608672 8.109148191596756
1710 -1.2349882681153217 -1.3445258466984138 1.7714113270419256
854 -22.772963647857203 -1.3078068056735672 -21.97716925276648
1570 -1.8709856977359969 -18.74805450884834 -6.205250772823502
1858 -23.044656114639775 1.657663456420844 -4.987793449334805
1572 -3.1328258195497836 -1.669252776696199 2.5125819761761785
855 -8.78737653782434 -4.297510064142893 -1.2439361038160095
1801 -5.350017570046563 1.765514505495811 -12.442191070802886
998 3.606063726992483 -6.799592051039706 0.43519083540627834
1859 -16.047271291906583 0.24295300989305169 -1.4743275252605965
1575 -1.4527684076645948 2.256403249587454 4.026317673451298
1668 8.293016334376912 -1.8080056000420799 0.6872221867853089
1328 14.135498165457337 -2.0427076915101696 -43.738993118235804
1531 -5.042387058267096 -4.161511242303936 4.5850113986777705
1803 -3.280196453553443 -2.248502731929357 2.6803699913492007
882 3.253625825954369 -6.693202830536345 2.9143748659281283
1573 3.6596760796627463 -2.0259291250025817 3.985879275819204
1574 27.29893405837511 -13.909823453826744 -6.489795852962097
1666 7.591469925946677 33.341267903544505 6.992560136515534
1802 -9.60881969520192 24.489761523854042 3.3146627786571807
1327 -3.49754013757021 -3.715905095869134 16.731227577033792
1329 -1.669506127589781 -2.2215243511519027 2.247468395839164
1532 -0.7522145761845014 4.823711867549359 -5.287178048993978
1533 -3.50640772612623 0.3170936017451378 5.174956889871144
1667 -1.9672097968149567 18.179046360881813 -2.5175760147907056
905 -13.789720903464692 -2.9736821943247547 1.7446792503244
1246 -7.929003527969053 -13.556237713088848 3.181068028225407
1247 10.006510516424127 -12.32163087714938 14.898593849490538
1627 -6.773216961193968 -11.344212389376946 3.4987037920627135
1628 4.369428201631344 -1.0752835344878604 -5.831132898394886
1248 -4.299226081301078 1.9455376909512392 -0.7045806773890597
932 14.89371588665107 10.32893831342412 2.150895795945297
927 -3.934111030430978 -0.8221565959391237 -1.8518996971420794
926 14.333690540783909 -0.8034321054116121 19.053047834932897
1748 6.580183488497026 -6.99313974407828 4.190202309079881
925 4.203820979855998 -6.2115645247754125 -4.502388676511598
1708 0.9651472277342124 4.497816140836368 -13.582220217187256
933 4.037084175860288 1.4609354229815812 -3.2721259561474887
864 1.9811320050628882 0.4325789953832832 4.103057057411115
820 12.089637106802998 -11.392278855133387 5.946333676648217
1929 -4.0208345649319215 -1.7967231502801617 -4.040391717890193
1709 -13.269068217309473 8.17848367625767 11.882740358672576
1860 -0.8951707208501819 -2.6359809901532403 -2.6920807342503315
1927 18.330387955923413 5.475580245260322 -0.8574480217360638
1268 -23.37042488673943 16.77209762934933 -5.928728654652442
822 3.346427666743039 0.16236746158677307 2.3593101772884366
863 -0.0872062117766102 -6.416848008144298 -15.796845069987555
821 -0.3322147304351636 -23.749721747256213 11.427997587935392
931 6.945558820169538 -30.41716562650511 -9.970765146243716
1928 19.383393609130888 0.8545696124116158 1.3237099597877264
1680 -0.32185730308097876 -2.5764260824875493 3.8122991833139133
1679 3.6030368714278915 -18.11425866146979 3.796738950432468
1455 -1.7478535443194232 1.1406466336818257 -1.2598553627634155
1186 0.18186723818411543 17.796063825790316 23.671892788550643
1561 13.491749179896454 3.142995212017585 12.061231646807343
1562 6.9426774790859165 1.817129260466724 10.814781761381559
1563 -3.0718126622756716 -3.1057194748144523 3.154950254445746
1750 0.46733968536470893 14.717297291017948 2.651817517021951
1788 1.6060306386296745 2.241600276186041 1.6987983716804325
865 7.229891321019981 19.271190596422972 2.729731499255931
1884 2.7506567996646556 3.2359982131246436 1.6259763986690012
1774 24.987197826435604 10.26696877140347 14.899089146743957
1171 4.787598360402016 20.346684517944688 -0.5228104011305335
1173 2.5472589868283753 -4.328327944218886 3.1257438538651123
1610 -4.445607127550142 12.732509984559883 -13.586222900021516
1615 -11.51283707052191 -5.443896202091845 15.061769569156345
334 6.094097610764655 12.00413978751391 16.168974176087833
360 11.99269514262175 18.461607720902922 -14.558458523363816
309 3.8137188374287256 -0.4670704803741863 -1.445892164644936
1267 3.2073380274174776 5.588181352480331 20.93770717613252
1711 -12.914158243957104 -1.124717298330559 12.304284999454635
1459 -0.29487810030187805 11.084378043031126 5.108235224556717
1850 -9.714260433974083 -34.94240395378729 6.26697640342744
848 -5.043725424833167 -21.254657202317098 5.300280092468471
849 -9.078449371701195 3.104390626451607 2.489074460891208
1172 21.44590388515992 -0.44371900715661433 4.70629872635657
1460 -14.133807113335664 16.318074473829082 -18.279711911798795
1156 -10.13678687261232 3.5757132407295815 0.10776282865484217
1461 1.4876370665399725 -9.36277234527581 -3.0069311954291194
1897 -3.059687994813846 -8.608885021526273 2.6327833833101915
1899 -4.833887111419023 0.6733791284271939 -3.1194429873507032
1937 16.175628648655028 10.548163711713684 -4.826206868306323
1713 -0.7949673327623209 -1.896174979926054 7.64517373747031
1851 -0.43771905303861536 1.642517893927882 -0.2172070286259335
1712 0.3313962068494085 -7.407225662481751 4.158490295106373
1191 -3.2298062841955297 -2.9230304322613203 1.1228210914326433
1292 22.03035214033379 -15.695643326994682 -25.567775327775337
325 14.325072570096443 8.24393299472346 -5.270723214424862
1190 -10.873052536304565 8.547410746493025 -4.733785719525293
1537 18.614222097581646 17.702688615955985 16.63782359830059
1189 -3.659075711559029 10.04728477708012 -11.89402116130567
1483 9.262750937819757 -4.591008933455342 -5.647932760680038
1484 26.734146472973816 -8.491877829672651 -4.849157467074606
1485 0.4727379039951795 -0.4242257584672315 -0.19894322170702491
1538 -8.272886349101517 11.320555087382592 -18.06110640829307
1539 8.835060549758309 -3.8913211879232548 -0.7290547117788351
242 6.586061821958305 -4.1758033616101535 -6.134057433497706
243 16.640590258515118 -20.617010153616516 -14.016155825253911
1608 3.797908996598099 11.044006956198553 -1.0184546334431366
1761 -2.6915480888103183 1.1934529851163533 2.408907186075382
1123 6.9199145844347845 6.293148734573412 -14.414355338451418
1878 -3.013948602325661 1.2082499422805446 5.849090693482782
1877 3.1261020222802576 10.13574561774222 -16.55831156589023
1919 7.602908870589742 -24.25898733379256 -6.523864872892567
1088 1.910954024131277 -13.726685740132616 -4.945249189858044
1849 12.129299968899147 1.8267084156973945 15.244784726597938
1012 9.855879082705263 0.34977261880205 -3.4900099264627102
1981 -5.516709963813278 -23.853453007301653 -3.1496391434292033
1013 -10.625131310434481 -9.322090456269224 -11.810323944148621
1014 6.1040760939273255 7.544199806829944 -0.598000966016055
1039 12.337040344590967 10.232917219433972 5.540415205787651
1361 5.555532694700296 -8.52337824389918 16.161048128184063
1362 -3.280120630170746 0.9583961732134281 0.19528720541863118
1420 -8.330195152768185 10.935411809133798 18.161761785699763
1421 5.335248076885678 38.46058806871558 -7.170233808807678
1422 -4.930166368868399 -0.9303092863445257 -3.447553912135602
1763 -5.521826515129381 14.357047898097637 -7.011445425943231
1918 5.541189904389189 -7.180212662476654 18.1822314591118
1920 -2.9491910697991695 -1.2608859706320472 -1.8955889357644957
1764 -11.250348381385518 3.328298282172888 1.5036048260260848
1974 3.11956049690834 5.247367336076073 2.7994361880862044
1066 13.441543555992734 -9.854729652120447 -2.0517785352597833
422 -4.007649425416951 2.6621828971242802 1.9567013207253452
450 -17.800804317048666 -3.7965055761504996 -19.655558101376236
1143 1.7972377356927802 0.10695655984295094 2.504602064512859
914 -25.158318581698314 6.046242500259002 6.222125812146169
915 1.7741165362739475 0.15178248201333772 -3.2063586781177142
1972 -7.738216587924227 1.357793733113594 4.932119206724086
1556 16.46617803599309 10.563798829087732 -11.03294514647907
693 2.5170227669365426 14.25889783252146 -12.013067065319301
312 0.7815337962182818 0.18173020102821522 4.1618991182270575
595 -20.83951703939786 -2.069845740094457 9.117303037047954
1124 21.688084035452675 -12.317248859660616 -2.459520064062012
1555 -9.451717537884202 14.753079155515847 -2.526170276109791
1557 1.854264957873405 -0.034563897223045904 -1.1084893373813043
880 -15.005193217309806 -12.016921979579987 8.071558654632206
881 -1.7015445226868724 -0.4648825997895298 20.76899481951661
1427 -3.694949255468983 10.765582775265308 3.4136475156174524
694 11.262823839392134 27.156179000400687 -5.2826833665115345
1984 -4.960429751837244 9.451201833414974 9.032739917175258
1700 4.737213295075096 0.9745834658925536 -23.813873615681157
1969 -0.9084010686544798 -2.93839700332964 16.70048171113403
1805 2.808734007955759 -10.098876254173891 16.135938589557973
1985 -19.605262125425995 -9.913104449236945 -1.6733991029570827
1806 -5.8806869920433575 1.8890888182215648 0.6295481769605388
1762 -5.3497971801060435 18.895963973459796 -17.244050921072716
1089 -3.488021405111361 -2.8935265267716304 2.479431649123091
1986 3.649543015108583 -1.1733780574576487 5.505225886837337
1280 -18.85657737978836 9.740419757784487 -8.307121596997103
1131 4.742009600836763 -0.8290235266835184 6.847365827073156
1718 -3.999816381061072 1.2921458043313916 20.87269258704963
1915 -27.89414827358669 2.5887219185665074 -13.53923722375773
828 3.2786550097641762 -3.2043449853764154 4.204549865895783
1281 0.08902773768028602 -0.4892352229883522 4.580191859900134
853 -6.345786390706393 8.535282828494246 1.7756130417254858
1255 2.3535079111637236 -24.51091192983367 6.953485584868243
1257 -2.8809693803468632 0.10531399804773858 0.7712182413389216
399 4.191191140714922 -4.437631713027001 -0.9257938151281672
1807 -3.9020651197154534 -6.185460914564293 -7.109770476497124
826 10.192575664044998 20.788686709031964 -6.405577609996914
827 7.833861932242305 4.136501625665463 -21.782186323563334
1130 -14.539335552264609 -8.911894514607306 13.006721904989723
1256 18.70719504012566 -32.91303013655128 -2.3311032425339606
1279 7.5114252162277015 31.971276171261014 -6.70622769542394
1426 6.183615017883346 5.630354753125799 -8.159191587258016
685 0.32018888262679823 -6.936059951659511 -2.6801173196792445
720 8.754818691500352 -27.540239262793904 33.554459037662504
1428 7.398795759070467 -1.420402905609211 2.487899763221658
1233 0.5281778517570974 2.446269057575963 1.6515170055243034
145 7.638397076328044 -17.74744991937218 8.267412951270707
1042 -33.89006699677835 4.680265097917523 -0.06548897942634374
1232 14.164685494623539 -13.689175933016159 -11.658869736996762
1583 -26.664046384818192 19.67617748294766 9.151711416771168
904 -4.067609319563113 -0.7801935261144821 -12.000592451599982
1584 -5.442678337598037 1.2041395225200129 -0.2064618801190408
144 -9.804791537806837 7.467629536530587 -5.601214171360568
1579 7.013701922327799 6.749821703524637 -20.3134248638693
1260 -1.0640670876374423 2.212379079863054 -1.0130333890649084
1717 9.739516895781827 21.92428928995212 -21.045854375705204
1609 2.8955154368036746 4.6344705521212175 -9.237461857841446
1259 7.787586582728204 -12.364787717285687 17.2723623610164
1258 -2.490001403818036 -5.931684504222883 8.3353902990761
1719 2.9553461414168143 1.4613899117794171 -2.8148706299988784
1616 -5.481107544544332 -11.646080986279193 22.382164591063383
1080 6.922469397219252 4.629824657207265 -4.756162689284103
1079 -12.825250893824453 5.505440222870241 3.7754771104855744
1078 6.38607764757188 -13.436288903949796 2.941994009813128
862 -6.799945660511712 -5.63121314758288 1.8505188438486966
1809 -1.7151229913732386 -2.6247348098707666 -0.08179779897532256
1840 1.401279653928911 6.942935897863833 -3.9537230961489773
1236 -4.658384400678465 5.930854510934962 -1.1124474763375303
1269 -0.852797972028701 -11.020084864724291 2.226618339580649
1808 -11.383642471052932 -7.693927393540551 -3.717450676372387
1949 -20.32631036095821 -19.82152067620704 10.611112642988685
1245 -2.8291141198407384 -0.7782267859553174 0.2952049963775369
1244 3.4897870910377553 -19.988398551877342 -19.50084875532087
1950 3.2722861425569176 -1.7949009076592424 -2.796379092182415
1948 -18.6656651210886 -4.503861133680071 -2.489949585333086
1703 28.531869970874247 -3.990234278902531 -21.233297057203366
1243 10.589319103722941 -0.8586671333020583 8.570123674049228
897 0.18119358165269103 -0.9574359978880821 -0.07639936565610081
1787 -8.94082818489126 18.61426062716635 -26.508581470577198
906 3.402037411247615 -0.9605820920344088 -1.0639937363504408
1582 -6.56249921155853 15.158995579950808 17.765104129992533
590 2.2989383347536196 -1.0224881132718624 3.4058802350531
782 1.8096516235559208 -2.7304634190716146 0.8235952441712894
783 -15.974804973183453 4.192466367464771 -4.847053712066429
784 -5.2480230861550865 -16.859769092990003 14.292625699984704
810 18.752092160337774 11.796863141574404 -7.912237684603363
1786 7.3643628315225715 -0.8001573285958989 -1.7937174150835205
1896 -1.5748373385128138 -2.5813701820767467 -2.0885066863773027
244 1.8119546605624508 5.504917791074887 -20.465223354178384
949 -8.080982885877493 7.558386008456713 12.42136936800842
