LAMMPS data file via write_data, version 2 Aug 2023, timestep = 8000, units = metal

2008 atoms
9 atom types

0.043481737123734376 20.493732262876378 xlo xhi
0.07473935557618283 18.50795564442364 ylo yhi
0.4675624321059928 57.45604256789447 zlo zhi
7.875864059701376 0.10156551238100558 -1.1764932869400295 xy xz yz

Masses

1 40.08
2 12.01
3 1.0078
4 1.0078
5 16
6 16
7 16
8 16
9 28.086

Atoms # atomic

271 9 1.8318060366569202 3.0222309523458004 1.8872523454776964 0 0 0
896 3 2.278004889579872 1.793876096573506 1.5425259536514513 0 1 1
505 4 0.92573016139831 0.8278129662809829 1.681775373473519 0 1 0
304 6 1.3933932795876103 1.74411354697721 2.672814960086157 0 0 0
287 1 0.7966693632114337 0.41648905861624286 3.3839686861683953 1 0 0
504 8 2.2540891274716697 0.18724949756346945 2.5608571075959428 0 1 0
333 3 1.1581815287856647 1.9957230389881258 1.1678904331475783 1 0 1
579 8 8.683926375983233 2.056181392090095 4.394440704578351 0 0 0
630 4 8.11572094788349 3.4073735610295137 4.875779088797274 0 0 0
570 6 7.563835462328598 0.6532283119307202 5.053878673129204 0 0 0
1234 3 6.109294688789038 1.1390082266610766 4.832958166957545 0 0 1
545 9 9.521457586892277 2.4440941311528674 3.3302286720101284 0 0 0
582 6 9.383815179055105 3.1588818042163984 4.338862373240612 0 0 0
604 3 7.123840859567914 2.218669581684266 4.992096475381546 0 0 0
62 5 11.71008703486404 1.6877874773530734 2.054721231243632 0 0 0
562 6 9.748057485233911 2.941807411891688 2.189586598465827 0 0 0
1324 3 10.380437837792716 1.5545429629990457 2.1522669401867556 0 0 0
1166 3 12.716387516512945 1.510320477102469 1.5862681234368186 0 0 1
1325 3 11.333703433777377 2.8083645566399342 1.601878432394552 0 0 1
64 3 13.205154647004036 3.1673232610882405 1.6762143576391255 0 0 0
1702 3 11.376596162246361 0.8417945214772531 1.2419908657285232 0 1 1
1022 3 10.133469872357939 2.2848845328905467 0.8552328393408916 0 0 1
1165 3 11.364869151478528 1.5699144949395871 0.9365563711413023 0 0 1
1167 5 10.24940254842681 1.0322570719490236 0.92088228168988 0 1 1
967 3 13.838744591518296 2.31119086465948 0.6009170878992711 0 0 0
235 4 12.390594766010043 2.4326335138966555 0.5227601185379535 0 1 1
1326 5 11.34977634668703 1.5096244518103974 57.3171431731077 0 0 -1
969 5 12.398326911017158 1.0646851248522287 0.540716445581 0 0 1
140 6 14.525893499015506 3.1352709735178315 3.1221586557563934 0 0 0
5 9 14.578245713261422 3.0034209221623085 1.4807077770351524 0 0 0
45 6 14.76018639632981 3.188332499607707 4.513532303587058 0 0 0
39 8 15.276416210240846 1.8684453951907358 57.396123910739 0 0 0
63 3 15.910170376038394 3.6585986651918025 3.6613363535557797 0 0 0
332 5 20.68477414089338 2.067394135470466 0.8948542165841328 0 0 1
26 6 21.055901121986214 2.1394561843896422 5.130015488626001 0 0 0
275 9 2.3627815308253823 5.090220622097565 1.10651402362263 0 0 0
292 6 22.241974988477367 4.20386072212043 1.7306273420738894 -1 0 0
594 8 3.3914129115753617 6.350225315944215 0.6054837807187108 0 0 0
656 6 4.734799715546374 7.735221023813931 1.4369539782688556 0 0 0
54 8 8.986432551735646 4.185314051974987 1.4835557099430694 0 0 0
847 3 8.36869201940083 5.608074684429667 1.1508774494805059 0 0 1
1285 3 6.311092069929473 8.079166034800544 2.15318984599482 0 0 1
1287 5 7.270998067557784 8.212436435333563 2.525819840594462 0 0 1
1322 3 4.901978239634241 6.267371336712979 0.9175755626075065 0 0 0
1321 3 7.3285854495747005 6.9421391934425305 1.447362608819315 0 0 0
1323 5 5.842114626509792 6.853324248730373 1.5858049335252502 0 0 1
1898 3 6.481553757474248 5.841439199687533 0.9533365280022306 0 0 1
55 4 8.96018891769264 7.112192789879715 1.0557300983142763 0 0 1
91 9 13.319778107544572 8.040736635637758 4.070030652013166 0 0 0
1983 5 11.544227959851822 7.667760664104611 1.250775122295786 0 0 0
1158 5 9.674006870108496 7.904870547280948 1.7416456230725943 0 0 1
123 6 13.664946399857524 5.714592563228871 4.791379681583012 0 0 0
1157 3 10.490256536738167 7.120531168435437 1.2281901301739495 0 0 1
1360 3 10.843477315363616 8.497263979530993 1.7347358837462414 0 0 1
423 3 14.23268794731467 4.027212209949724 0.9098987772859887 0 0 0
1982 3 9.963180630421668 8.332798829036628 0.635916112123324 0 0 0
30 6 17.175316796967024 4.043518647241758 4.407354296342268 0 0 0
968 3 15.494203755978287 3.777773437070743 1.823230126126678 0 0 1
22 6 16.042185952454503 5.3395127968989655 3.6250751051093357 0 0 0
116 6 14.72286316051377 4.791648747886109 2.8695391906341743 0 0 0
42 6 14.770387351192527 6.196449810683575 3.5857975575164343 0 0 0
394 6 16.15310297026901 6.073298059323589 2.3048650009460507 0 0 0
361 9 15.111923194054185 6.933508044729812 2.7041493660956846 0 0 0
390 6 14.048808684079823 7.036031387496221 4.364503774495205 0 0 0
1973 3 16.862004046756955 7.137656099246401 1.2414087666399374 0 0 1
90 4 14.956290146687975 5.315373013622912 1.3556738049178043 0 0 1
913 3 16.38065274541738 5.521976462234326 0.907146856025833 0 0 1
324 8 15.823592929048704 8.141328658885362 1.1318282481978423 0 0 0
424 3 15.340349211943533 6.817272734289667 1.0515140214555878 0 0 0
17 1 14.24749817733223 4.282909195905189 5.041518470483743 0 0 0
46 6 15.001927886503559 5.571706090232735 4.641707744664026 0 0 0
325 4 15.918826569267832 3.085808619447322 57.309671266824125 0 0 -1
386 6 21.49087375213706 7.303644868329503 5.385199037338372 0 0 0
279 9 21.437302680648067 7.1205299506194155 4.171312954992594 0 0 0
316 6 22.037670603518396 6.514287196214304 3.4254177604017744 0 0 0
373 1 19.996042497408357 7.630780824128395 4.850400752833145 0 0 0
290 1 20.783325428535733 6.129523565738129 4.394190939916495 0 0 0
692 5 21.85672329650433 6.609664815448208 57.12927674144091 0 0 -1
319 6 19.8638304615953 4.153881437092875 4.752685254616038 0 0 0
274 9 19.19844230688899 6.130613155110842 4.952573650329749 0 0 0
1286 3 24.29821238191277 9.569717505295314 1.3254342551713032 -1 0 1
672 6 4.930284687848216 9.201512620770691 2.092712132949254 1 0 0
650 1 4.135749009888376 9.093773703935708 4.513273886901662 1 0 0
770 6 5.76839546028131 9.156154093807686 3.5044478165531103 1 0 0
153 3 7.993053344241203 11.01387158786477 4.293526666810482 0 0 0
652 6 6.322044319146214 9.79278746485164 2.496179722733453 0 0 0
660 6 5.092638799662986 10.24862477720063 3.0149749823729315 0 0 0
214 6 7.085572747879731 12.009883226744469 4.193462204249099 0 0 0
106 1 6.545734550926337 10.531025106461872 3.8171122071232992 0 0 0
206 6 8.120307875239813 12.64147225853934 4.809781935810312 0 0 0
181 9 6.9923613232025055 13.172558487885873 4.856977526000312 0 0 0
152 5 9.031201885598533 12.706653959440159 3.458670319315073 0 0 0
132 6 9.33142199808515 11.855946149870588 3.934401190005628 0 0 0
120 6 11.56976416861335 10.457301996961808 2.6360598621644624 0 0 0
154 3 10.761053587586327 10.891057684931955 3.86154827483157 0 0 0
95 9 11.685360430397978 9.608678347859263 1.7476662433906531 0 0 0
99 9 11.795644790240841 10.177153555526946 3.899108311127325 0 0 0
129 8 10.341246343354765 11.677715892696915 2.8742270546511284 0 0 0
414 8 13.194756494464102 12.322842373453803 2.579852125346508 0 0 0
415 4 12.716183670259351 10.874462681514924 1.8451523534676604 0 0 0
513 3 12.146353056394634 11.301890297239158 3.31991652347997 0 0 0
180 4 12.022817899460572 12.026229961062441 1.8456294296575315 0 0 1
376 1 13.776795737875387 10.667100918719589 3.272298656554275 0 0 0
1758 5 13.118604905084466 12.034999501188544 1.3216379842009633 0 0 1
377 1 12.371667217668698 8.871587062544515 4.913559837460975 0 0 0
1804 3 11.917025053399154 13.524211507376087 1.7890434907837203 0 0 1
484 6 14.041446609192112 11.75235809815779 2.0788678211223326 0 0 0
112 6 11.470698052719971 9.021022170875604 0.7313757740461493 0 0 0
365 9 15.970081028378766 9.409445112604882 1.4454294545999091 0 0 0
369 9 15.740873941541068 11.449526883332128 3.9408814119161555 0 0 0
402 6 15.102544606184013 10.47071734371402 1.9159016253443035 0 0 0
406 6 15.050251963552935 11.296269905309941 2.9520129746071238 0 0 0
476 6 16.271271094302136 11.451043029108428 2.7775822131893353 0 0 0
684 8 16.46039508195886 10.740930162411821 1.4542625761462553 0 0 0
472 6 16.049497489646203 12.71083455771233 3.419127860779544 0 0 0
382 6 17.08456453742099 8.947237126758989 0.8046795706097973 0 0 0
1756 3 14.71524065615769 13.422259391444326 2.6532067999147135 0 0 1
676 6 22.976529714576532 9.982866789077285 4.5296912271358645 0 0 0
1231 3 23.564219953500388 13.61711638967519 1.5786456087810852 0 0 1
635 9 24.642358503745847 10.475650741134324 2.2752300773049177 -1 0 0
1759 3 23.847654934332855 10.847595434656013 0.960062281541918 -1 0 1
1044 5 24.73577666374537 13.230716613727482 2.5268088745161896 0 0 1
669 8 23.786639004314058 12.320733433204637 1.137495556448465 -1 0 0
202 6 6.302319829427094 14.058443806018019 4.997153728084523 0 0 0
496 6 11.122961312133025 18.40458492825269 5.021180799005709 0 0 0
296 6 12.60279005545568 18.1270190339067 4.521117120517591 0 -1 0
922 3 10.872577665186016 17.32859205789392 2.3482193873709196 0 0 1
774 8 13.61801143743431 16.77017185823133 3.8635953784726644 0 0 0
540 4 12.9247804728993 15.766496804656427 2.8154414273384765 0 0 1
1235 3 12.026623061542116 17.09681181342627 3.239797626077322 0 0 1
514 3 11.99256624092498 14.994714257880561 1.973166569792725 0 0 0
923 3 9.922682654162678 17.881627559380178 0.8968392897817377 0 0 1
924 5 11.77785962990065 16.33873749267108 2.1878024243290293 0 0 1
1916 3 10.821296887713567 16.180598986474905 1.2151024701908333 0 0 1
1490 3 11.073824274893978 14.27208764855483 0.834650123931113 0 0 1
1021 3 18.39846803158633 18.19542738325582 1.7769731557205164 0 -1 1
512 5 14.637524423644955 14.9758366208908 4.22577848799858 0 0 0
1757 3 14.367513688599688 15.263355872616566 3.3006221831283695 0 0 1
492 6 14.36753461384735 18.180253602883433 4.4995473684501635 0 0 0
818 3 16.48979969139525 13.66550630565443 2.322409719615215 0 0 0
1491 5 14.634850263961123 13.744364659199935 1.7882732070054101 0 0 1
1354 3 16.28459655358652 15.271745621029723 2.163631980817407 0 0 0
1356 5 17.416733914586413 15.192483721710236 1.7595875910219392 0 0 0
489 8 15.626852998729108 16.106087485098982 3.296257843793184 0 0 0
451 9 16.976007995086064 13.658597457681717 3.5034069386143907 0 0 0
455 9 14.737925154484905 17.18896877492479 3.690318423257164 0 0 0
775 4 17.070050789971425 16.024181819968852 3.132178637867486 0 0 0
1090 3 18.424865270779822 15.366370471537339 2.6315480579545696 0 0 0
1355 3 17.48269000147649 14.60213243183024 2.8204327527930086 0 0 0
1489 3 15.927146106024512 14.529395436431631 3.4093610582280487 0 0 1
817 3 17.49692351912753 16.21704676851956 1.747198662284622 0 0 1
819 5 16.385150739791147 16.42635220825712 2.1384988345307807 0 0 1
1704 5 18.348573872007712 17.18209225989343 1.0769677745085677 0 0 1
1091 3 18.617235829458743 16.80209711657487 2.1904843609377753 0 0 1
1092 5 18.6053578600813 15.866867303651944 1.4199661565851982 0 0 1
1023 5 19.323148121463312 17.65296180910505 2.5205381384145036 0 -1 1
566 6 19.856113922886415 15.701798453144665 2.3410020570420746 0 -1 0
725 9 20.90713275226568 16.42383456935599 3.133849868060532 0 0 0
742 6 21.689116374897385 16.72574978509421 4.016743284772369 0 0 0
762 6 20.61038302038512 16.849086887818764 1.9577123323221013 0 0 0
759 8 19.28502133032629 16.782330247632565 1.692406486903095 0 0 1
750 6 21.426054915203302 15.581973301664693 2.0296344571618405 0 0 0
234 8 23.18392196713856 15.130170589359695 2.6415769312300243 0 0 0
746 6 19.714861276639887 18.046048939462693 1.2997048466449292 0 0 0
1895 3 22.40001253253759 14.874738116743039 1.257582164302574 0 0 1
197 1 23.232979903464006 16.4855598690232 3.828971653965294 0 0 0
185 9 26.01703321884523 14.899519127000238 4.701952156936029 -1 0 0
50 6 27.93061557725473 17.875058715463844 4.057521881662464 0 0 0
189 9 26.796544911948693 17.554260349840995 4.249298530309203 0 0 0
222 6 26.045408188424446 16.485532684689716 4.280068703484764 0 0 0
270 4 25.14252925355683 15.756894401475765 4.886758348644975 -1 0 1
226 6 24.67797218351214 16.68982081289336 3.74571967790484 0 0 0
1043 3 25.12941848973303 15.00554366638315 3.5782122218854315 -1 0 0
895 3 25.563875319915134 17.70788678404257 4.419308234497441 0 0 1
1894 3 24.36759840170021 14.098887117246196 2.7341575531860665 0 0 1
219 8 24.25929952498156 17.110184797468094 4.980975263416405 -1 0 0
300 6 1.5443398515696338 2.971811495516692 9.136775474320828 0 0 0
278 9 0.8215047192250813 0.41365353157709156 8.165723812486421 0 0 0
210 6 0.9876760352052634 0.23463320140435737 5.461694849528648 0 1 0
466 1 0.8177819020309398 0.8798867978699462 6.673457763832553 0 1 0
467 1 2.012099356738836 1.561062773049481 5.838952339843001 0 1 0
470 1 3.890509192549174 2.6676121370115924 8.038353089320557 0 1 0
487 6 2.438093476830687 2.0921268596254317 8.709078388904866 0 1 0
552 9 3.2152382578166137 1.1646792301406965 8.488169542833134 0 0 0
459 9 4.242093185380041 0.19586351017796122 5.677599145563113 0 1 0
323 6 1.6098221360947713 2.371733250808115 6.9413928766197115 1 0 0
315 6 3.1693280473597154 3.060281122395554 9.199019228210135 1 0 0
139 6 4.810737412815476 5.028008816943933 8.926461277721808 0 0 0
541 9 8.892895945820953 0.8425963175724356 5.4830205020969665 0 0 0
283 1 4.507245062681628 1.1058579016293675 8.118412151698706 0 0 0
603 3 5.643972627245185 0.20250044489641403 5.521911977841439 0 0 0
586 6 9.035975062413252 3.033658904446132 5.717553124497378 0 0 0
574 6 8.16353621469956 1.8287569020569787 5.661905961656829 0 0 0
320 6 6.728181000134708 1.182139521855677 6.107565361934648 0 1 0
557 1 5.216763655555822 1.2947939257547956 6.463936374090493 0 0 0
560 1 7.184971893260045 3.1854346396014543 6.0207903463077015 0 0 0
12 9 13.27957664992157 2.7228900605272006 7.538891838517653 0 0 0
49 6 11.439189119455913 2.8031313058685794 6.486518913244162 0 0 0
184 9 12.536173276558994 2.9066829929389515 6.8734024405289755 0 1 0
553 1 11.35413248236648 3.1101963032703264 8.010967435675397 0 0 0
217 6 12.333033649886058 1.8931568182748166 7.796020848627405 0 1 0
573 6 10.810551524511213 1.6621014713919273 6.489943638521908 0 1 0
724 9 11.052484518807502 0.5185016963185602 7.007179986890352 0 1 0
740 1 12.124542211199506 1.1594611717636627 6.277176666996054 0 1 0
8 9 14.22656762041286 1.9826858490765302 8.869408948806493 0 0 0
85 3 14.211857377418747 1.252128134111026 10.057227670362026 0 1 0
53 6 15.898489256250235 3.129607708874426 5.2904877513874755 0 0 0
196 1 18.27463461892685 3.2311384627187807 4.9605914931000745 0 1 0
84 3 14.86461553169465 0.6105244551762153 9.013530096160773 0 0 0
25 6 15.22059970376996 1.8958130195268297 9.46533500525488 0 0 0
40 6 15.956045365123442 0.7386284147860973 9.830402643992576 0 1 0
33 6 18.662504489381746 3.117098030980767 6.639307332015793 0 1 0
13 1 19.56043363769215 2.743735836181911 5.584904595399927 0 0 0
310 6 20.579452866774442 0.8225045549115346 9.133178366636429 -1 0 0
1 9 20.728648858112106 3.5255642993670553 5.474101981905927 0 0 0
282 9 21.297170655508335 2.883495709678145 6.084895153860018 0 0 0
713 5 2.2469961894414943 3.9023538109131346 8.500254796261927 0 0 0
569 6 3.7440160702387675 4.034825183336812 8.725463038906458 0 0 0
303 6 3.9512698623005766 6.074282898494899 9.446101482121051 0 1 0
593 6 4.459568936994877 5.725305311732642 7.960558788265006 0 0 0
616 3 2.428156924932997 4.07658221034074 9.636225885117664 0 0 0
577 6 4.279237896334104 6.986061391717343 8.308951303949993 0 0 0
638 9 3.3663717983732537 7.179061638265115 9.16697146557584 0 0 0
639 9 4.708630877459741 7.501820976917165 6.949514075127686 1 0 0
107 1 6.230942876546081 4.759286989608722 6.573306325288356 0 0 0
410 6 5.714435077977592 6.870034129464782 7.670795844348078 1 0 0
642 9 5.687359958817352 7.840872427045047 6.7107585631192626 1 0 0
544 9 4.928702624887404 4.421039581501693 7.8937850361134805 0 0 0
556 1 6.416794686283161 6.47077219884976 6.243866612425999 0 0 0
631 9 8.286090027379556 5.685904978043971 7.484917401529132 0 0 0
664 6 7.615940621151131 5.3594230696966925 6.588857305120931 0 0 0
643 1 7.204389105187995 6.205890207697355 7.670435561062332 0 0 0
663 6 6.004026670019424 5.634273540006245 7.85709673326283 0 0 0
611 5 9.296926270006665 6.117219061534272 9.615369049463853 0 0 0
124 6 13.121225280306229 7.716439799938652 5.1184757081695755 0 0 0
549 9 9.562904834273969 4.0625012850731395 5.261340199024628 0 0 0
98 9 9.923556223201167 8.266200016359363 9.606052192279519 0 0 0
680 6 10.723767209448008 4.688051408520868 5.501041318156678 0 0 0
16 1 11.329422708902998 6.334994079135757 5.347522569751277 0 0 0
230 6 12.926536933389272 6.513084631187908 5.710927608510949 0 0 0
9 9 12.476689572918277 5.245838575511547 5.652248358539025 0 0 0
4 9 11.684506875831604 5.069369384909028 6.322856271454401 0 0 0
103 1 11.871366293443314 7.72064784017449 6.229258542846703 0 0 0
34 6 16.019522393168742 4.699811885245337 5.1675894275501335 0 0 0
307 6 18.320148972595558 5.261135640874776 4.892632389409407 0 0 0
628 3 2.4845964244042724 5.045165917171861 9.065420350058563 0 0 0
614 5 22.051894055840467 6.264845190552734 9.00358442645076 -1 0 0
286 1 19.26241339098661 5.153671198442303 5.964015118159476 0 0 0
690 8 22.01034254635131 8.739700239717708 8.938535165032132 -1 0 0
393 6 20.088570533046493 6.2134047405653146 5.8776463842572575 0 0 0
136 6 8.570233310503637 11.441513620320203 5.477007194355943 0 0 0
94 9 7.4043953682940105 11.492430371614978 6.742882502346642 0 0 0
127 6 7.629672643874049 10.942118413178958 7.801506013143991 0 0 0
205 6 7.034979020971768 12.048292513531544 7.7675885255741886 0 0 0
213 6 7.278321168937791 11.75560476299255 5.563345396327961 0 0 0
119 6 9.228014957829359 10.818097873896203 8.302500874513198 0 0 0
703 3 7.681515524926893 10.757913661795286 9.129492678901459 0 0 0
702 3 6.753494824089786 11.822645203666792 9.0773002278162 0 0 0
171 3 8.036884707476721 12.169908807704449 8.809434594019445 0 0 0
201 1 7.062474110055642 13.434215088943521 9.406379692360119 0 0 0
710 5 8.414803199298364 10.560223298708348 9.738341102226702 0 0 0
701 5 6.646200688261115 10.943949207897191 8.269153696709271 1 0 0
20 1 13.978549083765948 9.095927040040529 4.803182933531413 0 0 0
172 3 9.94423538694832 9.43562717689556 8.765933109429811 0 0 0
409 6 13.352092653042972 9.547485189805387 5.951186022097886 0 0 0
110 1 9.8520606506083 10.724116083882784 5.0781962831396585 0 0 0
102 9 10.288032072107415 10.23034049612647 7.69088650394599 0 0 0
135 6 10.6251306379887 10.735445619930053 8.864754765184777 0 0 0
143 6 10.412399610520165 10.021900622019167 6.473443881293336 0 0 0
163 3 12.768231748241968 12.152880469558358 9.05402070668676 0 0 0
364 9 13.883342615580242 12.532556896331197 8.181268737321222 0 0 0
475 6 13.478238302211256 13.40161458101946 9.038419540392232 0 0 0
389 6 13.937171925278781 10.731560740606449 9.852748598734644 0 0 0
500 6 15.552903499068625 10.93100352040895 5.119823535958964 0 0 0
372 9 14.885706234589065 9.870980990467654 9.030538670875412 0 0 0
397 6 14.300737760327273 12.301605042867724 9.438453377584105 0 0 0
380 1 14.656233903859023 10.749248105426197 6.507603846618988 0 0 0
413 6 15.132135305013719 9.895583341414449 7.7576017676452835 0 0 0
483 6 14.16758822422274 12.253127874667708 6.99722035843168 0 0 0
659 6 21.885374345528934 9.836800350452723 9.774719519162986 0 0 0
754 6 22.920704233125175 10.308936512634697 6.795150986049674 0 0 0
704 5 22.32602644530314 9.726098723166258 8.549863229619762 0 0 0
646 1 22.065332552176898 9.47241328474308 5.5706021674113115 0 0 0
634 9 22.800066155147828 9.11712472810507 6.848281370380832 0 0 0
667 6 21.55199785657937 9.36178356160685 7.731726927399106 0 0 0
753 6 21.38305975656382 10.523500457145147 8.564344065767479 0 0 0
705 3 20.615282497103024 9.457322271262386 8.762966646690439 0 0 0
706 3 20.521568256976533 10.638245569262278 9.877322662635994 0 0 0
683 6 4.598196617333717 10.337759001306512 5.526588589639706 1 0 0
733 1 24.611780048718895 10.396265178658204 6.907705701943145 0 0 0
647 1 23.759228034518625 9.393071323137287 5.802124585705124 0 0 0
330 8 1.205434292599333 -0.008386962967145029 9.294723095843848 0 0 0
253 3 7.881895835574554 17.867652940859436 8.764050912433497 0 0 0
295 6 9.272785875699643 17.156398899229046 9.58211517672389 0 0 0
454 9 10.262113744885443 17.83827982896404 9.227236810081532 0 0 0
193 1 10.120833343845616 18.37573286866205 6.180561065772745 0 0 0
462 9 11.72312260922945 17.95835761796554 9.661904456741906 0 0 0
711 3 13.272509359073256 14.820133916097612 9.694169709756059 0 0 0
602 5 6.848862374876183 0.0693678921230894 5.645082223512148 0 0 0
480 6 17.99742686268913 13.879870033647448 6.969976446456592 0 0 0
773 6 18.87225589824973 15.600896853008265 9.299230554090943 0 0 0
736 1 17.788319377074128 15.847833621083856 7.842775028525448 0 0 0
463 1 18.765612679171515 14.383701280539384 8.26177708139309 0 0 0
732 9 17.896725239617076 14.928340823332086 9.165755347376457 0 0 0
757 6 18.455018481838454 16.626179439426878 6.494763248063646 0 0 0
737 1 19.140094870255773 15.331812669634438 6.746453414882933 0 0 0
721 9 18.816108924935257 17.63814393600842 7.241339203858888 0 0 0
766 6 19.31749346139772 16.431179327276908 8.078049090295535 0 0 0
254 5 23.687053792800597 13.547383329272456 9.878610585427683 0 0 0
729 9 19.58329248799325 16.99738757368715 7.111588051203683 0 0 0
791 5 20.599655035739453 16.779398669340324 9.360468855956608 0 0 0
792 3 21.72715283705863 17.648354519545194 9.453122111189055 0 0 0
251 5 19.521942004087183 0.22425463009536606 9.211635106679656 -1 1 0
240 8 7.25114576796464 16.202296129249802 9.324604055816675 0 0 0
233 6 23.779727362324742 17.866590115060156 7.111881542228978 0 0 0
220 6 26.92760848204733 15.088420641384745 9.331355769760714 -1 0 0
354 3 27.217041052132252 17.54630632618501 9.625925050571066 -1 0 0
229 6 25.4067467656998 16.911375453857694 5.66141110837965 0 0 0
192 9 24.471243177369452 17.404352974416703 6.268070253256049 0 0 0
200 1 23.974438985195942 17.91967218683542 8.836141079811641 0 0 0
225 6 25.155815372586417 16.722723850893928 8.854081745262906 0 0 0
188 9 26.3247158795503 16.45971295547635 9.169095854044604 -1 0 0
255 3 26.122388559079727 14.311299259836597 10.237801267921302 0 0 0
353 5 20.904688259793076 0.8355656819815437 10.277360126355752 -1 0 0
585 6 12.788925389662428 18.237859411435352 10.462517285928373 0 -1 0
81 3 8.15483733910637 1.8097255403852661 12.434201197349955 0 0 0
561 1 7.089584631618146 0.842698442750875 13.279768749186013 0 0 0
580 6 6.2798678487791815 0.48428829666724327 11.36507249007942 0 0 0
599 4 7.851698169264857 2.335187170610378 13.775067698965492 0 0 0
600 8 7.89677246115377 0.505181788451208 11.463931712437235 0 0 0
548 9 7.112427489564314 0.36362663449071053 10.297517639186754 0 0 0
82 3 9.416809956751761 2.855356249655125 12.134125162014138 0 0 0
168 3 8.590381884504943 3.979745271235608 14.554748401823836 0 0 0
601 4 9.377616502554613 1.1072868692166744 11.805322801577837 0 0 0
86 5 10.915590198664429 1.5974770198446013 12.274797820806402 0 0 0
87 3 11.61648761802505 -0.11575642615903292 12.359342975023248 0 0 0
88 3 10.656524650656658 0.7982880961647252 11.749813275950215 0 0 0
21 1 13.62379618992815 0.1382721923767005 11.582645419637377 0 1 0
808 3 20.35920797710767 18.176430164914436 13.335004552185977 0 0 0
625 3 19.272568601883304 18.218968980587192 11.071636834103865 0 0 0
80 5 14.105504872944659 3.2075725561119386 14.119089323205063 0 0 0
60 8 16.268961868036815 2.2238843594254893 10.472764718573243 0 0 0
61 4 17.500039375851276 2.786873515948767 11.058729992193912 0 0 0
83 5 15.191864564299934 1.4517615296155055 10.676281652895197 0 0 0
358 3 16.171547802406856 3.5373570894696758 11.470103423683012 0 0 0
709 3 18.88269692075778 2.5319160911395184 10.649546439302423 0 0 0
209 6 14.930187435288774 0.18541309008659615 10.538473056171815 0 1 0
70 3 16.146211150497756 2.768203868604483 13.853143074906866 0 0 0
314 6 18.47312125762027 2.6224028325893194 14.008757539580264 0 0 0
331 4 19.69211140729616 0.6604142293032377 10.31843905954591 -1 0 0
622 3 20.192273767443375 2.0255448010157435 10.286958137527115 0 0 0
328 8 21.03708009254209 3.395077957126584 13.457279017310364 0 0 0
439 3 19.82396488089605 2.4487170687383464 13.500610956090867 0 0 0
621 3 20.227874775837904 3.4671117912216753 10.30890184589646 0 0 0
612 3 9.470287323036573 6.495768568228605 11.028761485655185 0 0 0
715 3 9.197091626804562 4.211958634606034 13.11705860126637 0 0 0
169 3 9.355067569697814 5.203689450035508 14.325397786797208 0 0 0
29 6 9.529305887785581 5.217858982321409 10.319685007851547 0 0 0
442 3 9.680244681601389 6.959293048970737 13.822620845782216 0 0 0
115 6 9.691654441321761 7.162352076227281 9.882444180724177 0 0 0
37 6 10.512737612351733 6.095069320684351 10.013122898216018 0 0 0
620 5 10.620909705088275 4.898459065648438 10.30414313671616 0 0 0
714 3 9.725278183715304 4.328109244581489 11.671618540357914 0 0 0
613 3 10.58723146192045 5.60721397957898 11.31698833242572 0 0 0
111 1 10.26842698264391 6.6000462257563814 12.416902233515263 0 0 0
130 6 10.595591254503177 7.837617892608727 10.783564043834135 0 0 0
441 3 11.223790240498454 7.228646649669159 13.708289846812727 0 0 0
264 3 10.332990192203187 8.321402527947253 14.10695048443446 0 0 0
265 3 10.608255637330835 7.938387378248908 12.55682997086717 0 0 0
357 3 15.445808401146147 3.889550925889546 14.467481145326184 0 0 0
385 6 15.286030236984402 7.852293981134135 10.195390240943986 0 0 0
71 5 14.6760048815572 6.028150722048667 10.834761158005207 0 0 0
311 6 15.684237735295648 4.318498049506318 12.934661416303035 0 0 0
76 3 14.50521653156072 6.099893103612237 12.038157024976572 0 0 0
346 3 16.58850043342738 7.346461512930661 11.048330747810764 0 0 0
434 5 15.005532784083373 6.99104939796772 12.842371090953804 0 0 0
436 3 15.092649616514091 7.220232027746152 11.545325979102236 0 0 0
299 6 15.825822848789732 6.085308321072091 11.114462277554333 0 0 0
72 3 15.21161353869349 4.932985369902714 11.692937355567619 0 0 0
74 5 14.822623758031092 5.239226202483963 12.877354356684446 0 0 0
344 5 16.72625160147544 6.390325450358167 11.846696780325455 0 0 0
345 3 16.124152465154587 7.29207579456158 12.488176465536046 0 0 0
75 3 15.80453664010581 5.997510727016526 12.70014281653305 0 0 0
381 1 17.285734283891344 8.134437922041645 13.470293402510816 0 0 0
400 6 17.28154242994254 8.201047721397797 11.978509343044195 0 0 0
368 9 16.553404177499882 8.402194380889666 10.35759740047134 0 0 0
420 8 18.368314722176613 8.473596831018748 10.553205789766306 0 0 0
718 3 18.068721249820275 7.640923696737165 14.900877728806133 0 0 0
691 4 22.941679116966753 6.191576591161872 9.998453540600515 -1 0 0
655 6 21.40402680987174 6.423263851997598 9.983149812606527 -1 0 0
679 6 22.423710879748633 7.550211799386177 9.60357889132973 0 0 0
589 6 21.617883218156745 5.609570630524568 9.799874891890862 -1 0 0
291 1 20.196497583694452 3.120080057157451 12.050144028516241 0 0 0
388 6 19.71603684570567 3.8440869721041806 13.594793138954918 0 0 0
350 5 20.465004481017715 5.860089063601857 9.541550560932636 0 0 0
707 5 20.24737754726002 4.273839050997014 14.489852892389354 0 0 0
626 5 21.077082041317226 5.861609782062499 11.012830250682356 -1 0 0
627 3 20.18352483938619 5.192288285158253 10.40973368288607 -1 0 0
615 3 21.403505364183214 4.460808466182562 10.429226594342557 -1 0 0
342 3 21.197225500763615 7.4654395204402695 10.716765048709547 0 0 0
670 6 20.412504963370484 8.421728166611217 11.011895000021942 -1 0 0
341 5 20.21163518732633 7.405993568704566 11.513288076466395 0 0 0
343 3 20.156192485563892 6.527140025589059 10.65866379467072 0 0 0
651 1 20.871899504271433 8.872916288431703 9.904530684257573 0 0 0
421 4 19.716020923236222 8.148554544249924 10.606172643046408 0 0 0
263 5 9.64632979125347 9.009689910900553 14.156665409783841 0 0 0
161 5 11.867139019691724 10.90196965407818 10.9549600503771 0 0 0
151 4 11.90468215457131 11.046130328111998 10.00365087470598 0 0 0
162 3 12.858780351115703 9.566198901437733 10.26905503327699 0 0 0
150 8 11.831908088735647 8.716576350211055 10.874271264670297 0 0 0
178 3 10.66938692205311 9.493813850360588 9.929586409734407 0 0 0
490 6 12.942291275983898 12.525146993699753 10.464066629923106 0 0 0
405 6 14.244237666016465 9.10321305023429 9.977638261509972 0 0 0
73 3 15.64714222051366 9.378258940236677 10.146977449027583 0 0 0
435 3 16.027302842887504 8.649015166136898 11.351894918052377 0 0 0
447 3 18.289990382210583 8.811590639344171 14.392834228589985 0 0 0
431 5 19.61065221418661 8.916945865089586 11.502672861075219 0 0 0
675 6 22.108798817894108 11.36811275661357 9.79234370275153 0 0 0
433 3 19.573613429218934 9.455713675057238 10.169091742875422 0 0 0
261 3 22.380653070168027 11.819070490671104 11.067548650943344 0 0 0
745 6 21.341181440562064 10.601890507422898 11.034543303172766 0 0 0
432 3 20.614419595381303 9.580000773596733 11.021173460144315 0 0 0
728 9 21.163175959543107 11.814511304494266 10.448422259085039 0 0 0
760 6 23.15744361376332 12.15750606744255 12.439398768361633 0 0 0
780 8 22.863301949432614 13.190903251586823 11.100594950218136 0 0 0
256 3 23.38026066174361 12.227527865005994 13.983550986285849 0 0 0
531 3 24.375712382085318 13.003938018481438 13.299996094685925 -1 0 0
260 5 25.145005781192133 13.435142616463724 14.466860524221628 -1 0 0
355 3 8.013956904186902 18.109188566534243 10.160666281144247 0 -1 0
532 3 7.4337550897218145 14.97683087389646 10.523001672018562 0 0 0
252 3 8.469089131506607 15.12043842825596 11.788046117748102 0 0 0
538 3 7.151589692005853 14.541005746464911 12.189418749493946 0 0 0
187 9 7.9020152392762935 14.127933294041027 14.418286977056946 1 0 0
78 3 6.7431794575865736 14.622854922590232 13.871571594628483 1 0 0
164 5 8.710060193195222 14.133653882599086 11.83336857712991 0 0 0
166 3 8.83675391047268 14.799466700718435 13.501516341659144 0 0 0
495 6 12.333136834933903 14.340798486076867 10.97551212468995 0 0 0
241 4 9.675131100808393 15.516530665114972 11.435667098917405 0 0 0
165 3 11.777235215971535 15.701719612445352 10.165142784778526 0 0 0
499 6 10.827031787316432 17.083018399590905 10.047098341593129 0 0 0
479 6 13.311433694785814 17.272391521881026 11.489451368052805 0 0 0
503 6 10.215623737358134 15.936818807308542 10.023761583715837 0 0 0
458 9 12.72189430560162 13.680378095869626 9.980963742920641 0 0 0
525 3 12.312670777125675 17.044506909438844 10.184082966229 0 0 0
510 8 13.689099485535538 16.45445325632629 9.991389588375476 0 0 0
250 3 10.592491504764142 14.301282148323875 14.138701994034355 0 0 0
522 3 13.254621390041791 15.499672783483643 11.199862978149465 0 0 0
524 5 10.648214495010638 15.04363603159852 10.75441319602432 0 0 0
526 3 10.454294387933684 15.434275722574535 13.122906436555997 0 0 0
801 3 11.205814300534207 16.10777879178847 11.3360312113124 0 0 0
521 5 13.355824727243503 17.536659141116836 9.76447550666466 0 0 0
712 3 13.778818946654113 13.774106552914361 10.659077625735572 0 0 0
440 5 14.495078796062073 13.554509422488156 11.206080816815048 0 0 0
530 5 14.884186222135293 15.92344244845609 12.045078146669692 0 0 0
802 3 14.740627692104631 16.387275445238764 11.209929088047325 0 0 0
794 5 15.280815266982785 15.592366247394786 9.792793399245618 0 0 0
565 6 14.701000342572414 18.089562943446474 12.19176464801237 0 0 0
617 5 18.724747484208088 17.95872321765213 12.80850700017634 0 -1 0
769 6 14.788554442399477 13.881899058158684 9.54783829743044 0 0 0
511 4 14.720970625984037 15.166512814847644 10.444299971010238 0 0 0
523 3 14.380800847180655 17.797500885377673 10.409903051613783 0 0 0
765 6 21.713329996916205 16.47896312199959 10.149053680037289 0 0 0
623 5 19.35461884498686 17.073906009128507 10.16243735266343 0 -1 0
749 6 20.467507177842805 17.850030500885303 10.052180105497458 0 0 0
624 3 20.364037178732367 16.62723781849811 10.488114621841069 0 0 0
781 4 23.457054299889528 14.519223949596682 10.900712188894426 0 0 0
793 3 19.79079500138351 16.93783941536057 11.316301159323409 0 0 0
795 3 22.025702610705945 15.026655007454806 10.722786943244595 0 0 0
796 3 19.96699199326254 15.908006753321215 12.387598182785473 0 0 0
806 5 19.666538962075382 15.809060919647813 11.0695455983593 0 0 0
262 3 20.819143500637416 15.664206387895842 11.531714247149699 0 0 0
800 5 21.040615521029785 15.910894752278491 12.895521496955796 0 0 0
807 3 20.835667931299163 17.060680904132745 12.49632847096089 0 0 0
608 5 20.416435369359824 17.45374514621242 14.36543935124579 0 0 0
761 6 20.201599976011174 16.346369722556936 13.73356414614688 0 0 0
268 3 24.81514935692133 13.92504444194447 10.79286530351617 0 0 0
239 4 25.991363147110643 14.072798545254885 11.844819772648902 0 0 0
238 8 25.6479901332669 13.944080820160549 13.338296021310565 0 0 0
224 6 25.632411209889046 14.606015522044755 14.964618435195932 0 0 0
294 6 2.0376507760611595 2.202552028794753 18.51053854887958 1 0 0
277 9 2.643981579462835 1.1693012183537423 18.55777623531573 1 0 0
273 9 2.4969340754141434 0.15189229395888315 18.94388537674102 0 0 0
302 6 1.7773742658047718 0.5126315570787461 17.90340049394155 0 0 0
581 6 6.903220149151656 1.773545135684822 14.755383795249589 0 0 0
598 8 7.478630737212057 2.9720101707294106 15.136817617574243 0 0 0
339 3 6.670751135934957 1.8143481550087948 16.241392161694474 0 0 0
588 6 6.676780807790987 2.572116690571903 17.597237824872533 0 0 0
547 9 7.7225672673352825 1.8553857729420913 15.878051476800607 0 0 0
564 6 7.879408155372918 1.7717333820096193 17.074864314585135 0 0 0
576 6 7.60107223833946 0.05065834542971487 18.068781521699876 0 0 0
584 6 6.550266405214834 3.3791826386395782 16.46509758981788 0 0 0
682 6 8.013450709599727 3.170230773167573 17.113491392487123 0 0 0
661 6 8.394360084022676 1.4285313628989234 18.41578944922527 0 0 0
575 6 8.050322865024635 2.574254871630169 18.38622854952823 0 0 0
41 6 13.059333840655844 0.21334321380744536 14.888523848925953 0 0 0
24 6 13.511083552900182 0.4204981012472431 16.251612717099505 0 0 0
174 3 14.113754994358306 1.496736805371526 15.339008840892587 0 0 0
352 3 14.503681629268426 2.939882537542424 17.546391825886502 0 0 0
36 6 14.470240318550648 1.7224581455294117 16.875114013593482 0 0 0
351 3 14.774702609919062 2.7942468636181124 14.674925933673292 0 0 0
281 9 17.420514556725838 2.5204924279727976 14.591983020375253 0 0 0
356 5 15.697957037479245 1.814819279937164 14.599197922975263 0 0 0
175 3 14.641016596217524 2.9496256188750216 16.040857258370437 0 0 0
7 9 15.539524041820165 3.3394929146021015 18.11890661171954 0 0 0
3 9 14.750688353732384 0.6692233303239729 16.186131509930277 0 0 0
32 6 15.470612101574076 1.7593622931575732 15.828869616151712 0 0 0
58 8 15.731365508365275 2.6823926818406645 16.991698665428245 0 0 0
59 4 16.275890565302454 2.6375648722357727 15.058655206762593 0 0 0
68 5 15.744304531488197 3.1903490231654956 15.788790427415995 0 0 0
306 6 18.552874207290113 2.271602729563448 15.288008237704766 0 1 0
52 6 26.37906822887014 18.072866403470243 17.885399346183313 0 0 0
571 6 17.21320417549687 0.2042588275923642 19.958598023091664 0 1 0
338 5 19.246070357975373 1.4986264016655255 14.030404279465275 -1 0 0
329 4 20.55250795110026 3.1161924380135453 14.742479696128788 -1 0 0
285 1 1.1967418401616587 1.4476905463790746 19.368813562147825 0 0 0
437 5 20.033584689428633 2.7249503628805947 15.759117713128271 0 0 0
708 3 19.793464358868217 1.9572682872468075 14.893563690320612 0 0 0
438 3 19.312802368496065 3.433261240203462 14.919379921229147 0 0 0
468 1 20.9871028444656 1.5561852250119625 17.897678778615994 -1 1 0
288 1 19.613105409357246 3.4753503745534613 18.7915357700781 0 0 0
391 6 3.87052962123235 3.7970266889518967 18.19507899214645 0 0 0
284 1 4.206011103304005 5.1758616701808275 17.836944912008523 0 0 0
379 1 2.9548798972921406 4.537109910338047 18.987613730598728 1 0 0
666 6 2.9851136667570097 6.174999586541617 18.369534105287343 1 0 0
648 1 2.564756849963592 4.984522430967755 17.421926595748555 1 0 0
542 9 8.001052909205917 3.932629397733283 18.47208933764955 0 0 0
662 6 4.863957898267374 6.476961742825038 18.505796470664787 0 0 0
340 3 7.119706532845958 3.8429576055412005 17.667475678108826 0 0 0
551 9 5.89828222115119 3.767970176841794 17.479554580705727 0 0 0
633 9 5.650811062364034 5.665547676194129 18.208870249411856 0 0 0
658 6 6.591226538863792 5.463768677449329 18.939652751687177 0 0 0
167 5 9.22499503368447 5.543299895305608 15.215912753900843 0 0 0
176 5 9.683352889997957 7.175611311980643 15.81440201528664 0 0 0
149 4 10.479268310770067 6.185476386932118 14.624306655397282 0 0 0
158 5 11.885561045516708 8.931981207943037 14.276141561947409 0 0 0
173 5 13.889571795607429 3.5096589698174494 15.974354097619837 0 0 0
170 5 11.5657121400722 7.208459518473005 14.906160200466699 0 0 0
177 3 10.33512344698835 7.393024416876543 15.214515054330175 0 0 0
126 6 10.376905062205346 4.592868725553079 18.449562021018927 0 0 0
93 9 12.556777366148403 7.697157541601448 16.910346705931843 0 0 0
118 6 11.37349430165918 8.002854727744978 16.400493745564205 0 0 0
159 3 11.508095697896822 8.430530715271903 14.955537381474228 0 0 0
114 6 12.604420141960592 8.667585613109539 16.03402587826109 0 0 0
717 3 16.979236285128817 8.479999807568658 15.168759863227686 0 0 0
446 5 16.415594071828732 8.042508521013644 16.30970845992363 0 0 0
384 6 16.88155460230587 7.831294215457122 17.443164874362903 0 0 0
401 6 17.612756649882204 7.565716017365992 16.28087490952423 0 0 0
367 9 17.177568866221506 6.965817764542496 19.604559040869475 0 0 0
418 8 17.907797012964753 7.711007605658122 18.533437737209187 0 0 0
533 5 17.952061978578826 7.280444069211176 17.49544700853519 0 0 0
411 6 16.778752118959268 8.26667695317371 19.11494921335956 0 0 0
419 4 18.396849733024233 8.340494045012333 17.154426855376254 0 0 0
44 6 15.864078087590462 4.046920282689568 19.16535661917411 0 0 0
396 6 19.620951672788095 5.287696441392824 18.651244325410257 0 0 0
412 6 21.03546996769661 4.095512991600532 19.239866165553604 0 0 0
363 9 20.8589678486445 4.874383538332346 18.199768809159366 0 0 0
370 9 21.834305630701564 5.275363050340266 18.68390026143077 0 0 0
407 6 22.047365952532065 4.26137186447518 17.943964940450392 0 0 0
741 1 19.202278427894996 7.632904400574161 15.895875148403217 0 0 0
428 5 3.6316173646270737 7.970901464049848 18.72892499328569 1 0 0
698 5 8.709361986451372 9.947295950685145 18.36616824212643 0 0 0
700 3 8.036419756708636 10.789313689736138 17.63341267620532 0 0 0
134 6 9.271624581216702 10.881596366355295 18.612033917199817 0 0 0
138 6 8.601071080002033 11.477670424785599 19.811212318422708 0 0 0
183 9 9.585879521346229 12.982100926591473 17.1560992065217 0 0 0
208 6 7.983189473918973 11.908036424700592 18.557406287000862 0 0 0
257 5 8.062117657766812 11.527779969083829 16.95956997192487 0 0 0
258 3 9.026915349364474 11.966786107232021 17.519538429723717 0 0 0
259 3 9.308752820393321 10.432785434058252 17.26003053849953 0 0 0
689 4 7.8383283172052 10.541432377614585 19.035787381845967 0 0 0
688 8 5.440021275249611 10.66286554076931 18.49150821893431 0 0 0
160 3 11.293275879355775 9.458425423527096 16.315735495834424 0 0 0
131 6 10.238747293573088 8.84885655724071 15.681443326462556 0 0 0
97 9 10.186410848980294 9.754281612413637 16.622673187169692 0 0 0
148 8 12.583628867288018 10.00770176685677 16.734851121233472 0 0 0
408 6 12.228949544544742 8.93459403111765 17.41254389178977 0 0 0
371 9 13.099526823298197 9.979670818291078 17.96008635506311 0 0 0
529 3 13.212387954817947 12.598226255417075 18.64970907732243 0 0 0
404 6 13.636196846467563 11.078284728226876 18.45935674313892 0 0 0
478 6 14.233564998513998 12.183476373103156 19.533266346662757 0 0 0
474 6 12.887469669249379 11.456207418543991 19.548196673801144 0 0 0
527 5 14.33430559854302 12.077837325711904 18.388190154011667 0 0 0
502 6 14.338063075984984 9.889759185204637 18.733703281693337 0 0 0
448 3 17.159709067108867 9.005207068635604 16.585244634302786 0 0 0
445 3 18.345635509421175 8.795591744147933 15.74995547029332 0 0 0
716 5 18.257792435333524 9.500797101468088 16.869577482014062 0 0 0
534 3 15.125382856871939 11.075338722143053 18.517946881462663 0 0 0
535 3 17.457123242866835 9.090536462885334 17.92790717831375 0 0 0
378 1 15.947198391507932 9.701556750223778 18.80702248184146 0 0 0
678 6 18.083675824740315 9.101873212837118 19.37343365269187 0 0 0
429 3 23.01119812254089 9.616538158781125 18.690279943861967 0 0 0
443 5 20.24431951210398 12.31034076446409 16.78931505511594 0 0 0
444 3 21.32684805986368 11.762389735529572 17.09899808813411 0 0 0
641 9 20.82730182536619 10.848104167975038 17.92960450933282 0 0 0
674 6 22.07760388855004 10.679109967648422 17.928997594488425 0 0 0
723 9 19.55663663107588 12.62434775347594 18.85659624660659 0 0 0
748 6 20.048284345948403 13.316258712091503 17.894355895085297 0 0 0
789 3 22.52283779797661 11.303239643903272 16.628890858677853 0 0 0
797 5 21.57018465315519 11.839308558535594 15.903505966447668 0 0 0
798 3 20.540962956927622 12.191915735103153 17.941795014621885 0 0 0
799 3 21.24727785889095 12.634319161609074 16.58587850909181 0 0 0
790 3 22.54473253049259 12.73625919885794 16.192162625686343 0 0 0
804 3 23.1015301922387 11.639089244525763 18.057112229422618 0 0 0
788 5 22.4636033085493 13.494495562836576 15.629335066358626 0 0 0
266 5 24.18574072185302 11.145778438863852 15.16619862390668 0 0 0
267 3 23.465417084822064 11.60809259963282 15.52541555667622 0 0 0
637 9 23.470652556243184 10.49535200647762 17.990594957663106 0 0 0
221 6 24.233048141645945 13.019169385979794 15.252778084366827 0 0 0
772 6 24.413701596705646 9.715048362816068 18.028397590532904 0 0 0
430 3 24.18485969225143 8.845319017376067 19.09648019291427 0 0 0
654 6 23.854581862975277 10.53039429022652 19.28102529271707 -1 0 0
803 5 24.76759215554613 12.840596914594803 16.986934400340633 0 0 0
805 3 23.984263347475363 12.272180452085308 16.81214625296287 0 0 0
671 6 24.272304031515603 10.961844680308669 17.05605929412504 0 0 0
699 3 24.597032014836795 11.659131685198654 18.52980019654499 -1 0 0
665 6 25.29415414309377 11.054194408035313 19.491621303943155 0 0 0
204 6 9.237250267544944 14.175426684541211 14.824047412489776 1 0 0
28 6 6.976306943283201 14.103501343833559 15.357541733354443 1 0 0
536 5 9.195155214394864 14.891690973788343 15.59996555474188 0 0 0
491 6 9.758200525116726 13.895983404402202 16.097718058294646 0 0 0
471 1 11.375396993600177 15.494315029660559 14.46603242532987 0 0 0
248 5 10.198206737424476 13.62451679447269 15.02925472084281 0 0 0
212 6 10.287541663359004 13.964289671282607 17.300504823522893 0 0 0
348 3 10.10479050833807 15.343559120319144 16.34340721755772 0 0 0
482 6 13.403577082612223 15.809884311098356 18.53610146820685 0 0 0
347 5 10.46387037713541 16.214541177252052 17.03200541533128 0 0 0
349 3 11.500535637432966 15.698048955379518 16.519243912861423 0 0 0
537 3 10.889912477193679 14.513819287985791 15.474066445405258 0 0 0
249 3 10.04008200845852 15.341697176086647 14.792125242847593 0 0 0
322 6 12.242300039838105 16.61748404208955 17.66250081144519 0 0 0
457 9 10.656555331420048 15.344695898889357 18.987712887334308 0 0 0
461 9 11.672418083020618 17.3211588451409 18.379944200140237 0 0 0
494 6 11.117345600990722 15.99169721656055 18.014863235137973 0 0 0
498 6 10.689061827983863 15.251231163635946 17.69944700265566 0 0 0
508 8 11.99308870324961 15.37769393189481 18.902224617627514 0 0 0
469 1 13.147240591708364 14.197512116117792 19.096034535628267 0 0 0
298 6 12.505617775815578 16.704639637470947 18.96756121409517 0 0 0
618 3 13.627647265944518 17.116693354416086 19.43550467500022 0 -1 0
518 5 16.915133261892755 15.493573179200098 17.996533176305853 0 0 0
519 3 17.287504300289847 16.282640039930982 18.364229372806694 0 0 0
520 3 14.806063211947263 17.187968686595525 18.340795662303005 0 0 0
568 6 16.334544938923596 17.35740407091329 18.221242596975486 0 0 0
619 3 18.576729563044154 16.962995098703047 18.66832126442034 0 0 0
768 6 18.83577623833042 15.487976606535904 18.585045535079104 0 0 0
609 3 20.30623382174231 16.06687459171529 15.08181411484144 0 0 0
610 3 20.773294996441688 17.315281834405916 15.778761595142202 0 -1 0
744 6 20.6909581875419 13.675649032600086 16.784242190946163 0 0 0
764 6 19.912325826561112 16.592255054167197 18.0527368280577 0 0 0
727 9 20.159235552288273 14.800823756207786 16.141127672531105 0 0 0
778 8 20.285740036528793 16.004208234552166 16.58438638094169 0 0 0
779 4 19.88444285649887 14.858552789463886 17.504564504234374 0 0 0
731 9 19.666686498256144 16.432322309315964 19.458499628036392 0 0 0
69 3 26.22133581433829 13.538619084263072 15.274229008824022 0 0 0
228 6 26.146387887909825 16.11278595429215 17.88609073432509 0 0 0
77 5 26.289954994765562 14.482145381421756 16.06296444263689 0 0 0
79 3 26.718801741466695 15.234529973477503 15.384059895081721 0 0 0
191 9 26.84595838188032 16.25459741262287 16.731570426627385 0 0 0
182 9 26.699193171896212 17.115167568713325 17.223359688145724 -1 0 0
194 1 27.129783143502753 16.91473612557013 18.83915572387585 -1 0 0
198 1 25.43705658272133 17.25137326908535 18.742537990652153 0 0 0
734 1 24.44299335736264 17.19548085337601 19.567546853984215 0 0 0
771 6 25.37071683797259 15.90843080110835 19.927556582864746 0 0 0
280 9 4.058139877703252 0.6925944888546112 23.559976000219596 0 0 0
1000 3 3.9162856768371697 2.147248437399632 24.356588910099703 0 0 0
607 3 4.37541334387372 3.843297986886694 24.037219386508223 0 0 0
605 5 4.832563742924485 3.217357037185392 23.35701827306989 0 0 0
321 6 5.264437278634364 1.012358625964144 23.943320721167666 0 0 0
293 6 4.945093533858723 -0.11062641573535809 23.096715476947338 0 1 0
543 9 9.061656401397908 2.2665409983620277 19.151092466726542 0 0 0
313 6 6.436983461761896 -0.004058351053116638 23.464947133212206 0 0 0
653 6 9.258826224895413 2.7591238988349294 22.591818802587763 0 0 0
452 9 7.432758323427878 -0.02180936574844833 22.746671878819367 0 1 0
572 6 9.961264931385442 1.7705742946478975 19.96743727579366 0 0 0
109 1 10.276975188396488 3.7022933000569402 19.88149812395291 0 0 0
555 1 10.603843509111556 2.209121370480868 21.771441316056734 0 0 0
18 1 13.564483491216615 2.1353455162298816 22.404740898529056 0 0 0
567 6 12.037303135421501 1.8630335687595627 22.479604207903538 0 0 0
587 6 11.309277308966283 0.7516197663945332 22.225205049790365 0 0 0
591 6 11.679738405189992 -0.06506046466504972 23.160671938456364 0 0 0
67 3 12.784327880305218 0.695316711481272 22.691083867393235 0 0 0
57 4 12.150230432457729 1.2370203310119317 23.748395759725064 0 1 0
141 6 14.13462746863192 3.040388983475304 21.280882658080234 0 0 0
752 6 15.52914087127923 -0.07946841041588287 20.712819700569586 0 1 0
35 6 15.083802909083701 3.0755726759115554 22.476286552718424 0 0 0
66 3 15.582863963416635 2.749513754595656 19.59850230980498 0 0 0
15 1 16.09681650507553 1.4632875205938192 20.324505355401836 0 0 0
1487 3 15.512993998817805 2.655989680928893 21.16723269907999 0 0 0
96 9 15.87991119564533 3.429377503907193 23.3822014073642 0 0 0
318 6 18.518320705242566 3.324505239329952 19.560196049595923 0 0 0
27 6 16.311151542292848 3.7692419760735376 20.470064354659044 0 0 0
215 6 20.020614132989152 0.6372388579282079 19.165892001583362 -1 1 0
649 1 5.231788686405414 5.415505350580038 19.79233792017306 0 0 0
645 1 6.18241711775537 6.825899386310231 19.40722039937576 0 0 0
137 6 9.221276894851158 4.714634851747302 20.915788554057638 0 0 0
558 1 6.825568473952741 5.674869114406312 20.51582316737273 0 0 0
640 9 8.852803123686686 4.390873960573618 19.81243529890556 0 0 0
1396 3 5.540434367756364 4.760270430825067 23.762293397742134 0 0 0
677 6 5.551824903891 4.855337340947013 21.011035301351473 0 0 0
1398 5 5.703803927860665 4.907525524783275 22.831090595816654 0 0 0
636 9 8.987203187562567 3.8922245484416322 23.083425655175706 0 0 0
673 6 8.544159062131648 5.132969055117579 22.95359270129699 0 0 0
719 4 6.866889482623449 5.009031575074969 23.85364421414955 0 0 0
146 8 8.97803678164529 6.578614071857928 24.149583801370202 0 0 0
668 8 8.370021284485452 4.596907832504431 24.086672760265728 0 0 0
1564 3 8.610970276276086 8.482337770285064 24.234933902331974 0 0 0
48 6 10.939549829770783 4.061160000872318 21.1489776571363 0 0 0
657 6 9.5702741699957 5.108475010268756 23.759335635631796 0 0 0
122 6 11.74983770492635 6.1989114228144295 19.425656162257514 0 0 0
1342 3 9.926878775894311 7.677176244135882 23.73170215000249 0 0 0
108 1 10.0014686643765 6.497240327998443 22.862372935650253 0 0 0
554 1 10.019222357417712 5.3438791427488335 19.929915474976664 0 0 0
100 9 13.142097352337775 6.095875350509074 21.197031802965675 0 0 0
105 1 11.571405934806245 6.320630518192602 21.370845131533574 0 0 0
117 6 11.886755607337395 7.4820954879900015 22.454835631929726 0 0 0
92 9 12.751118063759671 6.7910430958120855 21.93613343968916 0 0 0
104 1 11.548472631225353 4.708795350181829 19.878815887529516 0 0 0
211 6 12.691080908980467 7.217908071996387 20.685129939865735 0 0 0
1344 5 11.040690696844694 7.9264623917030255 23.930525348787683 0 0 0
1343 3 10.645902148085325 8.204937837662671 22.798913792159205 0 0 0
142 6 14.77163458162081 3.7817889899804857 20.221326099066438 0 0 0
11 9 13.97828525180847 4.473492082124474 20.940270478456867 0 0 0
113 6 15.148257826553323 4.128263125016194 21.524554728844628 0 0 0
2 9 16.724739207731954 4.746573291868903 19.759974678133972 0 0 0
121 6 17.28301164246039 5.860235310306629 20.005695367979406 0 0 0
395 6 17.604892410481575 7.989012772974548 20.366130254284236 0 0 0
362 9 17.954690357652623 7.941335240327097 21.60878402111669 0 0 0
272 9 20.783832619458167 5.346429550859115 19.183375445263216 -1 0 0
14 1 19.604034631796065 4.796973598568562 19.935696562784948 0 0 0
644 1 6.650410423939404 11.310380638620488 19.789073565924085 0 0 0
216 6 6.21319615823019 11.591154098998217 21.206351157717165 1 0 0
195 1 6.467908852996162 11.859702551865086 22.694012265907336 0 0 0
751 6 8.55990927969917 10.728425681497342 22.64617341356032 0 0 0
874 3 7.692199827347963 10.813380640139384 23.864700767669746 0 0 0
231 6 9.824763553172046 12.006151824976467 22.17593733810902 0 0 0
269 4 9.516092626395396 9.24755412372824 22.997785013379854 0 0 0
207 6 9.865692436931019 12.248287105205423 23.808837078531933 0 0 0
101 9 9.535645659988683 11.559035059685648 20.705881252734795 0 0 0
453 9 11.926938498065297 12.003270256500382 20.490835257614286 0 0 0
486 6 11.344500663984462 11.062120122984071 22.141657996289766 0 0 0
528 3 12.887902569827835 12.805750705786796 19.970257763634876 0 0 0
125 6 11.185131125959987 9.273496640387213 23.854763800175256 0 0 0
232 6 10.924628108607207 11.613400352024437 21.117078670415754 0 0 0
199 1 10.756135300150762 9.683531876731301 22.562246813082737 0 0 0
223 6 11.970871288553301 10.941065488102327 23.38232285953272 0 0 0
465 1 13.390111671450317 12.023888211715429 23.454334862137912 0 0 0
203 6 9.920890187884682 10.741849831516639 21.57162545453797 0 0 0
497 6 14.561671652774267 10.91163536319208 19.783826552499516 0 0 0
1657 3 15.091974945569456 12.206902984014452 21.74677260882295 0 0 0
392 6 16.78894108974809 9.411605888538297 20.052322205159513 0 0 0
387 6 17.973233335722536 9.095825681732002 21.152848946510957 0 0 0
460 9 14.883502123919499 11.854572396911605 20.636085981462056 0 0 0
493 6 16.740098981175805 13.08461193926699 22.964828606693377 0 0 0
477 6 15.205183459776311 12.090189515868488 23.19184187702785 0 0 0
473 6 18.139176648743955 8.970475755664374 22.413336942196796 0 0 0
488 8 17.772182253110415 12.386795647337458 23.90479089967063 0 0 0
776 8 18.381752058265363 10.745822641288928 23.435725897029055 0 0 0
1658 3 16.369309008003306 11.67186542708225 23.068782518888 0 0 0
1659 5 16.259626102863056 12.4115742592523 22.019645023642116 0 0 0
374 1 18.414263275291713 10.518947694816763 20.3761303644978 0 0 0
481 6 18.705055395881587 10.090764924949172 21.865409165802387 0 0 0
1102 3 14.297357877952178 13.265484877281676 22.902663469333294 0 0 0
501 6 15.544248169076482 13.47873056544706 22.27020912608068 0 0 0
539 4 15.57297261478513 13.408396229594878 23.792910404413426 0 0 0
1104 5 16.28270009206441 12.463567247507408 24.069448501110216 0 0 0
1553 3 19.15361847716026 9.27039804552532 23.356379934373678 0 0 0
756 6 19.073210618547375 11.952490711585392 19.73149406554372 0 0 0
1154 3 23.699482096970502 12.899232516496292 23.638333588002883 0 0 0
687 4 22.708732448717218 11.494828398559715 24.33133039241955 0 0 0
456 9 19.19551382698705 10.177503179694979 24.24268285593574 0 0 0
777 4 19.32818562504218 11.637717990888563 24.316331514505144 0 0 0
758 8 24.113668823469887 11.691847443637032 23.836307079424177 0 0 0
632 9 24.412674702541565 11.338597275904048 20.289888727406975 -1 0 0
743 6 23.886595563987093 11.474274316984388 21.364867927032527 -1 0 0
763 6 25.170298727569694 12.512416448879364 23.162113007880798 0 0 0
726 9 24.14049649294291 11.918454661357064 22.474086357113087 0 0 0
289 1 0.5945607914452017 -0.07969392328930669 18.63864539995913 0 0 0
317 6 9.739374115661128 17.62308535615206 19.596561798395925 0 -1 0
485 6 14.217198358482818 17.691662034523787 22.155451283521025 0 0 0
509 4 13.005349588309196 15.667708987369997 19.930498301800036 0 0 0
464 1 13.584760363973572 16.67544718815121 21.004419118061147 0 0 0
301 6 14.38210806112788 16.21428898853668 22.290646686122855 0 0 0
596 8 13.481716074321303 17.01412988487199 23.262743909763273 0 -1 0
1999 3 14.396729749706996 16.093497790727945 23.772785051096466 0 -1 0
1501 3 15.098998727320827 17.159176093392837 23.11981154840357 0 0 0
738 1 14.91629324898288 14.901196220288755 22.979768068764745 0 0 0
592 6 19.76359222302502 16.812013018922634 20.574765854056682 0 0 0
559 1 20.074582645207045 17.755794599916264 21.82784909240121 0 -1 0
735 1 22.365400315661176 16.729966288524487 20.31167229217697 0 0 0
767 6 23.441026411996233 15.59167894541629 21.019039439150514 0 0 0
722 9 22.8009886093538 16.30985552896282 22.01690820907954 0 0 0
755 6 21.96548492585915 17.09318656647264 21.67227018302233 0 0 0
730 9 23.678095774029458 15.840684842387871 22.304663582516046 0 0 0
739 1 23.700949953710907 17.106870032458822 21.24766096976892 0 0 0
19 1 25.983440463254937 17.612653580240874 20.293164768557375 0 -1 0
245 5 24.771709208137345 13.640216097785132 23.631419126722676 0 0 0
297 6 4.046164601604992 0.5516908181196506 24.857617425297473 0 0 0
606 3 2.971464343038056 3.4159727276704874 24.43048182096077 0 0 0
326 8 2.5570612306536873 1.3996849502681525 25.001878576815916 1 0 0
308 8 2.77508203976084 -0.05723398083582748 26.011023140718436 0 1 0
327 4 1.1877900109691277 0.4571947440721533 25.52360618351132 0 1 0
1502 3 8.440718721226999 -0.42752379402563034 28.831569455433492 0 1 0
2001 5 6.17497813492357 -0.39407846864610824 26.553673470625647 0 0 0
1174 3 6.7689872633055135 -0.4721520485212469 28.682639671850023 0 1 0
550 9 12.21049569219384 1.1956496185982846 25.022873745458643 0 0 0
583 6 11.927504780889494 -0.1278248496450815 24.698711340554063 0 0 0
2000 3 9.844222588597566 0.12569922872906125 27.941620457774906 0 0 0
56 8 13.15009484586052 1.5190356766172275 26.198072444434942 0 0 0
65 5 13.665216768607989 2.0613251088368876 27.329716663766884 0 0 0
829 3 14.368620805102053 1.5756919801083362 26.444076185193385 0 0 0
1777 3 10.726482027513198 -0.40811794783103766 28.669485383506778 0 0 0
1778 3 12.28469860002539 0.2309135126820051 26.178338906246147 0 0 0
1779 5 10.67341078733776 0.8085152077660342 28.701275838364417 0 0 0
830 3 13.602264828393515 2.9354586801575326 26.479914540402998 0 0 0
546 9 20.06970537782947 17.87027414021965 28.255704109500154 0 0 0
1486 3 14.71613285123704 2.7157725381666467 27.303577996622167 0 0 0
10 9 17.212943359538723 0.14320057910521644 25.02660613106334 0 0 0
128 8 16.648958691883013 2.883876925614373 24.299129434154995 0 0 0
47 6 17.440394669430123 1.6454774874566174 24.577769748324076 0 0 0
51 6 18.501850088805362 0.7218021925244091 25.337526712797192 0 0 0
1523 3 16.782891859134345 1.1627151812885157 25.66197724880861 0 0 0
335 5 17.111274844840022 1.720746849079101 26.629569285366607 0 0 0
336 3 15.88296477028079 1.7272991333962124 26.364329494837975 0 0 0
337 3 16.428287361936814 2.649286122043172 27.29802195762251 0 0 0
1488 5 15.540622920483472 1.7408276017226765 27.594872181846952 0 0 0
1524 5 17.67959368958616 2.902899649593812 24.635958404507175 0 0 0
1598 3 15.6334000187727 2.8881536269961594 28.3631125321315 0 0 0
986 3 17.12989755351995 2.5637964112572975 25.69581702202693 0 0 0
305 6 21.803156452195367 3.2970314176286566 24.722695953443857 0 0 0
449 4 21.202323952391467 1.8894365585680442 25.025661504995462 0 0 0
1002 5 20.39106931952115 2.405761596805575 24.940571920432244 -1 0 0
1001 3 20.07953745378944 0.8179292884986311 25.282614013996728 -1 0 0
31 6 27.12647680871927 17.889288775484964 25.75548212505514 -1 0 0
1464 5 4.232027785794601 7.295956408964277 26.100126661808588 0 0 0
859 3 3.9112682298762906 6.649050340809253 25.462320556700828 1 0 0
1493 3 4.480555149529987 5.373153657145955 24.823730489550755 1 0 0
383 6 22.33978459172038 4.586570017216135 24.636232720688806 0 0 0
861 5 4.964337714218756 5.605718102764939 26.84986238812274 1 0 0
860 3 5.239157247875613 6.202479489834271 26.09095764959502 1 0 0
1816 3 7.610169026563895 6.178912197859233 24.9081303647802 0 0 0
1387 3 6.723029385763767 6.4650464755387524 25.957706314345128 0 0 0
1480 3 6.312632669623435 6.465095029480313 27.319690343989965 1 0 0
1101 5 8.708885535610866 7.791778315925523 28.312060455926456 0 0 0
1205 3 6.752077876539112 5.942000330035029 28.568052297279024 0 0 0
517 3 7.738364589348634 7.275152553096473 28.980858333461764 0 0 0
953 3 7.490787542285416 8.528546879225397 28.09411396812732 0 0 0
831 5 13.24937134950474 4.923606385643486 24.958947553529416 0 0 0
147 4 13.210703008335663 4.076715316197289 25.81067919442372 0 0 0
990 5 13.315193296050541 6.0972044619146795 26.72173884742929 0 0 0
1625 3 13.803199314458746 5.208879073626281 26.00104436211197 0 0 0
1626 5 14.052717748725435 4.338830142154703 26.66488503197082 0 0 0
1003 3 13.778093079725558 5.841157747842206 28.192318229022284 0 0 0
1594 3 12.405327394123965 5.177623654976381 26.018044499965995 0 0 0
1595 3 13.303512808145351 4.968903044768119 27.129882000068896 0 0 0
1596 5 12.668421307743397 4.085490543540348 26.78088659436191 0 0 0
681 6 10.153626636825761 8.720128767095023 24.324914441469247 0 0 0
1093 3 16.842783309844023 3.734180805140744 28.7716882281071 0 0 0
133 6 17.05455232207072 3.9741247200179926 25.098184449726592 0 0 0
1624 3 14.39658744300538 4.1682374242194316 25.209682521933587 0 0 0
988 3 14.548160943686183 5.8516983570922045 27.06732897399725 0 0 0
1005 5 14.341117781659154 6.935126127557669 27.96112385446738 0 0 0
375 1 18.961266626805973 7.567077518232059 25.203386482523182 0 0 0
989 3 15.621279068153987 3.762904794027998 24.782489682948768 0 0 0
179 4 17.354327780435117 4.961232699207579 27.696663319405182 0 0 0
416 8 17.755767850040396 4.729887278625692 26.085351220055223 0 0 0
417 4 18.769508383619506 6.159298107737406 25.87814788102174 0 0 0
425 5 17.0548784666446 7.050695974791313 26.845213869923118 0 0 0
426 3 17.36142296078417 6.069306278157221 26.370717673430082 0 0 0
985 3 16.264205379376232 6.173922043013753 27.177335509291773 0 0 0
987 5 17.25169224615607 6.2618146348414925 27.982886512928385 0 0 0
427 3 18.278158510172222 7.3041066286435345 26.509604262215053 0 0 0
1552 3 17.865037002554768 6.116195533684675 27.128575742499518 0 0 0
1554 5 18.53593602179034 5.248739064421445 26.91756207082711 0 0 0
991 3 16.402089663737083 5.328428975783339 28.68189051149194 0 0 0
992 3 15.269619717418404 6.4124514874099265 28.421256709660614 0 0 0
403 6 20.22762195749288 8.066730300911374 24.433505348934055 0 0 0
686 8 22.656849089916815 5.833691986541333 24.79273949681492 0 0 0
366 9 21.276835382715905 5.665511352056977 24.42695900243376 0 0 0
1522 3 20.313938103638424 6.67744682658245 24.56248849132682 0 0 0
398 8 21.60707677263477 6.896267798797754 24.69896093831973 0 0 0
1397 3 22.131868543101223 8.483709676909017 24.71503868387122 -1 0 0
1494 5 23.63938083788127 8.071536784055368 24.60326128880912 0 0 0
1492 3 23.2130774894859 7.355272807810513 25.08062026997185 0 0 0
227 6 8.5514385722825 12.282695923837883 23.26441217131778 0 0 0
236 8 7.519525652229324 12.184430196934635 24.14339869613352 1 0 0
1566 5 9.01238218976241 9.403961702029624 26.024665967056087 0 0 0
898 3 9.268447727798472 10.08262872937553 27.096923339374282 0 0 0
1099 3 7.873061588333718 9.640528727035845 26.561920402041853 0 0 0
1100 3 8.86150029498504 10.703169864531313 25.971602516074512 0 0 0
875 3 8.000669994552812 9.774449733761807 25.028647721642553 0 0 0
876 5 7.021100820585231 9.601619272893734 25.09961278567462 0 0 0
1216 3 8.731680366266893 8.624936935118603 27.291103893475796 0 0 0
515 5 8.187709239566402 10.73518871616948 27.117427636884692 0 0 0
516 3 8.21623768659041 9.813769434753521 28.016128500351346 0 0 0
1442 3 8.650281436143066 8.76609019658466 28.825516356147396 0 0 0
190 9 8.865184787283333 12.514786026782987 24.52399920435391 0 0 0
900 5 9.43110188354376 9.253780992072164 28.13940861318314 0 0 0
954 5 7.778270571792273 9.52389345835983 29.07476839861502 0 0 0
237 4 5.985476682269543 12.674694332389267 24.006081936391396 0 0 0
1565 3 9.933480093178616 11.858012971402204 25.175986286875602 0 0 0
899 3 11.618575103649071 10.593838647551657 24.84374604755965 0 0 0
506 8 11.229927805678136 12.168642863408238 24.38363435615032 0 0 0
218 8 10.325024215538456 10.831567294499386 25.80740080559056 0 0 0
186 9 11.366573542545423 11.641185271131354 25.48362355293699 0 0 0
1195 3 12.475446017381955 11.749562830574662 24.693573086884822 0 0 0
1674 5 18.00563819137799 13.849327613668725 24.41537962657377 0 0 0
507 4 14.462797891270531 12.659940798748277 24.280604630144392 0 0 0
1673 3 18.757784536358905 13.261377578456466 24.664946163924544 0 0 0
697 3 19.0541548387347 9.025838932297745 24.630729031265126 0 0 0
1481 3 20.46746128011419 9.799794305873597 24.42531917405684 0 0 0
695 5 23.14107225634867 10.101264605959393 24.89176299001384 0 0 0
696 3 22.19488256639956 9.918259995473694 24.73666661718528 0 0 0
809 4 22.794636206762867 12.989467373377227 25.05912721703399 0 0 0
1155 5 21.700469974407934 12.335256246440247 25.00144017708983 0 0 0
787 3 20.43311074955422 12.841614058592425 25.119658215855083 0 0 0
1153 3 21.132459953332084 11.269804895048507 24.624814752501493 0 0 0
1482 5 24.0776743242735 12.30981403830024 25.0504671261574 0 0 0
247 3 25.06247967831098 12.691786409757258 24.562557962614964 0 0 0
1374 5 24.03635397223679 13.48490395993282 27.881612687137746 0 0 0
1390 3 8.739110648742322 16.305962668888476 27.91137215153308 0 0 0
1392 5 9.231938477803173 15.526372532203085 27.598852727834185 0 0 0
38 8 7.972161591817114 17.07282702837101 26.714049484779608 1 0 0
1867 3 7.397535237378843 15.06026881779292 28.186779718575703 1 -1 0
276 9 13.169790912095927 16.4854907269905 24.30828662657348 0 0 0
597 4 13.30604327192212 17.677034194113098 24.842115869901544 0 -1 0
901 3 9.440573838536334 17.537257353417118 26.610024196758523 0 -1 0
1642 3 11.796765277785504 17.830035144401656 27.09165063963396 0 0 0
1391 3 11.67573617962686 17.04502385318804 28.77477036849299 0 0 0
1643 3 13.275107018947558 17.724649198147667 27.804715719559077 0 0 0
1644 5 9.540715265805444 16.791914581809465 26.043195359264566 0 0 0
1856 3 10.311348560557732 17.02833415582213 27.953424113698308 1 0 0
1028 3 13.110576350352085 17.954010769521027 26.257284653609855 0 -1 0
1503 5 16.56502426574596 17.27958950853143 28.25069411327659 0 0 0
785 5 18.460727360053927 15.647880712478196 25.82576966940951 0 0 0
629 4 19.170516450555258 17.93857370739679 27.235551022436603 0 0 0
890 3 21.50908733470845 13.481469364432739 25.972229693051055 0 0 0
889 3 21.349934489298906 13.384074816490681 28.833865586319053 0 0 0
786 3 19.407672799946198 15.839007740341929 25.856042196311524 0 0 0
578 8 19.521612667318603 17.212525248070357 25.861663281098163 0 0 0
1103 3 19.42395632117025 14.391505226091157 25.416138307090257 0 0 0
1436 3 21.416283859188496 13.918915084243357 27.40537564005448 0 0 0
563 6 20.400764635326208 14.918314679924896 26.61510758603265 0 0 0
1435 3 22.449496988403418 13.88961597929614 28.67085435557757 0 0 0
1437 5 21.371938295054715 14.534650030525949 28.466829823319387 0 0 0
747 6 24.295374437687542 13.66850001642248 24.675696910690682 0 0 0
1373 3 24.02941264124601 14.015880292785543 28.655205463315248 0 0 0
43 6 25.080819840300578 17.355885521384018 24.913739002133113 0 -1 0
23 6 26.12345818596589 15.500825129944676 26.12758264783059 -1 0 0
1372 3 25.686269618171266 14.289035937158097 27.194086995639907 0 0 0
6 9 25.91394067667316 16.713595086695847 25.52272676063199 0 0 0
246 3 25.64208935980485 14.007048377681675 25.630397547763824 0 0 0
943 3 25.427156676734757 14.121247669114315 28.508904274441605 0 0 0
1855 3 27.01685145272783 16.57677724183616 26.312593513526227 0 0 0
1857 5 25.29855513680081 15.214241658339278 27.99003700826201 0 0 0
1081 3 26.47137008208861 15.41889599756802 27.59928334689164 0 -1 0
1869 5 26.635055451002543 14.007777225030718 27.965089249759746 0 0 0
1082 3 26.155896119105766 14.745238007702069 28.714012470065555 0 -1 0
1053 5 2.1743241067911723 3.4759179703938976 33.455073174211414 0 0 0
359 4 7.235147418159951 0.589950938309718 29.69442870796904 0 1 0
1818 5 7.776786951325778 1.872619842555895 29.704751946522382 0 0 0
1817 3 7.760407722620667 2.874119991977362 30.268102455874182 0 0 0
1462 3 7.6326887133939 1.6038310034181955 31.02981471595085 0 0 0
1027 3 6.536012229480432 2.0252208206154196 30.045870077727187 0 0 0
974 3 8.87781253538405 0.7032967922875274 30.15540719973844 0 1 0
903 5 6.344482366917709 2.0828110979151004 31.355886465921923 0 0 0
1029 5 8.29717483023954 2.7988690775628795 31.406733168206273 0 0 0
1463 3 7.22374038989093 2.653216943317753 31.60253181630286 0 0 0
975 5 9.422911005267862 0.5830462296489439 30.978749620634872 0 1 0
1933 3 6.275180712733565 3.2556212445375454 30.69586954740001 0 0 0
1935 5 6.478946842416145 3.509629290904843 31.907118373544225 0 0 0
1369 3 11.794736793974051 -0.1140798219306644 29.22769270716711 0 1 0
973 3 10.123194103573638 -0.17692610791794983 29.299236189630545 0 0 0
1164 5 12.80733059754856 2.9266043548531533 33.7317641162975 0 0 0
1264 3 10.751344277977653 0.5991753054452155 30.01762277175696 0 0 0
1265 3 11.87315388005755 0.02231249610767383 30.847214431202808 0 0 0
1546 3 13.245616596168878 0.9145173963561449 32.981447541398666 0 0 0
1547 3 11.764713526861703 0.7415704982246895 33.720872221919386 0 0 0
1548 5 11.172508581086408 1.359062311648508 33.3632205019827 0 0 0
1669 3 12.390898634517082 0.09013470587177497 32.14397249111628 0 0 0
1162 3 14.241602076970556 1.9907311816817566 33.009132432948036 0 0 0
1959 5 14.396988233427546 1.8300973872747028 31.94477070506578 0 0 0
1599 5 16.627714215401213 2.5065025128155884 29.05793897806768 0 0 0
982 3 15.112382461058052 -0.41773789081595636 31.750628111455356 0 0 0
984 5 15.289868512380652 1.8491037789660565 33.13189043746856 0 0 0
1831 3 15.463795907048178 2.6111487080938907 32.13052415709305 0 0 0
1833 5 17.75586364232803 2.211362628807378 32.086455602323724 0 0 0
1957 3 15.587374739065924 1.2653704739475482 31.97681708850592 0 0 0
1958 3 16.678979263526777 2.276286371719089 31.361571387077692 0 0 0
1049 3 16.801731676368615 3.103132658856599 32.74972845478128 0 0 0
1050 5 17.72204225079114 3.0500813977040533 33.634765911966255 0 0 0
1885 3 18.181258612103342 3.107444647875453 32.61617995930085 0 0 0
1886 3 17.739986713111385 3.338344539716268 31.717203960600262 0 0 0
1094 3 17.091299146013025 3.025793038128872 30.104346093738876 0 0 0
1095 5 15.748472653311499 2.6671340910258086 30.614493840949944 0 0 0
1366 3 14.751939752905416 0.738798237874476 32.80258516475055 0 0 0
1597 3 15.808209888861478 3.4012658281082224 29.68813743025297 0 0 0
1832 3 16.435486690706817 3.6661488783260716 31.157065999431587 0 0 0
885 5 15.337540048725524 -0.5519980583397762 32.915954624456624 0 1 0
1048 3 19.1412574568049 3.5729310024341197 33.26487603133505 0 0 0
1784 3 3.494787500107303 5.529956526340566 33.42353552081227 0 0 0
1767 5 4.1485688630138045 6.4918406204535675 33.557132584708896 0 0 0
1499 3 2.757326040273846 4.384805763430485 33.64173241258016 0 0 0
1498 3 6.732387971765572 4.545257198295906 29.82790548776583 0 0 0
1934 3 7.598099807034066 3.940242343804756 31.376714754168685 0 0 0
1389 5 7.0843349602677135 4.982416549162033 32.06224976045122 0 0 0
1500 5 5.672012658068151 4.610860292829682 30.36989110030451 0 0 0
1206 5 6.676888494597652 6.455994992600768 31.338903634543705 0 0 0
155 5 8.269761499673823 7.844736587925204 31.482023188973468 0 0 0
156 3 7.550748919553589 7.108030570347024 30.953066724095365 0 0 0
157 3 6.58193528802333 5.325975726783273 31.024591253779395 0 0 0
1388 3 6.446825859103078 4.514494857314975 31.192458463149183 0 0 0
1891 3 8.366396558050102 6.8339719852135055 32.47649934583172 0 0 0
1204 3 6.809367040388862 6.379389274935914 30.00669790506175 0 0 0
1217 3 7.793638380880593 5.76182636755493 31.354469877455397 0 0 0
1441 3 9.064567042029514 6.869438359206209 31.167446347035117 0 0 0
1892 3 8.088494927527405 7.413674929098946 30.356413634075707 0 0 0
1732 3 9.357317235616279 7.1909722505178575 33.227353771031694 0 0 0
1893 5 9.607497511826459 6.148043126213625 32.72879689134249 0 0 0
1218 5 7.026975091767408 7.807478376101111 29.96885457462998 0 0 0
1443 5 8.949203633214733 7.817460109729083 29.545519498075006 0 0 0
952 3 8.007432814890535 8.422724365630375 29.541929799482805 0 0 0
1298 3 10.045946475601324 7.288082658803689 32.074802836632955 0 0 0
1117 3 11.721435773766741 6.576319849289172 31.706577697021782 0 0 0
1299 5 12.206468759263363 7.759328268543192 31.159704650725732 0 0 0
1414 3 13.078513315519634 6.860087533546389 32.058895515042465 0 0 0
1416 5 14.389687698085892 6.498737427394492 30.56591294850997 0 0 0
1525 3 13.013870393327345 6.972359535937774 30.630949774672786 0 0 0
1004 3 14.145137062538666 6.744202774085633 29.278565766538378 0 0 0
1118 3 12.020470813824288 7.63939550831436 32.47300176806799 0 0 0
1527 5 13.648555384915783 7.733672726403857 29.977703260044265 0 0 0
1119 5 12.298806058701462 6.376598930710233 32.771550714580435 0 0 0
1297 3 11.010908760044074 6.69181869307402 33.08015488072944 0 0 0
1383 5 13.938246952569434 7.81819200504087 32.36958707346159 0 0 0
1415 3 14.246343137972323 7.4791846249277985 31.142247665668872 0 0 0
1526 3 13.238696185262 8.249651907197137 31.515159279671664 0 0 0
1734 5 10.343435867333469 7.866910074756561 33.35365549046711 0 0 0
1381 3 14.718341174764877 7.695397117381107 30.500535699192252 0 0 0
1887 5 18.590710810215143 4.104726028086385 32.12799346512561 0 0 0
841 3 17.83392843455778 4.314703679070705 33.147573516288986 0 0 0
843 5 17.230343819854074 4.246443320314142 32.19610344348411 0 0 0
993 5 16.724566388763755 4.1804351518036 30.06663786648992 0 0 0
1219 3 15.538453613953875 7.027812078437339 29.87438983343818 0 0 0
1221 5 15.56563790555063 7.479890309571671 31.410706585108866 0 0 0
1098 5 17.29488565168131 8.456420890103576 31.24776032580695 0 0 0
1220 3 15.937985541430752 8.416040944137555 30.656331983560577 0 0 0
1196 3 14.873541567179347 8.331127210845144 31.830191316595386 0 0 0
1404 5 22.828301569340866 5.1457365084674445 32.82729987063956 -1 0 0
929 3 23.60205837959495 6.8843228717824125 32.85954017745383 0 0 0
1412 3 23.15948971901083 8.292016709526393 32.72815622968607 0 0 0
1962 5 22.049490801039205 8.641566524728635 33.49371108404188 0 0 0
1403 3 22.377352037950672 4.511703800649496 33.729005474547705 -1 0 0
1402 3 22.492668727842503 6.058411101297441 33.64420930121924 -1 0 0
1905 5 22.37534963799581 7.039501123200342 32.86066041836897 0 0 0
1413 5 3.897520448653197 8.12735568606313 32.59475011017307 1 0 0
1411 3 3.8288942590336297 7.87712546611864 33.702958094948315 0 0 0
1468 3 8.759736704199048 12.639086526792065 31.51430272962135 0 0 0
1470 5 8.017036798184925 12.375962610675138 32.25594272801381 0 0 0
1242 5 9.452774108474323 11.861426407545231 31.839578993298637 0 0 0
1469 3 9.071156705270518 11.976920623985361 32.95325361230579 0 0 0
1308 5 9.46686329588337 13.20091635730836 30.934075881921324 0 0 0
1509 5 7.862192932979476 12.932713848773801 30.67248073222844 0 0 0
892 3 8.61800760586687 13.279294609827694 32.61418975231071 0 0 0
894 5 8.301907219608676 13.835922357622312 33.29355922816912 0 0 0
1306 3 10.055278365835976 12.78840969310038 32.19079960415899 0 0 0
1380 5 10.294766978031056 12.17378394318422 33.196457695419696 0 0 0
1837 3 14.079336126241245 13.074383658941024 33.35070468907056 0 0 0
1197 5 14.201910728395596 8.726607885701899 30.833870459654396 0 0 0
1240 3 11.035190962482389 13.322161806256796 33.530310137489586 0 0 0
1241 3 9.647309870714867 13.165746708731858 33.57007920993627 0 0 0
1839 5 14.214377698981165 11.739089498438547 33.08559225839572 0 0 0
1311 5 15.277129026821767 11.808766921554954 31.708301749998807 0 0 0
1838 3 14.946509870491692 12.362792740932733 32.54544063004929 0 0 0
1378 3 15.308571478935898 11.02128618497366 32.72754296181228 0 0 0
1651 3 18.195683046246156 9.763943202849415 31.39717199914584 0 0 0
1652 3 18.34247047861924 9.578141473131597 33.16124219229418 0 0 0
1310 3 15.368924844675503 9.796741630956657 31.35852173634774 0 0 0
1096 3 17.615798397456572 8.947214262470407 32.21194500976864 0 0 0
1382 3 16.915273174927968 9.675973118416241 30.996043460706545 0 0 0
1630 3 16.309399119811967 12.330816383027406 32.518927499581494 0 0 0
1631 3 16.291538794208336 11.10851818407084 31.67322013430872 0 0 0
1632 5 17.03491703577766 9.836488565789965 32.43765918656731 0 0 0
1309 3 16.360953675321472 8.809306222832507 32.08896137448159 0 0 0
1672 3 15.135325575085993 12.211710688491623 33.880190292114825 0 0 0
1653 5 18.81061277190694 8.980544572633315 32.149739222411384 0 0 0
1665 5 15.33025580069706 13.288217541932305 32.74203544762069 0 0 0
1664 3 17.685961277011863 13.022691429575055 33.3649568789017 0 0 0
1909 3 19.315297015025013 12.959176706210368 33.477624466802 0 0 0
1097 3 19.483550528777574 10.092386671886613 32.007249090051445 0 0 0
944 3 23.525146767264093 13.18052574374079 29.783752580766922 0 0 0
891 5 21.347046802407387 11.42011853959032 29.313266195004413 0 0 0
1645 3 19.216025181790652 10.731331436510947 30.662662298301083 0 0 0
1647 5 19.597727513871043 11.691367661665383 29.956553323015573 0 0 0
1646 3 20.745316103297807 12.421863302034545 29.940477820279416 0 0 0
1714 3 23.004924424434027 11.249824714404943 31.34827936027434 0 0 0
1798 3 20.11101968963022 11.626850985529684 31.133458240696413 0 0 0
1799 3 20.528595598979827 11.091489000624426 29.972267570989644 0 0 0
1800 5 20.42278751230135 10.298251997677397 30.679453603274357 0 0 0
1930 3 22.240740471713234 12.391050568434755 29.661994934980342 0 0 0
1931 3 21.673856806970747 11.21105568078617 30.59298918434965 0 0 0
1946 3 20.202153492872053 12.579063928587468 32.38094820739194 0 0 0
1106 3 22.524911223290925 9.528220531831254 32.65936321976595 0 0 0
1226 3 21.65506890730197 12.6117228575392 33.05308193411682 0 0 0
1947 5 20.58898408888064 13.28476613321876 33.382780866292826 0 0 0
1261 3 23.120466058441785 12.586939753821754 32.139253877742185 0 0 0
1715 3 23.536173620475036 10.585225312272778 32.716973576044985 0 0 0
1945 3 20.57434874267676 12.05006486404266 33.77448164120502 0 0 0
1225 3 19.618493521998698 9.870702520118598 33.75312926739064 0 0 0
1960 3 22.323123774578605 10.695140482073807 33.6810904298049 0 0 0
1716 5 23.547864309717145 9.468324485298918 32.01267077972497 0 0 0
1107 5 23.642841926006167 10.247858316063981 33.87569936941759 0 0 0
1105 3 22.895885227164246 9.388924512007135 33.88778423798163 0 0 0
945 5 24.201523811963 12.55046244525709 29.92583769808668 0 0 0
1307 3 24.160757865036523 9.317442988144716 33.15515100732272 -1 0 0
89 4 7.93937302846321 15.432775359811961 29.32669780500641 1 0 0
1056 5 7.832457212281063 14.139950678615161 28.931188756520406 0 0 0
1507 3 8.098003002215687 13.51410720677495 31.203838815317926 0 0 0
1054 3 8.919725868828738 14.596570964368022 30.320511022964297 0 0 0
1619 3 7.231062487925955 14.575095970709995 30.03316302027061 0 -1 0
1508 3 9.436917803816367 14.199236947731743 31.889998150506223 0 0 0
1620 5 7.259567333512592 15.027057345135091 30.87386276152712 0 -1 0
1868 3 6.6271260912684165 14.371298918981863 29.021312637838303 1 0 0
902 3 9.777060453899006 15.984163674674063 29.18987650096434 0 -1 0
1175 3 13.430623940228461 17.253675917512517 29.33536353087235 0 -1 0
1253 3 12.552098720155096 16.52136877466083 30.291410866151512 0 -1 0
1618 3 10.948353861104287 15.96081648738423 30.12914043099717 0 -1 0
1176 5 11.952595281686236 15.338296615319996 30.818080078215175 0 -1 0
1254 5 12.274942654566154 17.255804252736006 31.59558725647549 0 -1 0
893 3 12.128116723137206 14.723102389992023 32.03364579871581 0 0 0
1055 3 10.794990757653393 14.959518619327385 31.288319119653394 0 0 0
1252 3 11.983960851462347 16.297326816951653 31.67243115657125 0 0 0
1888 3 12.67832217004241 13.823457671730607 33.18956929607446 0 0 0
1890 5 13.51026104298299 15.291478278825847 32.181764180034875 0 0 0
1889 3 13.126712228677892 15.772434447640657 31.453691760266903 0 0 0
1266 5 18.74845684724678 17.695028701506693 29.939799694122115 0 -1 0
1932 5 22.1497992132253 13.61752561558044 29.919014905082367 0 0 0
1262 3 22.33548936163059 13.716876083933082 32.397014250341414 0 0 0
959 3 23.598217822277046 13.832270326668475 31.250696199439087 0 0 0
883 3 21.881848804937107 17.706450229537275 32.642630971462054 0 -1 0
1656 5 23.582004067839684 16.914176477204627 31.577473955543383 0 0 0
1671 5 22.16095049427713 15.554280626493881 31.154126444158383 0 -1 0
1670 3 22.319794844458972 16.676215595128653 31.385191933500973 0 0 0
1370 3 23.386877847138763 14.712870066669439 30.162251227726205 0 0 0
1744 3 22.174317746119314 15.688321306277734 32.488841914890486 0 0 0
1745 3 23.331786303304302 15.721560465522945 31.386438396849403 0 0 0
1746 5 23.462921994192335 15.75794997985208 32.57507480208264 0 0 0
1654 3 23.08453689228963 14.85548193445794 31.762895701375125 0 0 0
1655 3 23.09882344337171 16.867260674887838 32.65024828068843 0 0 0
1263 5 23.52323517324309 13.927943906098536 32.506585675067676 0 0 0
960 5 26.140193344610335 13.742925920857411 29.435867220551206 0 0 0
1083 5 27.0017168087656 15.518079314407368 29.174941230166418 0 -1 0
1371 5 24.198880547380885 14.928489388326016 31.195064744624492 0 0 0
958 3 24.931976537397833 14.265505588082512 29.758522417929303 0 0 0
979 3 4.426167521543824 2.185062520572995 36.91636980617762 0 0 0
1046 3 2.077624240335568 1.3156349652436916 36.26883047809982 0 0 0
1047 5 2.749346425759526 2.4071221404990046 37.074181060942024 0 0 0
1228 3 2.3734891936941542 0.6400354306723587 37.62458972703581 0 0 0
1230 5 3.459853922227248 -0.05054359184395685 37.14673626256234 0 0 0
1790 3 3.4192515988200674 2.1317687906804843 35.64899502026519 0 0 0
1862 3 4.622776889131742 0.7142987129532856 37.422255217085024 0 0 0
1229 3 3.619755197544935 0.9187700038180803 36.74229149961253 0 1 0
1810 3 3.3970751231255405 0.23612211402274352 38.38570070782222 0 1 0
1835 3 1.3684866068849817 2.1045870653424252 37.56974345188327 1 0 0
1789 3 4.056479430265445 3.6108734133842333 37.792291666488424 0 0 0
1052 3 2.8943091547061184 3.5018355778226056 34.62385482201519 0 0 0
1766 3 3.6383467804338547 3.5302285662483417 36.37870600129082 0 0 0
1448 3 8.457498964748304 -0.27612962951268366 34.68479904066979 0 0 0
937 3 8.011145959528536 0.1270036975153036 36.0239085808878 0 0 0
939 5 8.43923414052422 0.904092371483214 35.260420510978186 0 0 0
1861 3 7.9227682859907445 -0.2703648478936221 37.54980607655165 0 0 0
1863 5 5.2869142158475775 0.48728888780810864 36.76785042125144 0 0 0
938 3 9.417842645676242 0.34223593301813005 35.82595551781242 0 0 0
1447 3 9.484411012562827 0.45689248249278624 34.95615673790436 0 0 0
1163 3 12.956516604109394 2.045651863673989 33.83155880044498 0 0 0
1449 5 9.46314284461704 -0.16716933600710432 33.90218976484176 0 0 0
1514 3 11.215941613568093 0.6994146911376548 34.99736673101943 0 0 0
1367 3 13.095814228280505 0.6942081254386139 34.67009441609952 0 0 0
1368 5 12.290799921647292 0.9278062227531173 35.57470336968775 0 0 0
1513 3 11.951802515590664 1.8753809820957348 35.0337949617895 0 0 0
1515 5 10.194503897101333 1.2521882043214647 35.2600273766367 0 0 0
1660 3 10.464914561996753 0.21848090239185225 34.56568121174996 0 0 0
1662 5 10.539543513821274 0.016879267507133644 35.737074093283155 0 0 0
1724 3 13.249127188209775 2.981997724592054 37.35847675404305 0 0 0
1725 5 14.091027253425281 3.070030528179582 36.760949231172155 0 0 0
1754 3 13.12760897690874 2.06804767484412 35.498606935081405 0 0 0
1753 3 12.45882335080503 3.325322367098307 36.14180685486201 0 0 0
1577 3 14.107628318568835 0.3835604379925256 35.66557475705624 0 0 0
983 3 14.436231126080344 -0.19291564972760278 34.17645159310359 0 0 0
1578 5 15.327580145986138 0.052533305792405116 35.18698387795842 0 0 0
1576 3 15.85835606240563 0.017359620229419837 36.44676853135089 0 1 0
1743 5 15.606996739100603 3.791025577313538 38.34998870594189 0 0 0
1836 5 18.637956955645038 3.62640570951493 37.471050610830616 0 0 0
971 3 17.966685648981453 3.9370333611650365 38.55769694098976 0 0 0
1926 5 17.99121889466079 4.115054424057334 35.685237544904076 0 0 0
842 3 18.30457912491725 3.737260290089498 34.469462476318846 0 0 0
1677 5 16.061944641463327 -0.47131516829036113 37.67503791868391 0 1 0
1059 5 17.0214266394046 -0.46691479012018366 35.94639076491233 0 1 0
1340 3 17.099034772800856 -0.4074168171141639 37.09938353475757 0 1 0
1011 5 18.9591140845785 3.072802129304144 35.274660941188856 0 0 0
1010 3 18.979247880990574 3.7380287147112417 36.18646290373304 0 0 0
1051 3 20.21042383331198 3.2756383555807105 35.70365778430839 -1 0 0
1045 3 21.383210381354765 2.3412317619733076 36.07334088712547 -1 0 0
1637 3 21.676353148877816 3.6291309631138153 34.43483941331243 0 0 0
1510 3 21.501857424535444 3.774286749832547 37.13796014033335 0 0 0
1765 3 2.590502213001415 3.980574841996694 37.637148129376044 0 0 0
1791 5 3.745315389316968 4.633121797893537 34.37645140242168 0 0 0
1035 5 3.4699595329428004 4.625884426087162 38.256518308780926 0 0 0
1688 3 8.165484889648827 6.692910291058904 35.91038232623946 0 0 0
1689 5 7.529270122981619 6.035712885678633 36.791849874862486 0 0 0
1785 5 8.58789143027242 6.448978005606752 33.736434942189504 0 0 0
1600 3 8.206046078705718 8.260292210665325 35.943705532084145 0 0 0
1601 3 7.700891189122819 7.247821501516968 37.208658829378656 0 0 0
1693 3 8.781155807837054 6.090218271340786 37.108775215821204 0 0 0
1648 3 7.793679488038002 6.113374869114823 38.05561341113492 0 0 0
1783 3 8.794497086060526 7.486052110090947 34.612728075184386 0 0 0
1695 5 8.922622196381193 7.394666130379512 36.59963454522833 0 0 0
1429 3 9.882544024906784 6.4785621621380045 35.34949617081309 0 0 0
1687 3 10.33279276036673 6.210570106064638 36.97081324857087 0 0 0
1733 3 9.737782263678614 6.682574344962172 33.75979746413357 0 0 0
1755 5 11.839223095911205 3.621927836641968 35.51019247419896 0 0 0
1431 5 10.800898981976147 6.357136929800076 34.314974739965955 0 0 0
1210 3 12.05059071296298 3.9471104804943886 37.539040418056146 0 0 0
1430 3 10.979053822625236 7.386972314758434 36.01306514356473 0 0 0
1694 3 11.195095919233289 7.470849692087717 37.41557351801395 0 0 0
1007 3 10.51328756540902 7.551102748764367 34.481528528442134 0 0 0
1612 3 10.747829921226407 8.763451272485272 37.49538925816456 0 0 0
1621 3 13.34909295419404 4.371877235400879 36.96314435829453 0 0 0
1212 5 12.691066067027682 5.062606145148266 37.74874271397007 0 0 0
1997 3 13.972292577560413 5.294103464013957 37.98619597000266 0 0 0
1251 5 12.663932730876496 8.601539383902162 38.17351905402713 0 0 0
857 3 13.117830835604341 4.089664748770976 38.52125956601888 0 0 0
1723 3 14.503880529922341 3.8873070912500904 37.98523348440486 0 0 0
1521 5 17.22661738042462 4.0039592256311165 37.59357766111606 0 0 0
970 3 18.136461920378814 4.429962347137081 36.93161013846401 0 0 0
1519 3 16.045623805343176 4.714520457754851 37.78341942261766 0 0 0
1520 3 17.512742231900614 5.189698679381743 38.0630225483638 0 0 0
1998 5 15.062273205700434 4.80344067608432 37.35251586780344 0 0 0
1996 3 15.0594232759466 5.951131914108485 37.99125340422831 0 0 0
1017 5 18.85886248300461 5.014161887780092 36.41311265337385 0 0 0
1903 3 2.7615144517217596 5.175653545475214 34.79681427627063 1 0 0
1015 3 19.02518285722753 4.770879552907501 38.049346814749136 0 0 0
1924 3 19.186926594580505 4.2921202127108184 35.548163346685996 0 0 0
1638 5 20.138399387061373 4.764968883378977 33.84153680936194 0 0 0
1636 3 19.83169410695333 4.042460382085924 34.430244186620186 0 0 0
1904 3 3.240269578652969 6.633038082517135 34.32691596789621 1 0 0
1925 3 19.890059607628416 4.363025480323502 36.98853860161263 0 0 0
1069 3 20.77379039254333 4.273900163364466 38.40788118567308 0 0 0
963 5 21.9771617271583 4.574879192720072 38.000323819636584 0 0 0
928 3 22.70479274097994 7.669475227869637 33.87742398144979 0 0 0
930 5 23.57532579207285 8.650240884909719 34.14359645927151 0 0 0
1018 3 7.820784526859991 9.031520864700504 37.394417818389314 0 0 0
1020 5 7.135652919427429 10.19778078080323 37.20269369895457 0 0 0
1019 3 7.901209615481452 10.651150456839648 38.133603800909036 0 0 0
1952 3 6.678040065066599 10.932973565386543 37.84195842093214 0 0 0
1953 5 7.503958297511897 11.75483333216669 37.674411782337984 0 0 0
1458 5 8.352301163125805 9.612905771512077 38.667649057930646 0 0 0
1457 3 8.34651667488715 10.17667860211085 37.619627198508695 0 0 0
1319 3 7.366312539588115 11.814955988923646 38.82969187329806 0 0 0
1159 3 6.081346492026551 12.289916602722851 38.118506078249894 0 0 0
1161 5 5.5496258023940035 11.188789142362229 37.78130338292501 0 0 0
1870 3 6.437034648216371 13.845505340317578 38.8414214638788 0 0 0
1951 3 6.938443161669615 9.677624123320754 38.506003709932976 0 0 0
1318 3 6.036612599591538 11.06572996850386 38.9285582674453 0 0 0
1614 5 10.417037902852158 9.363346210128505 38.631132809147594 0 0 0
1613 3 9.387644581074797 9.537782242839656 38.04105561260356 0 0 0
1006 3 9.404497161827685 9.1231512639954 36.700623267680335 0 0 0
1008 5 10.823880652441701 9.84155586754718 36.74475582613582 0 0 0
1345 3 10.053957557505903 9.986607602447844 37.66325197459931 0 0 0
1346 3 11.492770592012704 9.831121495971503 37.927190364991795 0 0 0
1347 5 9.179296733772185 10.728054046354005 38.232540195368614 0 0 0
1823 3 12.948355633903796 12.339003968992305 37.33345597630299 0 0 0
1822 3 12.606997007138698 12.886018250176312 35.758530778838306 0 0 0
1270 3 12.615986639905495 10.996828963367903 38.01634867226844 0 0 0
1824 5 11.722277512744006 12.619308982256026 36.10264221935157 0 0 0
1990 3 13.91993193970338 13.056926523957474 36.43628095686753 0 0 0
1379 3 12.166495218066528 13.28330810623777 34.49932959734569 0 0 0
1250 3 12.955243885459918 9.505587164070208 38.48350176152657 0 0 0
1821 5 16.89344575538265 11.945458142161911 34.01875903748261 0 0 0
1663 3 16.121461901886008 13.30730146562489 33.77987563663879 0 0 0
1126 3 18.11078556926801 10.439352196308825 34.23833560109372 0 0 0
1684 3 15.472752722488938 12.760337705574972 35.32122556238499 0 0 0
1685 3 18.169421170472773 11.492136527317966 35.263615971296375 0 0 0
1819 3 17.121129223790987 12.668321725480572 35.0584186580819 0 0 0
1128 5 18.741965480921532 9.320106716638813 34.42039756860545 0 0 0
1910 3 18.43771075650638 12.824203342461486 34.596828045039246 0 0 0
1686 5 18.775360723843637 13.082441614808847 35.41758692734952 0 0 0
1992 5 15.326046962952073 13.630911740939508 36.97714041399412 0 0 0
1127 3 19.345092940888602 10.22221373019153 35.02904400711885 0 0 0
1227 5 20.3458429372821 9.484467095555125 34.734926763163664 0 0 0
934 3 20.315854107780833 10.10854277872664 35.838594088159645 0 0 0
935 3 20.33197776307378 11.074190509460228 37.14676810608421 0 0 0
936 5 21.683340199764412 10.741739446743622 36.910989217182696 0 0 0
1961 3 20.874632348933638 10.614559524700086 34.55022773235851 0 0 0
1138 3 21.135085035034905 9.937100516289455 37.6286306210023 0 0 0
1184 3 21.60719549100684 11.79821906964085 37.16920098470888 0 0 0
1722 5 22.749846645750374 11.830546212491353 37.44219825701655 0 0 0
1993 3 20.992726668198884 11.280120228429872 38.33252037633727 0 0 0
1720 3 22.348205419380815 10.635244806597461 37.957049943905254 0 0 0
1512 5 20.1802229160334 10.439466210049307 38.25215735918797 0 0 0
1865 3 25.309175161579773 11.53211607969278 38.70497374513078 -1 0 0
1872 5 25.25217439475127 12.45222276243238 38.26128888948884 -1 0 0
1911 5 18.49465571254492 13.888305219151334 33.862427904133185 0 0 0
840 5 15.215214587176698 16.890754876921292 34.90740188182662 0 0 0
1875 5 15.664706187256698 15.867517885409079 36.72659818839078 0 0 0
1991 3 15.52702959484303 15.068382477792468 35.0217728011592 0 0 0
838 3 17.131135275561853 15.426504937146822 34.784389568834754 0 0 0
839 3 16.131539151475142 16.63745316710886 34.73919278903545 0 0 0
1030 3 16.589303525607072 14.070775741527639 35.65148078977158 0 0 0
1031 3 17.47637382335491 14.061834901073032 34.43864870558028 0 0 0
1032 5 17.348691601436144 14.136043893690038 36.19883915669566 0 0 0
1558 3 16.665369026615537 17.25687735109249 36.16927744511245 0 0 0
1559 3 16.383512669673454 15.75718347872082 36.089794108283456 0 0 0
1560 5 18.004095964963845 15.777356042569687 34.949721918777016 0 0 0
1820 3 14.9811880349498 14.106565066263054 36.16180188488982 0 0 0
1661 3 17.592052582829798 17.436092474895304 34.86459239869282 0 0 0
1009 3 22.59140781146718 17.718614644866186 36.00060736000541 0 -1 0
884 3 23.650251168238373 16.99366079241817 36.89200505912662 0 0 0
1058 3 23.999635612785035 17.36129906398058 35.4916736312542 0 0 0
948 5 24.074542802818698 16.081924952986526 36.09153416253185 0 0 0
1341 5 17.69102991096353 -0.6172001834105698 38.18933940855 0 1 0
946 3 25.868391247793845 15.458152746653399 36.95681308643833 0 0 0
1675 3 24.50657593172199 15.865012453457208 37.2744216591347 0 0 0
1676 3 24.64207692605668 17.048971831924888 38.09809955517821 0 -1 0
1995 5 25.374630798321807 15.947792270348197 38.068005189729554 0 0 0
1057 3 25.038487060361156 16.725364488666564 36.302676143447925 0 0 0
1339 3 25.977884899457283 16.86922553770801 37.55185626563936 0 0 0
1691 3 26.64119797726473 15.38430794300286 38.27109048147875 -1 0 0
1518 5 25.763752040717886 14.417692280050234 38.660635637953234 -1 0 0
1812 5 2.187124959400494 -0.05482625697446408 38.605125362774174 0 1 0
1834 3 1.918702334844938 1.1604542677211944 38.92952003941316 0 0 0
981 5 4.4735255378491505 0.9837097595436359 39.281753195958686 0 0 0
962 3 3.007461339541606 3.7006451073653297 39.04268822915601 1 0 0
1811 3 2.6732248865995603 0.2656638585568094 39.60956090232178 1 0 0
1108 3 4.259731927631788 3.093038723063481 40.12485686585336 0 0 0
1109 3 1.826859046917592 0.9238654513347917 40.61158691685269 0 0 0
1506 5 1.0248860815875074 0.25829889532119754 41.45565723449751 0 0 0
1634 3 1.6531318162534536 1.2351850292613464 42.13468541290078 0 0 0
1633 3 1.4542347589102584 -0.25335481454147835 42.70385256315596 0 1 0
1964 3 2.738075114464543 0.4509153042858678 42.98092416352945 0 1 0
1150 3 2.0941738407147956 0.058406251685941823 41.64430405692556 0 1 0
1151 3 3.173347753084137 0.5537075811219745 41.42530684534633 0 1 0
1152 5 2.301076044825971 -0.29599968664012927 40.660593262184534 0 1 0
980 3 4.119607689760269 0.15681578073834324 40.12897163706112 0 0 0
1168 3 4.6938803119384005 1.458671531968255 40.68649493533308 0 0 0
1874 3 5.0637192948589735 0.13901122189094883 38.46720735951276 0 1 0
1873 3 6.702210050703936 0.2856026690362303 38.396721434230344 0 1 0
994 3 8.116866850131322 0.08818185849866189 39.020797747041684 0 0 0
995 3 5.718882387304702 0.8059289441828127 39.64945646428719 0 0 0
996 5 6.363104727339897 2.0204337242436394 40.49156863169897 0 0 0
1169 3 5.551875917454337 2.2066079889929338 39.97790090701076 0 0 0
1170 5 5.240175547495073 3.7086074500422415 40.85254508486643 0 0 0
1178 3 9.13176474559494 0.17302621174569632 39.90987456050671 0 0 0
1729 3 9.782051367063387 -0.11925018003338195 41.429697077652925 0 1 0
1194 5 13.518836429089788 3.20842097803964 38.89667938108859 0 0 0
1177 3 11.970139889706317 1.4354148722760038 41.0185796160471 0 0 0
1179 5 11.341934972727278 1.0518377180754959 40.112723907081396 0 0 0
1193 3 11.07368479106171 2.732985352205725 40.286741759778195 0 0 0
1136 3 11.393444494697691 0.5072850505743822 41.359041321922696 0 1 0
1137 5 11.828714344616493 1.295806125320818 42.23059377140959 0 1 0
1144 3 12.987455413331167 0.04999556207034217 42.66372519720734 0 1 0
1364 3 13.084314508790877 1.3242095620998882 42.21401036354169 0 1 0
920 3 10.318190552606843 1.3514214668071416 40.83548151494272 0 0 0
1730 3 10.759928352624309 0.0856960271383892 40.18725234146257 0 1 0
1363 3 12.011220418543434 0.1976372933358287 41.70508297497583 0 1 0
1365 5 12.89551406261667 0.7177826657415061 41.10542031339747 0 1 0
1115 3 14.125359948319447 1.1250523079921255 43.22156759855756 0 0 0
1731 5 11.94308631599994 -0.021513686459937675 40.440342747062594 0 1 0
972 5 18.75077087880665 3.1635042750804203 39.60887121302867 0 0 0
1116 5 14.784647864604134 2.1693641729788045 42.82313260930268 0 0 0
856 3 15.717489720577936 2.7153666844911655 43.03753989336823 0 0 0
1330 3 18.03772915016421 3.013038797787296 40.60402763925001 0 0 0
1332 5 17.430324549655516 2.3523963755883615 40.321155971075534 0 0 0
858 5 16.635642676820456 3.3409955372331837 42.8880748711955 0 0 0
1432 3 17.518789599859545 3.2905308532367603 41.92500592856666 0 0 0
1433 3 16.320452036813645 2.86002835175254 41.85935522898444 0 0 0
1622 3 16.857796173461164 3.8671050110062177 40.69399355855428 0 0 0
1697 3 17.02806720574592 2.0961681281254236 42.97930376388238 0 0 0
1696 3 18.410614027681838 2.964708985105524 43.05089652807554 0 0 0
871 3 19.063232931118268 2.920103753508479 41.74858177749096 0 0 0
1434 5 18.36656626052502 3.988620267820952 41.42312781836 0 0 0
1070 3 19.315537516285268 3.6487705113149502 40.627757069209586 0 0 0
1698 5 19.623517537270367 3.0020925881665224 42.90157470398336 0 0 0
1511 3 21.946615584284555 3.4942192131755494 38.67645023173002 0 0 0
1795 3 20.566864328365888 0.5420124847452721 42.848946686366695 -1 0 0
872 3 19.468361165062607 1.7674134900118985 42.82978365060633 0 0 0
1071 5 19.94629593640228 2.9701017080546634 41.0158144488388 0 0 0
961 3 19.583089380035304 4.236044414724784 39.459520227455805 0 0 0
1110 5 4.06161628363327 4.375785597938029 40.18266873202205 0 0 0
1033 3 4.3555684090693605 4.2488672184149365 39.072402228345744 0 0 0
1314 5 4.867990375844644 5.252826799641822 39.34943986896007 0 0 0
1284 5 4.247520339398513 7.650878863112938 43.09433953818223 0 0 0
1034 3 5.225000973498516 4.053221709166324 39.666780531708454 0 0 0
1988 3 6.476280130788311 4.2681453662907165 40.45539533303096 0 0 0
1313 3 5.161848005610579 4.709763982311877 40.33576623330297 0 0 0
1065 5 9.157791610532072 4.470545526626375 42.677674324547645 0 0 0
1312 3 6.005112809035028 5.569964486261757 39.69667723647603 0 0 0
1781 3 7.426742683390089 5.178252077186733 39.51700923485603 0 0 0
1987 3 6.969643561953971 5.495665433072741 40.90262886358732 0 0 0
1649 3 7.342443842887826 6.599422019844004 39.24569589281914 0 0 0
1650 5 6.791692101115656 6.400075308303538 40.29733438291613 0 0 0
1780 3 8.094172737860275 6.081781968433702 40.445822330178416 0 0 0
1782 5 7.87503254798406 4.793024181672994 40.737515200140614 0 0 0
1602 5 8.375254729408372 5.929701010925551 39.24698956391176 0 0 0
1989 5 5.835482193072495 5.409754803956048 40.978712379936105 0 0 0
1063 3 8.612944470356561 5.198089345048327 41.65223541302317 0 0 0
2007 7 9.30252164401004 6.407895589099702 41.76305417936267 0 0 0
1405 3 9.176927689993189 5.627546160046483 42.661519225805826 0 0 0
1211 3 11.573897270267063 3.649585406278635 39.232387223236955 0 0 0
1192 3 10.726451554560866 4.278115817454616 40.44080897567594 0 0 0
1077 5 11.206525872761507 5.351591199992982 42.697326920756915 0 0 0
1064 3 10.201151258623813 4.564227488432984 42.00410970362648 0 0 0
1406 3 10.309300686578855 5.963568046643125 42.343829598366504 0 0 0
1075 3 9.860406997554351 5.596809716047369 41.02073466081174 0 0 0
1623 5 15.634255206202338 3.13147607067592 41.23028121298644 0 0 0
1331 3 18.108962576074283 4.2855372461978485 39.92982081297393 0 0 0
1395 5 14.360655904322316 5.864351143380819 38.95823659708872 0 0 0
1742 3 16.546714717341995 4.268527606984585 39.0630149930597 0 0 0
1016 3 16.304003561848834 5.859682110266313 38.72757197576786 0 0 0
1741 3 15.026661067644012 4.7994438261278916 38.93633654567556 0 0 0
1393 3 15.384208015825383 7.082742998556265 38.95258196768206 0 0 0
1845 5 16.374097549114175 8.35031898426954 39.68022242940313 0 0 0
1843 3 15.411856179954915 8.398991703657325 39.40728440815413 0 0 0
2006 7 18.641376284563954 8.650267624569956 41.37442009627768 0 0 0
1349 3 23.22610787389291 8.494072587739922 42.76554239011207 0 0 0
1320 5 7.125987571727343 10.709932654862504 39.200047760068 0 0 0
1827 5 8.111425262813965 10.629320326007901 42.893792021541614 0 0 0
1864 3 8.70690510647484 11.697436485985707 43.30746913600031 0 0 0
1305 5 6.7632369667781305 10.338274724167063 43.323183092015775 0 0 0
1304 3 7.734336267411348 9.652588489005778 43.451072663453964 0 0 0
1456 3 26.09353375976784 12.564500887063847 39.42256371680021 -1 0 0
1866 5 25.6929808034057 11.446554706328548 39.77864333419727 -1 0 0
1249 3 13.305678427654726 12.039890648754964 38.86314336610093 0 0 0
1222 3 11.53356723393925 12.046119754866583 42.588213117519416 0 0 0
1224 5 10.848773020522232 11.493580377610739 42.21930751674513 0 0 0
1271 3 13.13248997045718 12.478276398768928 40.302668997749315 0 0 0
1272 5 13.056715337668914 11.646214410070021 41.351819600321996 0 0 0
1814 3 14.256276874377187 12.253671893034694 41.65615470923806 0 0 0
1815 5 11.79177006940152 13.128210698135298 41.225772460119906 0 0 0
1813 3 12.470781632286851 12.727352076121239 41.774518347230504 0 0 0
1844 3 14.157161162206336 11.467369605931415 40.531418553350484 0 0 0
1771 3 13.649678691321535 12.701496152912805 41.43471434906364 0 0 0
940 3 13.63564687737635 13.378901562215633 42.6224588857835 0 0 0
2005 7 13.467447929755227 12.092507809467671 42.46089180446993 0 0 0
1773 5 14.579991498276591 12.798395972824908 40.62168041186798 0 0 0
942 5 14.597718574612795 13.427507673831734 41.72305251824082 0 0 0
1394 3 14.172575415272442 9.163678730659216 39.04609827580598 0 0 0
1351 3 16.737974131977712 9.462992226357438 40.90046047845725 0 0 0
1352 3 15.304045767170292 9.72085925996487 39.9759219936134 0 0 0
845 3 16.58382738987655 12.167623327329853 41.96801370051967 0 0 0
1739 3 17.204746258168395 10.292619051488968 41.7675631709034 0 0 0
1772 3 16.236649456483732 10.991630592372736 40.698696429566716 0 0 0
1738 3 17.25836205858582 11.002432994476145 41.4083577709182 0 0 0
844 3 15.127903202195608 12.724855332111897 42.55982231051503 0 0 0
941 3 15.433593318519748 12.167896372480062 41.19122293712677 0 0 0
1353 5 17.654043684130084 10.306434400958791 40.59483780522446 0 0 0
846 5 16.161829682901917 13.333157459494542 42.03126311456513 0 0 0
1569 5 16.243375087634256 10.77737102767026 42.18617352316414 0 0 0
1740 5 18.34968157348359 10.742991896867455 41.62577097041689 0 0 0
1922 3 18.230755519354116 9.527716829787181 41.46021877967834 0 0 0
1295 3 18.12410191341225 9.997159352147651 42.78190826963532 0 0 0
1721 3 23.46278696058577 11.376130558754362 38.45038318993413 0 0 0
1185 5 22.007375039043573 9.651605316642437 38.48601723680554 0 0 0
1348 3 22.679147417801072 9.300022388669488 41.67113236542347 0 0 0
1139 3 21.146923189449193 10.139186831162286 39.12100217834958 0 0 0
1183 3 22.412943605022217 10.805462300155188 39.39940925074688 0 0 0
1994 3 22.191450384615703 12.037293062320039 38.634817624275 0 0 0
1359 5 23.148138982413666 11.87855429429473 39.59832599268297 0 0 0
1140 5 21.307466771932123 11.39202939930016 39.48844663384403 0 0 0
1921 3 19.495354862871054 9.434935503227747 42.15610421402123 0 0 0
1923 5 21.583193607731626 9.888669260602567 41.86250226821662 0 0 0
1350 5 23.46333647381841 9.840121390719458 42.49021516874193 0 0 0
1357 3 23.503944494658732 12.941126581980667 38.870147089494395 0 0 0
1358 3 23.986511237464942 13.61580818730398 40.562599977845004 0 0 0
1201 3 21.768743371698637 8.93916832597471 42.72303693583458 0 0 0
1334 3 22.38427341511388 10.251646254514869 42.65342089678169 0 0 0
1160 3 24.70913355519551 12.381025899652444 39.52522731484521 -1 0 0
1517 3 25.777816905833237 13.715022209754213 40.05241651410456 -1 0 0
1635 5 2.810846762831969 -0.5415602464668481 42.21736276920429 0 1 0
1545 5 16.373317627485825 15.002846338417172 42.44449557901248 0 0 0
1135 3 17.71679503204757 17.157447908567725 42.346288156533994 0 0 0
1543 3 15.774167937856886 13.983519399483097 42.999859481911216 0 0 0
1978 3 13.03838231045145 -0.7622215217706503 41.28658230292989 0 0 0
1061 3 22.581936286016134 14.887665526762731 40.82277868046697 0 0 0
1237 3 21.133912018203542 16.14029062674372 41.96526788846961 0 0 0
1238 3 22.068687357205423 16.250676986791476 40.88723006652581 0 0 0
1239 5 21.564250888395506 15.074550355097498 41.28227899925034 0 0 0
1060 3 22.34792248733979 15.314183711139318 42.16711465794048 0 0 0
1145 3 21.658149685633816 17.232015571966976 42.75861690305074 0 0 0
1979 3 19.11411888682483 17.31309778720604 41.292832764689976 0 0 0
1980 5 22.262430805025318 17.303913328138776 41.6901055480083 0 0 0
814 3 22.64226045736267 16.474468396716922 42.34837262863417 0 0 0
1303 3 23.737209417310954 14.692027321166815 41.74947549494038 -1 0 0
1062 5 23.813516390931326 14.970874431691389 40.524630502134286 0 0 0
815 3 23.51268191169869 16.07808164882266 41.34410435324534 0 0 0
816 5 23.470568217705853 15.662224996616466 42.5955689485717 0 0 0
1146 5 21.757629510437926 15.960580270366908 43.0194028621088 0 0 0
1690 3 24.58681239378461 14.03550234857051 39.12725466040201 -1 0 0
947 3 25.986492197617867 16.655757637345197 38.93942857468424 0 0 0
1516 3 26.287969405882688 15.223565523119342 39.52872924405278 -1 0 0
1692 5 27.101037483348065 15.707761174261199 39.86036725803584 -1 0 0
1871 3 25.078665082516288 14.911314439300797 40.66397465589845 -1 0 0
873 5 1.2760861802437171 0.8290897508518773 43.37798874719015 1 0 0
1967 3 2.929934789618235 2.0883005500525944 47.475303061521046 0 0 0
1975 3 4.38165672175327 1.4582257145923645 46.638186607524965 0 0 0
1072 3 3.090455113039382 0.4452060477610694 47.03953217416595 0 0 0
1384 3 1.902400663694113 -0.16074448568078348 45.87522378313663 0 1 0
1073 3 3.320184934349476 -0.3219506031893741 44.89139029753476 0 1 0
1963 3 4.329445179833041 -0.15704030461702945 46.23042579045783 0 1 0
1198 3 4.543511601418556 0.15859887856248134 47.785061683836766 0 1 0
1074 5 3.6218221117966554 -0.6650614497565575 47.11989393548775 0 1 0
1737 5 4.209613075613955 2.4415056655579193 47.40189363996301 0 0 0
1423 3 21.210795810932535 0.7213097561424477 45.57366434311174 -1 0 0
1735 3 1.9380002307938822 3.299134594645794 46.918252301696505 0 0 0
1424 3 0.5276556975943054 0.0800751555707796 44.228603002916124 0 0 0
1736 3 21.758869617420707 1.9794116038622431 46.49393517800122 -1 0 0
1385 3 1.8067354290226132 -0.42854259557509133 44.547420240208574 0 1 0
1199 3 3.0987926865607007 -0.7253671504390412 46.12919716533649 0 1 0
1966 3 4.078692143807991 1.3129843373660197 47.83659485678315 0 0 0
1977 5 5.583323237355237 2.0366105325920802 47.186042636166135 0 0 0
1439 3 5.67859026345435 0.7419164559366467 47.00911642930866 0 0 0
1476 5 7.883751584319929 0.6992936034354744 47.75529430529406 0 0 0
1589 3 8.47503136770624 1.655124431210125 47.72842707784052 0 0 0
1707 5 7.717636067036567 2.4178831751312058 46.856670685643934 0 0 0
811 3 7.001064985155577 1.7817299486468907 47.422830727945026 0 0 0
1591 3 8.644529479741385 3.0107755614104335 47.15180389960379 0 0 0
1474 3 4.846623927745975 1.5364337496549907 47.924047263579354 0 0 0
1467 5 9.551219724770949 3.233191038837613 46.3946897194502 0 0 0
955 3 10.674842535369963 3.4154622584238634 46.68623083773925 0 0 0
957 5 10.955261816943235 3.1719016576327235 47.87719293446338 0 0 0
1025 3 11.524589651682492 3.7721376692447617 46.98270285438476 0 0 0
1445 3 12.63543086362348 3.2836213233989526 46.45662531929351 0 0 0
1446 5 11.54788464613519 3.431041774081333 45.86454969813329 0 0 0
1465 3 10.042962844828653 2.4265468114910007 47.37473985086802 0 0 0
1944 5 13.190191503831846 2.1747196691167336 43.63388137131184 0 0 0
1942 3 13.377678184752293 2.756738508177567 45.08174565484653 0 0 0
1943 3 14.181651012496408 2.3258531163939296 43.77184753400226 0 1 0
1024 3 9.72426843037732 3.839847253709171 47.67198530126801 0 0 0
1187 3 14.010842331416965 2.454299949352786 46.493794118681784 0 0 0
1188 5 14.534847126561704 1.1528755265377753 46.54076739716685 0 0 0
1114 3 15.377062681318145 1.5389854045425848 43.70462168362339 0 0 0
912 5 15.0990805722649 2.8332298125314592 43.935249587706785 0 0 0
833 3 17.805832172253886 1.4689966780690908 45.352733294050694 0 1 0
832 3 18.314041798042776 1.641863793925532 44.05382797686365 0 0 0
910 3 14.901133152904226 2.4580887355347407 45.112248332332264 0 0 0
911 3 16.406070597600895 2.369765057394074 44.478142165287395 0 0 0
1121 3 15.923289988039931 1.3026359816546766 45.594919127739594 0 0 0
1122 5 18.43301885174561 2.585488077616777 44.93539695154658 0 0 0
1768 3 15.222380728851324 2.0125103791139605 46.690248249359996 0 0 0
1770 5 16.253147716449746 2.0110777073050627 46.75248335681089 0 0 0
1471 3 17.069803790365377 1.0592850774096263 46.52758439824895 0 1 0
1473 5 16.717342799947936 0.22587141424884283 47.41861284244056 0 1 0
1954 3 15.686455482172082 0.6511161502648795 46.834974184005084 0 0 0
834 5 18.86586373277148 0.8914589868117435 44.98886301431195 0 1 0
1472 3 16.568947166644435 1.3642381238536194 47.7472944282794 0 1 0
1769 3 14.73089503611191 1.2070726564441379 47.75020691731685 0 0 0
1956 5 15.553205986154428 1.9367484999737616 47.83693306313621 0 0 0
1120 3 19.2208431127517 1.918066173974013 45.423993215794255 0 0 0
1797 5 22.06278849103073 3.0192332836383033 45.56116401265256 -1 0 0
1901 3 21.139892919545293 3.3139321933738626 46.113125872312544 0 0 0
1504 3 19.82162340619334 1.0863119825471874 44.27227978771716 -1 0 0
1505 3 19.441465292974126 2.7536743645571926 44.14284463063533 0 0 0
1796 3 20.881897445434053 2.2555987620617737 45.0788889856151 0 0 0
1900 3 19.958849046336148 3.424335397672123 45.42438396440074 0 0 0
1941 5 21.16135690329717 3.640537356177834 44.918236480872565 0 0 0
1879 3 3.603417944771648 6.64349177318592 46.22254787954145 0 0 0
1336 3 4.177265291825383 7.475515660545067 45.0803215031098 0 0 0
1706 3 4.953108903051454 7.161618868590605 46.761838533025525 0 0 0
1111 3 5.171568821075817 8.37951759305232 44.35829928387888 0 0 0
1180 3 6.5441493883765585 8.111305979198496 47.111890463887526 0 0 0
1705 3 6.359254830725706 6.748677797008127 47.65172844397736 0 0 0
1182 5 7.481192677205583 7.233892790175039 47.83300370805702 0 0 0
1475 3 10.103270727606146 4.882744709415211 43.42954184594551 0 0 0
1026 5 10.737136279295136 4.447138265916511 47.53767224796944 0 0 0
1444 3 12.0494516371536 4.627170384839266 46.11375455575566 0 0 0
1466 3 10.392894515835874 4.626727161704394 46.257843492146996 0 0 0
1407 5 9.67698305713253 6.371504958289066 43.360490180603975 0 0 0
1076 3 10.83542175172931 6.2142049218393 43.43516077550865 0 0 0
1417 3 12.073272549276663 6.111201944472738 46.888076727985926 0 0 0
1681 3 12.449932866486243 6.01803126765771 45.506709505903515 0 0 0
1682 3 10.955984938693055 5.894366548438929 45.6512186297013 0 0 0
1683 5 12.353474565753878 7.13195618884833 46.17381572441724 0 0 0
1828 3 11.602779720359909 5.625595218085394 44.24226921717776 0 0 0
1829 3 10.048829508690476 5.897330336882968 44.48461854396728 0 0 0
1830 5 10.891964010504884 6.707034438737685 44.57166635538652 0 0 0
1419 5 13.35946232698585 5.434127960074253 46.08133623456456 0 0 0
1289 3 14.148849910906263 8.943843662550972 47.444591204410514 0 0 0
1084 3 12.904116135613975 7.1507648583874275 47.23665518721006 0 0 0
1418 3 13.38656861971379 6.538904654254518 46.27097305318702 0 0 0
887 3 13.273259259297443 5.421182375069674 47.16174696506296 0 0 0
888 5 12.59225527766135 6.182231979575944 47.972590758562404 0 0 0
1085 3 14.18589350767587 7.463397305903041 46.916578604463936 0 0 0
886 3 13.736985419184135 6.469540284440239 47.950589852905004 0 0 0
1086 5 14.239269490701954 6.0305472374850435 46.91282842608538 0 0 0
1940 3 21.545466461996714 4.056323062503123 46.11915121183192 0 0 0
1338 5 22.872886188074713 4.589501397825682 47.006326914997345 -1 0 0
1147 3 22.115172948015086 5.390029995077829 47.341983584780614 -1 0 0
1149 5 21.50736651509295 4.525785538393083 47.18825185589418 -1 0 0
1337 3 22.216514713954467 4.799888721224123 46.15002077873498 -1 0 0
1880 3 23.20068389288791 5.897036345226594 47.24915799778849 -1 0 0
1148 3 22.360121928045917 6.226920601521346 46.094947388861165 -1 0 0
1881 5 21.977781422946673 6.483896101890995 47.23533347226637 -1 0 0
1202 3 21.02505125588258 5.612026254918229 46.49110882100725 0 0 0
1203 5 21.641591901421968 5.325950075308005 45.28354977130732 0 0 0
1902 5 20.37975909054521 4.236307289423648 46.45644554636817 0 0 0
1939 3 20.643999684618834 4.737647357897549 45.349666722388335 0 0 0
1335 5 22.47483372396745 8.621539963159748 43.826436425629886 0 0 0
1282 3 24.199633765047132 8.147199898355176 43.78814232102078 -1 0 0
1283 3 6.564401001844881 8.76073106218793 45.37490570477802 0 0 0
879 5 7.579834290445879 8.932070929190726 44.35136657783793 0 0 0
877 3 6.4993434311429565 9.120228372636607 43.729598265257806 0 0 0
1549 3 8.964473236157232 10.146687181164666 43.65313101826178 0 0 0
878 3 7.60826414757374 11.00075500596288 43.87288189070645 0 0 0
1112 3 6.682005744069399 10.185945784380007 44.60404526698879 0 0 0
1826 3 8.043345374923408 9.865887651020987 44.9869398329036 0 0 0
1551 5 8.310961518696228 12.7361826160417 44.605687818460254 0 0 0
1550 3 9.031160928493467 12.32857041069446 44.15441077863115 0 0 0
1825 3 9.00827580971655 11.015707170077508 44.92874709592975 0 0 0
2008 2 9.676779943040135 9.46401259241316 44.79271192939195 0 0 0
1401 5 5.945483739110456 8.839561400736123 48.095404786461394 0 0 0
1377 5 9.742855947787334 12.391859055325721 45.98567131604351 0 0 0
1376 3 12.056337561412427 13.3012899007802 43.40486219317165 0 0 0
1223 3 10.415974683063679 12.745453831359788 43.557204399579575 0 0 0
1726 3 10.22679514621169 11.157837441888773 43.909455133999614 0 0 0
1207 3 10.246488962738654 12.268457153572479 45.17297721852717 0 0 0
1209 5 11.59639334765351 13.646266897016652 45.609279499484394 0 0 0
1375 3 11.61031329883044 11.950747721876319 44.32455433986629 0 0 0
1542 5 11.789099983022062 12.135894635924037 46.94756886216528 0 0 0
1727 3 11.356070033160199 11.788570033617393 45.977253919108044 0 0 0
1728 5 10.91226491301393 11.169039082328663 44.9416963210415 0 0 0
1208 3 11.846793705063734 12.97546102456435 45.060930675461194 0 0 0
1846 3 12.542151510741006 12.294978725270203 45.952038172274705 0 0 0
1912 3 12.516841071328606 11.31974231100401 47.44986314402213 0 0 0
1847 3 12.815812272274174 12.886743921021418 47.20691941054705 0 0 0
1848 5 13.68356203158964 12.620146713955565 46.36968175244354 0 0 0
1913 3 13.06120990381252 11.712951830576888 46.28840570455355 0 0 0
1914 5 12.103697903955425 11.091862834700557 46.282145474155534 0 0 0
1540 3 13.96313821221628 11.916342790793149 47.27643842155781 0 0 0
1541 3 13.872187820219088 10.35605970674363 47.32212057708896 0 0 0
1567 3 16.43679400258035 13.031910420574784 43.27019526967143 0 0 0
1568 3 17.27106281981054 11.293778779501286 42.89627929238219 0 0 0
1296 5 17.609260638839736 9.590426138255625 43.41935068540978 0 0 0
850 3 17.94118594505026 12.49249389130025 43.42461101307575 0 0 0
1294 3 18.840858814830124 11.220206658580878 43.81347125649687 0 0 0
1571 3 19.620932007889774 9.894809617288956 43.578784103626745 0 0 0
824 3 21.13844257910703 10.515269428056508 43.09618546992988 0 0 0
825 5 22.25958108926099 10.797624466672167 43.67612484180881 0 0 0
851 3 20.098551932359946 11.100667074410476 44.340557061777055 0 0 0
852 5 19.290801768069695 10.399038809915782 44.73301277092529 0 0 0
1036 3 21.52979411983587 10.914943303202953 44.65490593854163 0 0 0
1037 3 20.93046960653089 12.154993066914802 44.83532670557257 0 0 0
1038 5 21.14384593012162 11.498057185715131 43.69723237971798 0 0 0
1333 3 21.757378163097403 9.592189364785611 44.02260344406014 0 0 0
2002 3 21.762651449104848 12.605032410937957 45.91464131833595 0 0 0
2003 3 20.48455850677932 10.379717214737797 44.406608418430295 0 0 0
2004 5 20.541792387421363 11.05699485492808 45.457642682983604 0 0 0
1853 3 23.029969190936004 12.990642311880666 46.59880754841493 0 0 0
823 3 23.068599505517863 9.609979734630423 43.52224743194769 0 0 0
1454 3 22.940185021517777 13.56261347998419 47.96840465746125 0 0 0
866 3 25.875781673366824 12.863789746027168 47.545994480866156 -1 0 0
1113 5 24.67811485506526 12.85704842787405 46.55382544252597 -1 0 0
1882 3 24.340865393749024 12.901689773039584 47.786664750058 0 0 0
1300 3 25.25675917317165 13.748826586641908 46.855693927389375 0 0 0
1852 3 24.04345253771882 13.814889763255435 46.727120450888606 0 0 0
867 5 26.17301002700194 14.138668608897575 47.32108934268285 -1 0 0
1425 5 0.8261821239432618 -0.4331421131649873 45.35615535786307 0 0 0
1386 5 10.32989862956322 17.236805194060906 45.3449668607322 0 0 0
1965 5 11.876545679292326 17.32680618386204 45.50574993665486 0 0 0
1134 5 17.87500098946129 15.994319955666327 43.11017031308488 0 0 0
1794 5 16.081122783037554 13.92844711650734 44.17776009944795 0 0 0
1544 3 17.15083647660702 14.48413071913404 43.460107169944806 0 0 0
1133 3 16.59197660518344 15.91699378585926 43.229550753380344 0 0 0
869 3 17.066085747845698 15.620164973937689 45.88274218833306 0 0 0
919 3 17.437166402794468 16.680825138084643 45.3129130778291 0 0 0
921 5 16.486260348588228 16.473341189902527 44.71685617193671 0 0 0
1200 5 14.830639827771254 14.790869794234586 43.489100097097314 0 0 0
1585 3 16.39761093220601 15.306507009015078 44.63667318777058 0 0 0
1586 3 17.425466293697106 15.50092867610267 46.66427918086855 0 0 0
1587 5 17.01417476598072 16.668966418160288 46.571523238234526 0 0 0
1792 3 15.798222665515473 14.74190692656587 43.462085584571504 0 0 0
1793 3 17.681389530020446 15.742765296993658 44.280570062926934 0 0 0
1132 3 17.32178290700642 16.973118257702573 43.80773924103823 0 0 0
1678 3 16.54856264462685 15.715837525515855 47.547216004025735 0 0 0
956 3 18.218219624774914 16.54216484841345 46.841076535458576 0 -1 0
870 5 18.30415478823756 15.860656351939786 45.88346074446248 0 0 0
1929 5 17.530555203985088 16.464271454166514 47.75031662960556 0 0 0
868 3 19.164387089935268 15.197950082833149 47.17038417163948 0 0 0
1409 3 21.791189674327295 13.876373983525564 46.991978035417425 0 0 0
1908 5 20.436519822733757 14.974550160012388 46.94883532852802 0 0 0
1907 3 20.453617282531393 16.16829343007319 47.54959278551402 0 0 0
1410 5 21.481617581753483 15.559630759923502 47.32378948630032 0 0 0
1854 5 23.154992692127646 14.548139591874103 46.8785543042058 0 0 0
1906 3 21.12336351700664 14.523738686298662 47.69268676370668 0 0 0
1453 3 22.310203461733384 14.867410206148023 48.05568342309606 0 0 0
1302 5 24.70086865705005 14.806981018097614 46.98624739295854 0 0 0
1301 3 25.17439807854159 14.13952261083873 48.17498629638732 0 0 0
1408 3 23.88562609619231 14.529472292520191 47.7896481908329 0 0 0
1968 5 4.72697568463309 1.0143666758189702 48.88565527435605 0 0 0
917 3 1.304620056026992 0.5351929765272867 50.9503227783821 0 0 0
1496 3 2.123187570991173 0.08760009515582001 51.89985949491781 0 0 0
1495 3 2.1922734072070393 1.5396722810652004 50.919147388658345 0 0 0
1497 5 2.265570576422128 -0.07345288311973719 50.78241526390793 0 0 0
916 3 1.0947727541177068 -0.6677531293034792 51.13636759637351 0 0 0
1611 5 2.8206375677893414 0.9720265035427516 51.686993372026976 0 0 0
1606 3 1.974535576488587 1.4693520797576771 52.40181517106743 0 0 0
1976 3 6.803030954201281 0.3990534275961144 47.953060754731204 0 0 0
1588 3 7.732488839724232 2.739057221551394 48.19976788934197 0 0 0
1593 5 8.56234411204863 3.759852271397884 48.151846738142915 0 0 0
1438 3 5.839059038388678 1.4909860966199293 48.26181826371027 0 0 0
1440 5 5.703098544675647 0.33271673209205765 48.32300640873142 0 0 0
812 3 7.394237944273183 1.4279681575579115 48.80037015747082 0 0 0
1592 3 9.167312173827984 2.7162350377723725 48.545185278195284 0 0 0
1590 5 8.433373694700991 1.8138446864902904 49.041991935702285 0 0 0
813 5 6.557741452263161 2.325769948434327 48.67047665716178 0 0 0
1842 5 8.393828350510903 -0.16982237782656862 52.145742739854846 0 0 0
1938 5 9.354403444145188 2.3030025866797015 51.85424697075355 0 0 0
1841 3 9.581440048398708 -0.3599896812801686 52.42827444100537 0 0 0
1315 3 9.927907324888245 3.1868228549268593 51.276652304441654 0 0 0
1477 3 11.213885093480316 2.838164508646968 50.674413788878105 0 0 0
1478 3 10.637128838379116 1.9450827866790306 51.771750735193194 0 0 0
1040 3 11.444482844269237 3.0971069562664617 52.03540003477144 0 0 0
1479 5 11.769987143341796 2.0993225299304172 51.47457455722975 0 0 0
1751 3 14.28785337275451 0.27087124882263613 48.91602483102905 0 1 0
1291 3 15.858506447823435 0.979776266402075 51.808630479875895 0 0 0
1293 5 16.693353597266924 1.8080434129843843 52.42888793144625 0 0 0
1752 5 14.569490088351916 1.4350071460486273 48.9067277521083 0 0 0
1955 3 15.690309096911346 0.21198957477514524 48.328565517316925 0 0 0
1534 3 15.759564540670423 1.4209576586584456 49.05264863258364 0 0 0
1536 5 16.1605970327334 0.3415270013018352 49.527652094223036 -1 1 0
1535 3 15.035666997730946 0.7985761482428257 50.058697371050755 0 1 0
951 5 14.084267687214389 -0.1748241913206009 49.936561995321775 0 1 0
950 3 15.26477209576148 -0.5035091065504319 49.60400460388652 0 1 0
1191 5 16.143277132148498 -0.03173845838805578 52.69299791911921 0 0 0
918 5 20.666015305885868 0.2813681615086516 51.38845980967778 -1 0 0
1607 3 21.59493681121596 2.4815328082078363 51.64658776885612 -1 0 0
1273 3 21.08464641215646 1.3189267193378462 51.59291952836661 -1 0 0
1275 5 21.413339709411805 1.5939063457839537 50.5368667438981 -1 0 0
1181 3 6.9328044594805345 8.19034125445418 48.225101626598054 0 0 0
976 3 5.479673554378656 7.642247256071369 48.41783565925507 0 0 0
977 3 6.859610277604875 7.167837624033111 48.86419268739089 0 0 0
978 5 6.009170136063721 6.421102773523859 48.76740480212061 0 0 0
1278 5 7.296237858142673 8.104677556466696 49.33688469157676 0 0 0
1400 3 6.145126634436526 7.283415212977018 49.86640610345491 0 0 0
836 3 6.941210466031288 8.159183689576752 52.31763434096064 0 0 0
1760 3 5.473377400346799 8.232287330372248 52.59200546753799 0 0 0
1580 3 5.8836113134974015 7.509669501294257 51.36191860930533 0 0 0
1581 5 5.672011346266466 8.419211143935312 50.406014027347624 0 0 0
1699 3 7.209302178225004 8.031397910305541 50.77464470865334 0 0 0
837 5 7.556328291509086 7.5472908076652265 52.652194658935905 0 0 0
1399 3 6.175575466685038 8.61878536010733 49.27027074221096 0 0 0
1971 5 9.09719698330359 8.7879221666034 51.994308353245096 0 0 0
1317 5 10.956540094995447 3.972956129199011 50.944870407823004 0 0 0
1290 5 13.476873889567262 7.572921703928387 48.15090637280168 0 0 0
1316 3 10.630748349310805 4.244066861139065 51.9577928770613 0 0 0
1041 5 11.965725439052175 4.15358801426571 51.798621449758556 0 0 0
1876 3 11.64605810625567 5.305564800518463 52.34577543931936 0 0 0
1214 3 16.556680450482588 4.346158116472214 51.7932856580802 0 0 0
1066 3 17.72595928601344 4.312818557859642 52.656404047182484 0 0 0
964 3 16.573597601473967 6.215177135184999 50.735689798602245 0 0 0
965 3 14.891107184330702 7.484228607317229 48.51684016182006 0 0 0
966 5 16.040410555012244 5.094305368586768 50.93842317053515 0 0 0
1142 3 17.215789074371827 5.255473863486633 51.143559660329586 0 0 0
1528 3 15.68069351778405 7.430732488156196 49.82169515379756 0 0 0
1529 3 15.565482205072414 7.363110999063047 51.39884489899052 0 0 0
1141 3 16.1681139508087 5.7852304700349855 52.04439780082264 0 0 0
1068 5 17.658549291588443 4.209805098801535 51.416414794088965 0 0 0
1215 5 17.641625616686525 6.3028721143139155 51.5058814230267 0 0 0
1067 3 18.51529703752946 5.2667484890955905 51.53346008479967 0 0 0
1087 3 15.111799818695474 8.437779077413825 52.49465565796063 0 0 0
1213 3 17.469481724703105 5.635257217214272 52.48069978955122 0 0 0
1640 3 19.027662873499548 4.004944487350058 52.10917318022385 0 0 0
1776 5 19.486229920179873 4.368198124872687 51.038645356144606 0 0 0
1639 3 19.788332622234407 5.034139486444699 51.93436189337505 0 0 0
1125 5 21.372108201737692 4.084626601370379 51.31389670163459 -1 0 0
1775 3 20.6062265082774 4.141056810673264 51.90606295752935 0 0 0
1641 5 19.54257904566185 6.083686187169767 52.08248434143274 0 0 0
1629 5 7.632361753491868 13.057316633716864 48.238387382722436 0 0 0
907 3 6.0194128155861675 9.067409117090902 51.389122691023815 0 0 0
1701 5 7.021139334414026 9.382007436384418 52.08675635751428 0 0 0
1277 3 8.244922141030893 9.119535064614034 51.8298829030859 0 0 0
1970 3 8.708956280826158 10.160005364377374 50.695281121712306 0 0 0
1883 3 7.260981819537736 9.566859469970602 50.552865433954885 1 0 0
908 3 7.64471368651043 10.461773938788859 51.96081204013132 0 0 0
909 5 7.279458340479151 10.15642007003116 49.790580555908065 0 0 0
1276 3 9.344485184071864 10.71165256262846 51.937491745050494 0 0 0
1603 3 8.875150580395346 11.76563097267442 50.58333006383931 0 0 0
1747 3 8.502268705231451 12.545336216302179 49.15315216109922 0 0 0
1605 5 9.520387382213904 11.365929376222077 49.89682685793249 0 0 0
1604 3 9.347170052199774 13.17900812230841 50.1484029635042 0 0 0
1246 3 7.564276825991211 13.635140253300836 49.54527147417156 0 0 0
865 3 26.757890796317387 13.663872708639627 48.365190989761935 -1 0 0
1749 5 9.598118352869712 13.258291260535206 48.921692214833385 0 0 0
999 5 18.568708211010474 9.427935727333013 48.475330625278175 0 0 0
1451 3 16.158206569086268 8.73404454688203 48.92036315177128 0 0 0
1288 3 15.340482737447028 9.857195238908396 48.004560507969074 0 0 0
1452 5 15.099882977564814 10.856400797357704 47.96285050444072 0 0 0
997 3 18.00195294935676 9.443992377058498 49.70463779172511 0 0 0
1530 5 17.37250193505256 9.647528817220008 50.38673607060193 0 0 0
1450 3 17.28973460898257 9.879022888126032 48.48824068039484 0 0 0
1129 3 15.33723274040526 9.976798412920473 52.393985426641 0 0 0
1709 3 14.812062717657785 13.557003328193455 51.43227081108097 0 0 0
1710 5 15.394171931211558 13.362683973703865 50.21902394721926 0 0 0
853 3 16.112271214319797 11.0491359230874 52.761601428027674 0 0 0
854 3 16.85982089559938 11.621297690519448 51.478104178852874 0 0 0
1570 3 17.389071007763945 10.861587463477598 49.486948983367874 0 0 0
1858 3 16.30355315372003 13.101878748371012 51.24659812667181 0 0 0
1572 5 17.687464783380026 11.034917085506597 48.31402012189038 0 0 0
855 5 17.62425241453635 11.231740740171333 51.930831180519185 0 0 0
1801 3 18.556798419363194 10.634174302733827 50.366209760969774 0 0 0
998 3 18.621240015183584 10.573833976052674 48.818044220201834 0 0 0
1859 3 15.358847023442404 12.360978427746973 52.41310348891965 0 0 0
1575 5 20.08434283315661 10.277972783735423 48.63666457697629 -1 0 0
1668 5 21.808444264824423 9.817764779610581 49.27134770789758 0 0 0
1328 3 20.646105118125167 9.574825377462538 49.80832492351642 0 0 0
1531 3 21.900797923334952 9.503752676992036 50.501616732604205 0 0 0
1803 5 19.4298858412432 9.734547086899246 50.467037126437155 0 0 0
882 5 22.62425301044233 9.041975015510195 51.32169034103724 0 0 0
1573 3 22.026124658748905 10.863321842851446 50.10406371098009 -1 0 0
1574 3 21.03465500446609 10.731885463643476 49.26802096848202 0 0 0
1666 3 20.86048669420181 10.583854436140198 50.93841150641403 0 0 0
1802 3 19.41030044486623 9.614275379715417 49.33704161398514 0 0 0
1327 3 19.83478904653319 10.956522613329005 49.855398678496215 0 0 0
1329 5 20.903138268857138 11.582569646494983 50.07836693036314 0 0 0
1532 3 21.79062703924438 9.861673080752626 51.85256732662301 0 0 0
1533 5 22.01127668785522 11.020413251252373 51.400973414709306 0 0 0
1667 3 22.977523768282488 10.239330458000326 51.060672908023314 0 0 0
905 3 23.330383828069067 9.595364907345662 52.35313757025331 0 0 0
1247 3 7.535421116172098 14.466464190351529 48.30633995555982 0 0 0
1627 3 8.105133802651359 15.13571278189006 49.536324037697085 0 0 0
1628 3 8.570857360259067 13.62658074983758 48.43369086174847 0 0 0
1248 5 8.295536164419756 14.04897107879644 50.26318410409265 0 0 0
932 3 9.025011615209774 16.390274062191367 51.95249662602917 0 0 0
927 5 8.757466689358749 14.752780079432094 48.40872922848279 0 0 0
926 3 8.717941885886937 15.271747089865059 50.98456839213064 0 0 0
1748 3 9.10843952113629 14.207486711002485 49.37929115296424 0 0 0
925 3 9.294529239097152 13.826893502886087 51.5839414919856 0 0 0
1708 3 14.029979965789996 13.865417601333961 50.060776972812775 0 0 0
933 5 10.084676537860808 14.247201956585169 51.27406408296314 0 0 0
864 5 14.211644334265628 15.310374630917961 50.49687256243477 0 0 0
820 3 14.412418508282547 15.171650833042573 49.353837661258375 0 0 0
1860 5 16.090772368356287 14.283193464643803 51.002101520012395 0 0 0
1927 3 15.5866117089786 14.33446621005395 50.01376974841783 0 0 0
1268 3 16.43780110816777 17.04109017032669 51.7803132188295 0 0 0
822 5 14.902874391397159 14.027369413462855 49.22692534952762 0 0 0
863 3 15.019915204860569 14.577680908719499 50.68940616811599 0 0 0
821 3 15.902404489732044 14.93608864952568 48.95062519527231 0 0 0
931 3 15.497727759372195 15.801008234560886 50.200189857669976 0 0 0
1928 3 17.969616391363907 15.366895876734196 48.00129396663683 0 0 0
862 3 15.86846003833061 14.011436677670602 52.575496489590876 0 0 0
1680 5 18.982494331431678 14.93297077049043 48.45792755086658 0 0 0
1679 3 19.137439654838484 16.203795257216704 48.21235619693635 0 0 0
1455 5 21.690749888413066 13.686438059541972 48.307278701212034 0 0 0
1186 3 21.362432779367474 15.747084583200326 48.66673911139852 0 -1 0
1561 3 20.130477881908018 14.996561869991954 48.137928598706694 0 0 0
1562 3 20.601135304419618 17.031363123166237 48.660968639193925 0 0 0
1563 5 20.060364564565685 15.863334272337607 48.93060886427048 0 0 0
1750 3 22.02606009793536 17.179895922456517 49.25177925141391 0 0 0
1788 5 22.272748482509133 15.670713860597814 52.48708359102984 0 0 0
897 5 23.641123203283193 15.652013126993623 52.79813019911129 0 0 0
1884 5 24.031392139456116 13.816322652277988 48.72004419163377 0 0 0
1617 5 1.8644788987231342 0.7100817721125439 0.517719672997134 0 0 1
1774 3 1.8843534637781938 0.811489768560336 53.815567575876216 1 0 0
1171 3 2.4097785604452233 1.5396906673542592 55.030197087603106 0 0 0
1173 5 2.479191227476049 2.306432332648866 54.43630042147977 0 0 0
1610 3 1.8565197505247024 -0.02426534419834936 55.35171980320295 0 0 0
1615 3 2.906839510384461 2.368181191416597 56.10201156180841 0 0 0
334 3 2.192717178989871 0.9365504738929675 56.824981622419074 1 0 0
360 4 4.376682005403335 2.9341896783249517 56.404246976182996 0 0 0
309 8 3.0040208402947157 3.7541678842945707 56.79402163644566 0 0 0
1267 3 8.360803084186788 -0.7870052664054327 53.04522292988686 0 1 0
1711 3 8.537438885237563 0.11317655942661387 53.36408938993909 0 0 0
1459 3 6.8618845380083275 2.298342459872457 54.60701050164939 0 0 0
1850 3 8.315079193750949 1.407963649229194 54.210096476162775 0 0 0
848 3 7.397881793180474 2.6072045851179677 56.03231099742744 0 0 0
849 5 8.132760812025243 1.7857772194174935 56.6116566248108 0 0 0
1172 3 5.756396712672524 2.627695120739393 55.924277762786176 0 0 0
1460 3 7.6479440639736715 1.854104608677715 55.53437607022652 0 0 0
1156 3 8.865279155246741 2.3657139783842265 55.71300197304695 0 0 0
1461 5 7.985630095399582 2.945087566992715 54.93173889940901 0 0 0
1897 3 8.379747960470423 3.0109336720426283 57.18495183333751 0 0 0
1899 5 5.695306107784226 1.7354943440192068 55.521926231040574 0 0 0
1937 3 9.529587839017958 1.4825835923245656 52.83613228600845 0 0 0
1936 3 10.063395345689774 3.034084737298577 52.70343056804668 0 0 0
1851 5 10.91858993097361 3.6240148483285513 53.31448808712625 0 0 0
1292 3 15.309170136007253 2.078235356069275 52.67490445384089 0 0 0
1190 3 15.031806454407482 0.6321904008970831 52.97889076235101 0 0 0
1537 3 16.259859056292285 3.1865238738674053 52.71482881904653 0 0 0
1189 3 16.42129404360884 0.954353375084469 53.23960479835431 0 0 0
1483 3 15.29235466396805 1.5877467653812911 54.2177290599613 0 0 0
1484 3 15.935483315635125 0.14759378437620008 54.0830813594517 0 0 0
1485 5 16.48902593438827 1.321359682637413 54.38543602017406 0 0 0
1538 3 16.42998867940379 2.08300941281603 53.54978291448779 0 0 0
1539 5 15.417226792411808 2.688180293942931 53.731365866409476 0 0 0
242 5 14.982920255398765 -0.7744552451490141 53.178688615645875 0 1 0
1274 3 0.8239392054355572 0.34151763581700356 52.492526964320305 0 0 0
1608 5 21.143725811642728 1.6695775195122176 52.652998025417666 -1 0 0
1123 3 5.54472067255372 3.81453269903718 57.10316320284882 0 0 0
1761 5 5.599565405739806 7.752754631118379 53.42608772108701 0 0 0
1878 5 10.71034690344475 6.001043754594794 53.003975649898905 0 0 0
1877 3 11.85788991945136 4.010465989416856 52.9698477351818 0 0 0
1919 3 11.738877326831217 6.419204608457337 53.097616351980555 0 0 0
1088 3 13.871752547832655 7.894715219226875 52.82069178566366 0 0 0
1849 3 10.572913593906135 4.834728029987422 53.31132812961517 0 0 0
1012 3 12.731630756935207 7.278464224773781 53.10732612509638 0 0 0
1981 3 11.285518988423128 6.565667904703628 57.1246007968114 0 0 -1
1013 3 12.388295008654532 6.669733711103348 54.39516566705169 0 0 0
1014 5 12.708812669940354 5.8091126480782425 53.245651543705925 0 0 0
1039 3 11.799556087068947 5.26111801995483 53.883212821950735 0 0 0
1361 3 10.408692214082112 6.819251523161373 56.02261260657381 0 0 0
1362 5 11.591382566628635 6.46880234156493 55.68354586065699 0 0 0
1420 3 11.768824849615427 7.6454856231154995 56.21100996861503 0 0 0
1421 3 11.190409423059204 7.555610274188705 54.985882421799715 0 0 0
1422 5 10.580973850018568 7.858595156032871 56.617471164407675 0 0 0
1763 3 12.488125921348018 8.116572608913371 54.24655266037421 0 0 0
1918 3 10.87068475766187 6.252737466559052 54.34341840909286 0 0 0
1920 5 11.424061745333407 7.399432189378697 53.66344902006288 0 0 0
1764 5 13.482076494599067 7.380675956277382 54.23606317323392 0 0 0
1762 3 13.649013564140406 8.556292810616037 53.92600458605651 0 0 0
1974 5 17.367480586894235 6.328785875714632 0.5014292068163906 0 0 1
422 5 15.857909194163502 6.1776378603649915 57.076405230473114 0 0 -1
450 4 17.11419296118276 6.338184180995872 56.87176337032326 0 0 -1
1143 5 16.673813144918157 4.86352002159002 52.92023070152401 0 0 0
914 3 16.445997926216013 5.265028954206326 57.08836428172721 0 0 0
915 5 15.479089986617451 4.7284352639313525 57.20245819639195 0 0 0
1972 3 18.408543274734498 7.387133914828298 56.44648419769076 0 0 0
1281 5 14.749506712463772 8.395301124542316 53.81357862581528 0 0 0
1556 3 18.876504295039265 5.398645950379185 52.987304846917276 0 0 0
693 3 23.333946878003772 7.901578299384595 57.44535323657792 0 0 -1
312 6 22.575800612127736 4.873269303100536 57.11846810014483 0 0 -1
595 4 22.820484315448297 6.3935826563260765 57.11991801222977 -1 0 -1
1124 3 20.374976669971783 5.318790925777074 52.97716010127567 0 0 0
1555 3 19.892167751648923 6.1016885185080785 54.13734348611627 0 0 0
1557 5 19.79812883059026 4.1730333229433 52.94849333488007 0 0 0
880 3 20.31985296709654 7.108003151062656 54.91128061996863 0 0 0
881 3 21.301294209356957 8.105193989111553 55.46547244957134 0 0 0
1427 3 19.63071488139019 8.201507335635629 55.731826643535896 0 0 0
694 3 22.56234239657977 7.655860452810123 56.18220084244498 -1 0 -1
835 3 6.136295996080993 9.325559378543764 53.044190104941705 0 0 0
1984 3 9.186699121085985 13.337209949049251 53.117502212293516 0 0 0
1700 3 7.602195224985148 9.22188950381372 53.21680163321717 0 0 0
1969 3 8.97024768235674 11.720150180362445 53.21364781782647 0 0 0
1805 3 8.660652174085458 10.159313208147882 53.25905060468964 0 0 0
1806 5 9.554273826622651 10.19148620640652 53.539327506377624 0 0 0
1089 5 12.803097351986914 8.727511004929479 53.12555960179589 0 0 0
1985 3 9.202926269733856 12.498718790254316 54.36725403874823 0 0 0
1917 5 11.379943627058289 12.304760937392981 57.23528703018626 0 0 0
1986 5 9.82730305986688 12.04949068263614 55.758030153198014 0 0 0
1280 3 14.03775842914331 9.43879989458333 53.0373594690968 0 0 0
1131 5 14.25198897169933 11.434320574616152 53.483287850098236 0 0 0
1718 3 9.785639716606907 12.979665916135508 55.536902332749136 0 0 0
1915 3 10.407314627956266 13.581883750764273 56.76284834015462 0 0 0
1255 3 16.905193934548414 12.629695588907767 52.81397307664618 0 0 0
1257 5 16.176637843748907 9.96051247500586 53.22010561237192 0 0 0
399 8 17.366952452124977 9.686123642139945 57.324959424442156 0 0 0
1807 3 17.347367089049172 12.835283584229305 54.31618270914052 0 0 0
826 3 16.986180877189806 11.253345904269352 55.137326662829395 0 0 0
827 3 15.812607103703762 10.470424023566354 54.33004299013737 0 0 0
828 5 14.239789298372761 9.596191123725509 54.28119197560739 0 0 0
1130 3 14.650380704548152 10.636039217690135 53.52625531768226 0 0 0
1256 3 15.87995508350049 12.015847043040802 54.01857411494947 0 0 0
1279 3 15.293053811621215 9.411945668292006 53.75053095384337 0 0 0
1426 3 17.62051745186582 10.33136737948439 55.97187485029215 0 0 0
685 4 18.411678564977876 9.029392157039625 56.224820957578345 0 0 -1
1809 5 16.218488891001744 13.348586951011484 53.85820346638147 0 0 0
720 4 22.52407138302229 8.825175538692745 54.95056445490041 0 0 0
1428 5 19.937212852672296 8.94478206595139 55.13904510291788 0 0 0
1233 5 22.523818921281798 10.82503827565475 54.64972212403062 0 0 0
145 4 23.22802722043708 11.802417846431764 55.79624365181391 -1 0 -1
1042 3 23.07667353389796 13.290877775676279 55.45074047019844 -1 0 0
1232 3 23.13666425416579 10.264258243564422 55.21133495128755 0 0 0
1583 3 23.03940993281761 13.069437698513307 56.89784219515199 -1 0 0
904 3 23.51263401120553 9.549437440002443 53.87676088810423 0 0 0
1584 5 22.596030249486642 13.444102702779363 53.16873138813906 -1 0 0
144 8 23.63004021690858 10.603075985831227 56.695874566361674 -1 0 -1
1579 3 24.68642912704834 9.222960864096594 52.85327458300589 -1 0 0
1260 5 0.5814633848012879 -1.0453906446818308 54.98732848516276 0 1 0
1717 3 9.153039434820089 14.880920429173822 53.021784298853575 0 0 0
1609 3 9.305288395701286 16.809548660453892 53.43697085501424 0 -1 0
1259 3 9.336225288535257 17.022712144876124 54.931330304259156 0 -1 0
1258 3 9.363578735931537 15.473774138945318 54.41261444681513 0 0 0
1719 5 9.4062107467994 14.055180921150896 54.24603089967938 0 0 0
1616 3 9.737838178036714 17.06515878125898 56.46956284236767 0 -1 0
1080 5 9.70855219700087 15.850160952908713 55.62400952680658 0 0 0
1079 3 10.137572756416706 15.428371742265226 56.86430039789571 0 -1 0
1078 3 9.750826089514433 14.516601930270463 55.56133218925687 0 0 0
1840 3 17.360810052744444 16.529328811165115 52.707050523227814 0 -1 0
1712 3 17.361801977382875 17.402918759108097 53.93296294592712 0 -1 0
1713 5 16.081379468126432 17.371364525490172 54.08174316284988 0 -1 0
1236 5 16.112414557459296 16.56507527255775 53.06130614217278 0 0 0
1269 5 16.820382483471764 15.410220695953173 53.26640616663705 0 0 0
1808 3 17.934302387354183 15.94499733235611 54.04475473426514 0 0 0
1949 3 17.597098336316456 14.443751407403614 53.80171572814718 0 0 0
1245 5 18.174100490069772 13.925859307441982 54.66632618206823 0 0 0
1244 3 16.983272796788217 13.8805727656066 55.00010754940662 0 0 0
1950 5 17.060191223119364 16.07108470754048 55.00815554854016 0 0 0
1948 3 16.535372382525 15.1958157408524 54.35376403434139 0 0 0
1703 3 16.57238842382504 16.251986350399697 54.000309668783636 0 0 0
1243 3 17.802345566348514 15.045943011073428 55.2059257558874 0 0 0
1787 3 21.4648401749843 15.001509799499944 53.505527307466785 0 0 0
906 5 21.4817216708488 14.457688052609136 54.56498718966468 0 0 0
1582 3 22.309013939623853 13.846320666066388 53.94032013393527 -1 0 0
590 6 23.571400267680087 14.390532018812817 54.445930938066816 0 0 -1
782 5 21.608913540086306 16.05988742057118 54.34238458281947 0 0 0
783 3 22.31980646334736 16.173075479748967 53.522285609207394 0 0 0
784 3 23.672651127496053 15.882766411864537 54.09767470725885 0 0 0
810 4 22.683437560858547 17.087714671833233 54.188487969332336 0 0 0
1786 3 22.351818025899608 15.217303598415322 54.65463092543254 0 0 0
1896 5 22.81520406427982 16.32382060584527 54.915018883778416 0 0 0
244 3 23.120121807661423 16.607182764322864 52.76625325266992 0 0 0
949 3 22.904011810813795 14.92176591262815 53.17719204398075 0 0 0
243 3 24.014409887614573 17.169631758826974 53.62209469619627 0 0 0

Velocities

271 1.993462353159441 -3.9886656828377074 -5.229355176661765
896 -22.40986026485837 15.636350920230091 -14.86869973262625
505 -15.339562831118826 -10.686634608977647 -0.6253245773287465
304 -2.4323988121237474 1.0268292221658781 -2.6930427858423425
287 0.23048170875602675 -0.881037873722687 4.512966888870791
504 -1.8415249495386687 -2.1036506054595168 4.538251710581106
333 3.5191372516914203 5.490363183208928 -3.3392269125100706
579 8.535379414373699 5.272919389878079 4.435956670790285
630 8.58524728286467 27.44177664425153 22.107804285497036
570 4.953321490621489 10.552826316291394 4.9606744302268835
1234 -4.443496899758673 5.436135438471299 1.8880443131672613
545 1.90766152605878 0.543350434449371 4.914043719890201
582 6.706328988579119 8.716638288575766 1.6189126713469366
604 14.860782820214014 13.317253516597175 5.133393784700322
62 3.5641087086958088 -4.791063155176803 2.6712586054869187
562 -5.655293202179411 2.896578171303819 -1.2535877137210722
1324 5.206264128079602 7.362504706994486 -4.055091570716306
1166 -6.252487385182391 -1.3732351211341285 14.531464310099679
1325 3.88558713569542 14.648074590543612 12.198169324317254
64 -2.0602243720632214 -2.408944899721106 2.4352158170770126
1702 21.697341504146475 -1.4226772053826675 6.564409741983063
1022 -25.046715469632044 9.33210202809076 -7.190930414029322
1165 6.429724911955719 -3.995066725513856 2.274613778604055
1167 -2.670592787204475 -1.0321802421865738 -1.0281674715606468
967 15.891402672142275 -17.825749185155093 -17.1064611659569
235 9.555376419761894 21.308886582035697 12.446807815977358
1326 1.1317856451123585 -4.2529106781877735 -0.8520338622106802
969 -4.086197435470025 -2.7735519413211467 -1.3921875118364393
140 -0.9878285928955922 -8.909364710941047 -1.4296668811668185
5 -4.0958767699048115 -2.0562022164813243 2.0451331907719568
45 1.0651314489902528 2.434036828740436 -10.480098065840934
39 -10.245999181228978 -0.39960179690208697 -6.64634539398642
63 -6.4102147800192775 1.6875093591907804 14.520578755619367
332 1.5173901982441165 -1.598116939653227 -6.2446454552481345
26 6.5236315111685235 2.0598347338175174 -0.04235258253454222
275 4.169411856348848 -1.4345802581627527 3.859457539752357
292 4.181643049339289 -1.0014127672872775 5.198337887254056
594 -5.787329207922325 5.39172367631543 -6.052608968053098
656 -0.41446861885095265 5.810817058209918 -3.4507891065675205
54 -6.791623652020274 -3.364356608492501 0.1541613593743348
847 -8.916569685527167 -14.09117248207391 -0.47943369397137703
1285 -6.0989289185134545 11.543406603068215 2.542733057353404
1287 0.7497113594837911 -5.166844061534351 3.3541372357413812
1322 3.5417166291923188 6.175899607608542 1.9214044393475103
1321 0.7867908148900735 25.393808300019984 -8.919956265339101
1323 -2.4140197789593 1.107445220420683 -4.268931076853469
1898 16.14063473776647 21.455861127639693 25.066622157605792
55 -14.718756449677661 9.03465761241992 -9.719038404464962
91 -1.7479913857357816 0.8693637791604751 -1.418161506082927
1983 -4.1756203109579495 -1.254206765908198 -1.6767950030809418
1158 -7.034820222223188 0.33436706197881205 3.1427324093384197
123 -4.8416551556578815 9.807485070110271 -1.4680876880309288
1157 -8.578702663614584 -7.817397541244295 0.3817399286128052
1360 -5.264659121990898 17.967461096639955 16.653259848277543
423 -4.148084672157658 -19.674024714050418 -1.8275092426127038
1982 21.92988850251664 -6.202508804515007 12.127948484955445
30 -12.173116614871754 3.3732902818816055 2.9052585345940423
968 -13.639194610454677 -4.516465097495427 1.4552649432135916
22 1.7673496673008915 6.100271602450311 2.5067824177290605
116 -2.1800688141411118 6.511802241680564 2.5365709160301066
42 3.5846928714236257 7.358639312040538 -1.166952288431823
394 -0.8683746188519008 9.523996798121749 -0.17155999015739712
361 3.0670848943798203 -5.231025245969493 4.787530664657637
390 2.0256875811071176 -2.530712366123967 1.6763764087379789
1973 -8.315241742671217 -4.488639207699654 -0.8031896934793155
90 -11.044323389978514 -8.513742922686678 5.363637102361738
913 -12.937176486082118 1.6486739334755998 -1.0270103964558774
324 -11.003058465556615 0.26284224733013534 -0.5788143531250611
424 -12.271296511285998 11.145490484727713 19.757502751616553
17 1.7367929750931224 1.596254462779486 1.5098947763102293
46 -1.0620103473525175 -5.140474131477361 4.88952471530773
325 -14.864339146075682 7.738613119707898 0.6063788406605176
386 -0.10397583623515334 4.757085937679179 -3.5091986729642426
279 1.257633590049387 -1.28388126162037 3.4315351304898094
316 5.635496939016964 -5.155319319284457 -5.158130404693893
373 3.8316591638288746 4.1359125607479905 2.2991019182970303
290 0.5468723123165486 1.8152887427180517 -4.658675970205033
692 -7.593631439481201 0.4755766708353029 5.534672336416251
319 -3.335515994558059 12.838559135326248 -12.852311798216798
274 1.1574640644260352 2.919346253615181 6.498629342786126
1286 5.116370494351613 24.732906282403984 3.87321588756307
672 -0.7687220246578541 -1.4284221217766742 0.2675999099294184
650 2.6508852777212333 0.8586613851224645 1.1156488499692472
770 -3.4101260933017374 2.3171967267062814 3.50553192694876
153 -8.935841832384222 -11.519397007957403 -4.371997393907779
652 -2.83106984920413 -1.046087319079863 -4.420137838116295
660 -7.501100553008077 0.27139695346692155 4.870508512768888
214 -3.8086988095502305 0.6212681937625898 -2.509896476003506
106 2.4072265228635557 1.9765453470898857 0.7318917909985161
206 4.619447211755897 2.5091197684280844 3.489582562447977
181 -5.787425252616936 -0.927468370542389 1.5242422816681385
152 -6.1956556908263245 -1.1226134098057752 -2.73244631796938
132 3.684038651279075 4.243447247020029 -10.439530238241813
120 -2.3176229041363423 -2.4638555955548234 0.0069201825830055705
154 4.972965930813114 -3.2182122168073124 -3.3683791618808794
95 -0.8265620134924619 1.7355178401855278 2.156186933270915
99 2.3333038087882514 -4.836328558864059 -2.752770423659746
129 -7.920767078969702 -7.316568908155229 -8.580595781132306
414 0.9623233031258173 -0.4117596416726176 -8.03153193703861
415 5.410269608579926 -18.436751762671577 20.716868544028603
513 -1.255832572816448 -9.95586250349091 -16.533645010517162
180 -22.253106067903694 8.969775837406901 -14.456753193558038
376 -3.191039664513049 1.643490388860391 -6.060182753627721
1758 2.744237387348264 -6.8375150247560885 -1.1514676220317568
377 -2.5519974270727124 1.692237961184778 0.9436129192694106
1804 -6.4205225633265295 -9.60329100444918 16.554526435866894
484 0.6772057409079124 6.856378274494748 -3.7038676105018857
112 -2.045476076719347 4.16872658504366 4.656729060783195
365 -2.3477600316415033 -7.04235253905191 -2.049529185469406
369 0.1962106467034036 -8.92695437150618 -3.2704933413025548
402 -2.819245964075585 -1.605003440345601 -8.876098376991829
406 4.895110460392309 -1.224131541976793 2.8996002767771594
476 2.5550027138184044 -3.7849848852021006 1.8479786554864557
684 -1.9334591430051757 -4.792707085477 -0.10577852156610505
472 -0.03454696028304365 -4.141979769567726 -0.9136677995787351
382 -5.373264162197926 1.4039057311761185 -8.801638257982171
1756 -11.938828047749798 -2.233673451133982 -19.355878349813352
676 -2.6505661881251035 -7.717678378513968 7.854290890624461
1231 1.3027430710578982 -13.875617559561649 18.64199614563373
635 -7.955835699760286 0.14548376342563524 2.800956902877581
1759 -15.222022127660173 -9.146752724840697 10.895165865452293
1044 7.525866292630292 4.336654039745447 7.442557835223709
669 -2.3670489882029893 2.1966797843630643 1.5611882495634504
202 1.6818814099406032 -5.648987324458721 -3.7376527873551537
496 4.617526133020232 -2.2614410109206267 3.1737363804574032
296 3.616286036923869 -4.674625466229706 1.8706115498236764
922 3.2920703143935315 -8.824328670676781 -14.530092647062531
774 -3.397181549975635 0.21877702755320885 -5.571915069181063
540 -13.480809305040621 10.6873722067281 24.41202801804585
1235 -3.0226370479131486 24.956481918633827 3.374579194169329
514 19.629628195835163 5.5506787680059135 -11.445981113755286
923 5.019782740164272 30.41136320929833 -9.650692238708455
924 2.2100081717872255 2.8998454844846955 -5.066501586327193
1916 -3.468876902493513 3.788911098221893 1.4254027522642156
1490 -3.2162733095258305 0.36032633459014096 1.8975933220091785
1021 -0.23099627620330596 -7.587639886579387 4.508836770969472
512 -4.20904852311502 -3.0909207437593604 -2.164099489935737
1757 26.665291888943273 9.58106199720328 13.243605391868293
492 8.060600392591583 5.7700554676066815 -2.425918896810741
818 -15.224695819392045 6.0251329733065155 2.0667167901591537
1491 -3.907430327575322 -3.3954367793208435 -5.6477170333868925
1354 -10.713898512203505 -36.736948281878036 12.652067720979286
1356 10.969472727510015 2.9069995280131424 -0.7945398441901521
489 -1.3117353259468398 -8.145995730374565 5.1962278523279
451 -0.8169446696969372 1.9552148265177114 1.9845925222446563
455 3.9904888662170324 -5.4277992600017315 -3.6134525965404634
775 1.228573063120852 -12.93556547017194 -0.786478206560381
1090 -0.7379397102864789 26.836906520430187 6.101759420186653
1355 0.3586478454329844 -20.481474260666754 26.994608725479548
1489 6.778047317827101 -8.440280685779381 16.049293452412194
817 23.744868537242816 -1.417421410574123 -6.243776692155021
819 3.361424380453216 -4.566967061420029 1.4288127944925741
1704 -8.92102258426932 -0.8068364451726054 -6.350572416099634
1091 0.12822477185922754 -6.233769378722871 19.16434760117427
1092 0.699881566712163 -6.893007725603933 -1.0883464453484277
1023 2.6721751306807384 -4.981104864752682 1.502816716542676
566 -0.030931805820472245 -0.9831000982608175 2.250222621626202
725 -1.712065128687197 2.9241609467058614 4.847239634653247
742 3.338837346492882 -0.1280435632974991 -1.9090057204055713
762 -5.073399658200739 0.4109476165918618 2.688805003405466
759 4.159396962559181 -2.1937082707335596 5.842211120313283
750 -4.02105706476752 -3.6004516914313727 -0.43822081392461876
234 1.8729095630701242 3.4902415184686784 -0.656517291512424
746 -0.47170110519057257 -1.9098315173148779 0.4404932148228595
1895 -3.305149178047763 -6.0305302061320685 11.188217134019409
197 1.7899434258727183 -2.1706811242381665 1.7161763792351925
185 2.859550756330481 5.809788884091484 1.6335086693305811
50 -2.5908798714830654 -5.219872269745812 5.253332300566435
189 -2.811750683277728 -2.881667852212442 -1.5271112901050272
222 -0.7954351490142484 5.394104521366402 -1.546388256901713
270 -10.564500155092203 0.24961854978128928 -5.3093431526735815
226 7.041651978366043 -1.5401573178329726 -0.0904682207418065
1043 20.383433185529615 -9.679042288237818 -9.536397290190976
895 9.528396092883424 -8.800729263613434 19.026876120789087
1894 0.4104017640446542 5.660138092778108 3.9268464175001423
219 4.542916908731806 0.9945251424724817 1.3846296754384568
300 -10.291425957035951 -12.412482954719897 0.8815172375433021
278 4.060495020850464 7.0361186963100675 2.514476687691065
210 -5.031884758844141 1.065813565717889 -0.7697981098714418
466 4.970877437525562 -4.399144716720331 2.401009349909659
467 5.430947790598489 3.871279318295506 -0.9149401953608823
470 -3.7821521704811505 3.8213618782805323 8.487822383376965
487 8.730080866170873 -17.533118019551132 11.37866692623278
552 -4.623835844456449 2.58058963739353 -1.6997850981720588
459 8.490002565761696 5.459764951320777 -8.009353023385614
323 0.2015544491358183 -0.39251283832072165 -0.9383505567653794
315 -11.102871708957311 -4.870529098398982 -12.793917382802112
139 0.07670165327815953 0.322872658708603 5.450503349863577
541 5.646312780497988 0.1233831394267183 3.213233195744633
283 -0.6649383653282185 5.80039943998568 1.1221361361856104
603 3.551519880615956 -4.344556471016658 -40.929875299642035
586 3.3426830893602406 0.09411332953928966 0.4626396006470051
574 1.1540419767353451 3.9037197244984827 7.543049455660779
320 6.713467594697689 15.56964339065815 5.6518973624533455
557 -1.7336369316452358 0.6098971050084843 0.3800113343120076
560 -3.6523227988167712 -5.132945137761493 5.7308733012443565
12 5.573785412473154 5.720685519950313 -5.999990199512009
49 -3.648234697799432 -10.228158641372325 -1.4290367416185696
184 -6.41374568424973 -2.465024535688502 3.66925548821574
553 1.2053347778162815 3.7871108845122334 1.158708684919438
217 2.129496604176552 4.161065819319527 -7.268377581316067
573 2.8895525894524985 2.7356511694132255 10.586403374404721
724 2.666110309783092 5.854177954958401 0.1095464006042184
740 0.42507591861901367 3.3059238774909137 -3.4197652608803875
8 -5.6292024617251775 1.0245853497261184 -1.207857752375178
85 1.5942926921081428 9.177190657261177 13.743419547809099
53 -2.087577838168981 -1.8697290668103577 -5.352954888054059
196 0.7831791853509082 2.428562604187056 -3.2382991240388095
84 15.977649575895434 -6.552991102736624 14.117769056713229
25 -6.616543698243753 3.9447883434841935 -0.8604632214525406
40 -2.3252534767548076 2.098426616588131 -0.5530202186736606
33 -1.552491799650087 0.18119755573979782 -6.624349068210035
13 3.208774287243822 -0.521485084743449 1.2178514594655043
310 11.087256997389385 4.92997950040456 -1.2209591366642218
1 -2.5852691256764366 3.5883119719863066 2.418787386320032
282 -3.5684084261119753 -1.6032271348675395 -6.387044241159761
713 -5.918374203090914 -2.9262378327846923 18.019405466156858
569 -5.323281718431453 -8.963868485129922 -1.7654066254046532
303 2.1073149107833937 15.315012673612207 5.846338002604784
593 -9.952445708081711 13.366225496771722 -11.419727721590993
616 -43.09104453694956 -2.70604656924958 21.024069167303832
577 -1.2157786108402737 15.942906142585706 -14.177881496624762
638 6.600784219133982 14.68395229885592 -1.6586804055924977
639 7.384489428380461 -12.37843805721158 10.67327359303306
107 -13.458759085698023 1.4993621261927608 -2.9533621941774153
410 1.609641815450115 2.738184247010434 -8.673603250493395
642 6.911297212366329 9.116657599417394 -5.279027746084013
544 12.420114175794431 -10.175788004326803 -6.694129404517805
556 -3.695521160749796 2.7324207947553534 10.644710082412022
631 -0.5473073600021768 12.030579513347398 0.24380676157697823
664 13.823637330773108 -13.89079007457764 -3.438310681731001
643 -5.440669845716293 -3.1750649933098427 2.7262097011575133
663 15.97066970810861 -8.139460236803282 13.681532703248548
611 -0.5611198632720735 7.418574497371991 0.08729687321970574
124 -2.1167111128432254 -7.775416334048507 5.652383888479041
549 -8.377895334837392 3.02406841499763 1.864194073471231
98 -1.0791007751968844 4.188787208386024 0.1861528640850348
680 -9.266920282947744 -4.3394308438270315 3.5349787231636958
16 2.506495349292139 -3.5204204044577527 -2.502812316023843
230 2.4991239686181737 7.919639138030807 -4.73067381961571
9 3.175928726619283 -0.5110774317757824 3.535003364457265
4 -1.1399045629841682 -0.21177426194954582 -3.9187207010500424
103 4.193563389871876 -5.04656810881712 2.257735417612196
34 4.403967048872419 13.183025991530274 -3.3983069085770086
307 -3.575189747064671 -0.29019536848554717 -0.6054985766019828
628 29.322671868495018 -24.97683132383643 -43.17039472518879
614 17.78782873259099 1.066594947151384 7.753451300108574
286 -2.572467062955354 2.729253455139443 -0.19080883787639183
690 0.31311604028240925 2.9258783840061784 -13.50845593736431
393 5.734363049452624 -5.414024080584989 6.41129967549562
136 -0.6661946628585036 5.787430712892782 -6.782019740464383
94 -5.538901992889519 -7.72656004388916 1.9489759012147556
127 -3.849787119521761 0.39846769590184716 1.9160621859200506
205 -4.911487469296122 -6.213968656775981 -4.748407801037121
213 -6.076950730900157 4.613131979888218 -0.540576534687351
119 5.696007367217626 6.2723165991136245 0.07242064519386562
703 7.354358508979668 -9.995781993485368 -1.0878307053429925
702 -8.172261954302103 24.101133297052343 -3.4484896627583272
171 11.799805402953572 18.185754622841927 -13.071486026910707
201 -2.308896650345685 -8.512589316685458 0.657476953914732
710 8.925039733123567 4.498512337250861 -16.18623021354738
701 6.943685508585879 -5.942008439199254 8.88931527984781
20 0.35734595424416826 -4.6126382686032015 0.12849882301462753
172 3.484929063612506 10.29598767852663 8.556135420452685
409 -1.7068332517344655 2.1053703101674244 -1.854800664698956
110 -3.6714874571910867 -2.6556333747813414 0.37872165344194236
102 -1.422614331501837 4.035655857933694 -1.8142617485048975
135 4.097967642499241 -0.5427300945160393 5.546392516325669
143 -2.734194164780634 -4.20437881256702 -1.2157806531552606
163 -18.804813618202978 -25.36125086217569 -4.5144810847100585
364 1.9861190060774216 -3.4484512825688927 -4.440008560729706
475 -0.7011133428484733 -4.809750865497664 5.909973416028456
389 5.886264969495326 -3.41911790426572 0.07068137535475447
500 6.614835338802023 -4.630694986973261 5.994525661306318
372 -2.56876316132275 -1.9750407544466133 -1.001325335156833
397 -1.680656287691546 -0.9134200424444381 -2.190983957136116
380 -2.457427042487053 0.21656598276088057 0.7756179487652327
413 3.5735792086017155 11.204253638639099 0.9688790546133654
483 -1.8007976347549308 -7.508852628875782 -5.439352288571738
659 2.7649025178683617 19.355201392567075 -6.4424666003548765
754 -7.112057560828949 4.558176166660006 -4.473960393976923
704 1.857913368913212 -7.672315731826471 3.0039805518575093
646 1.7785115825876125 6.389575160788784 6.827835191838372
634 2.2932272504067077 0.9042577345980274 3.2820189652930245
667 8.56802277864407 5.778847854037473 -1.8539276527769895
753 -1.2313984053728575 6.782517290361362 2.7843502226757626
705 -25.620751320075463 -52.44626252432802 -56.873979629302944
706 19.235805804091484 -11.653321787430801 -7.9079072041263245
683 -3.3035075982210103 -19.670199399338586 12.6415935675406
733 2.342097733121368 -1.873759646091578 -5.058225205007979
647 6.935721951097136 -3.3020218942547763 -0.08868911223662697
330 -9.749282298103857 -11.61507940022889 -10.5017745618003
253 -6.733261422235729 -30.789861957263668 15.083252528174254
295 -8.95508549366272 0.1533882764022492 -3.818117999643607
454 2.698705735462013 4.631430127990441 -6.326212766611621
193 1.5889554953268639 -1.2431728186034507 1.1893481243099717
462 -3.3131675187289296 5.547477079838486 0.7060127308182411
711 31.98110841400396 6.781837357118279 31.012217911525333
602 -3.1659559267948953 -5.306693794666356 3.8377233482876054
480 -0.5345401707090967 4.139965941329069 3.763067964684436
773 -1.8504541237722285 -2.349418013281025 -8.727446561627385
736 0.34778698923746665 -5.125401248382042 -2.887165627908005
463 -5.919964014596144 -0.3758301346780875 -3.8212052211569345
732 -0.7329039063176236 3.5038920089757752 -0.697092952929758
757 1.4371577548698338 4.351270346316653 0.5909154181843734
737 3.3603927305623253 -2.4287645271715776 -0.42635824648001625
721 5.138542949391362 2.0597413278690477 -1.673370541920731
766 1.3210542402824985 4.583919618840767 -1.10407701961295
254 0.1730514391068434 -7.385663901526467 3.8044244626139063
729 6.042961949840971 -3.940023999320325 -1.072758669787199
791 6.928666211912688 -0.7150150854470357 3.6555534133860466
792 -21.71904970332228 20.5288004844932 30.30396326414277
251 5.057822160387377 0.11086452653296883 -4.536396308541336
240 -1.3166676093752154 3.4310556706979303 -5.735611737779844
233 0.004816256288235232 11.38890191668202 -3.4258383720146677
220 -2.213637382718009 4.677136334160777 -7.07356354283277
354 -11.307418992789156 -4.181090918566039 6.174218915099273
229 -4.539400568484266 -1.1136741760460538 2.6719879612959736
192 -2.1885434189319235 -5.258118051673898 -1.3335725916289192
200 -1.7810268258307187 0.19975927228860538 -2.365123170760666
225 -10.888259127508178 -6.606255964258741 2.4048570982219237
188 -4.2590249613057525 -3.5658491041181613 1.7472869495136638
255 6.2553945883401365 1.055894269730861 7.560953796645191
353 -1.2170496038957048 -2.800529230108775 -7.194661159271664
585 -6.72591689575134 -9.584127827986164 -5.695756556001961
81 -39.39140053576007 -14.949749013619375 19.613878788168048
561 3.5103813602540255 -2.3363917405619192 4.523692003113357
580 -2.525188155305065 -8.172770021916898 -2.217199106753463
599 -1.8484363978509548 -7.727476974377943 13.201505591644393
600 -1.7532260814728096 -11.266496932957601 2.995924031841507
548 0.1792318558349644 0.5246122046772117 4.026562688115669
82 10.872847636926872 12.854257774896942 14.029682196961051
168 -13.184340923768632 2.300231230852685 -48.48207107582532
601 26.045449237194582 -6.703148439869147 28.594901994045685
86 -2.3062041975273493 -0.6439044354533898 2.1661286193421567
87 14.222263495034976 -2.1707785603634373 21.525648873118914
88 3.6919049150543195 -15.456955092112226 -16.76166945238013
21 -1.1450874615697821 -1.225868561648779 1.438085953592183
808 -9.646811381785211 5.312686424323936 13.151469551141693
625 -29.634805380131045 -18.2763633725747 10.255071739673706
80 6.3062074206867225 3.0391467093326665 -1.646802020296153
60 4.575240824728465 10.83121079433686 -1.6360595244186016
61 36.961924087981835 1.8342199453675594 -48.48414710582413
83 2.561068929109037 7.472030900069158 -5.310334178513405
358 4.439188768255268 4.471266018013287 7.454838515622374
709 -32.04090560590659 24.378885654630878 27.017783557171473
209 -4.411470432081798 2.3983529162701727 11.476047417985733
70 -38.11870551218474 -36.31870968948252 -7.149535565385094
314 14.216989873199974 5.0274913739371225 -8.026639986284655
331 12.823676785664533 -8.401403361805825 -0.30307116946835494
622 -5.091055229847659 2.67443978489137 34.70175598567764
328 -9.58321656074925 -9.73809736674172 -4.846642236892028
439 -25.170532712862638 -10.105216328701582 8.241912238139552
621 1.6518470178281848 -34.32300418650352 -0.705618869495995
612 -5.058968413753609 -40.532818648033235 -15.385727121373215
715 -21.571261301464332 19.344293344827364 8.826181975102225
169 8.051478200268392 -16.042525281348517 11.432063557226877
29 0.4954504019952686 -0.07556048527133997 -9.956902419596554
442 -3.8816497410901696 -5.017550281362782 -17.940549684339256
115 12.890437894783895 0.7918353392477959 0.9997235589093936
37 11.885175587371132 3.599290431514967 1.298547293976756
620 10.911292554731617 2.3780788471230547 4.060921676438189
714 23.91452671260618 -13.53274709560601 12.972149833002172
613 -2.960979251990313 -5.769645816686592 8.000527438673387
111 -1.8997519126961286 3.062565521393546 4.008522609211383
130 6.380175833163293 -7.159102255445637 -2.66076886843457
441 10.654319688744506 11.209832841602822 36.65542709860412
264 31.330353746306628 -4.727362673721372 -40.874125879320985
265 1.648010955223629 -20.51744010246053 -31.32080398231351
357 -8.953307040769644 21.819089722862834 -1.6466291955837562
385 -3.5572143552268534 -0.511344012822793 4.114967536016527
71 1.4898308564351397 2.9340869121170408 3.008544417166899
311 3.576905488040528 2.3236917110717594 -4.661126176151809
76 11.309491121749097 -29.215559293695808 -4.278154234942477
346 -25.918622458844126 -26.23619466205837 -33.992217503174
434 -2.4076715042165873 -5.1223300343694005 0.13042998249817078
436 -11.673409920990881 -8.676086202602734 -10.578569328702192
299 -0.8082563889932443 1.9017246832622814 2.785841206108539
72 38.584674966120886 -34.359722268871174 -20.93635316092958
74 -3.1734627226783974 -2.615157391594485 0.5700708812563744
344 0.08823645371713279 5.30869922822961 -2.752410362665986
345 -19.225899570948975 -15.742291710335937 -17.451725090700542
75 -23.363743054610794 19.508588381161132 -12.655829936219028
381 0.40405206788704523 8.368887772071428 -6.013613053839084
400 -3.3838291171420383 -3.3999714194087454 6.271591655313384
368 3.443161575517578 -4.717397292439017 -0.8182507723600027
420 -1.3162300357970727 1.0924642455976725 -1.7259960958937297
718 0.2776092549758828 23.3046827007332 21.80096311493907
691 25.093781089739952 28.874702207171055 -16.900522856381208
655 -8.403461294684806 5.3927286407590245 -10.067198868332285
679 -4.070975591375153 2.138824397541385 -3.452910674629234
589 14.631234820890944 13.848049911769667 -5.98418512178335
291 1.2895832394497286 -7.622786948699508 -12.48602035049772
388 1.8924457242889754 5.451928829574333 -11.886213535290002
350 2.3413427254183254 -0.36593789585805503 4.485788168702813
707 1.0172251431764912 5.524950940850157 -4.434746592900984
626 -6.452912438951139 -6.373903429770444 2.297935138532114
627 -41.49884450736817 35.81594872674407 8.881124663873505
615 -58.222536182020086 10.398312647820942 33.492929495291975
342 37.22954022063163 -40.498900376475454 -25.19788041770756
670 -6.480428145416153 1.7991537397517066 11.55945584052306
341 1.178027585984918 14.725966614146724 8.651319347408394
343 -2.7472848000707546 55.85856113129425 -20.119409811043752
651 -7.0994658350348 -2.0926315584664503 -5.240795252484147
421 29.617474700521377 -36.07410717824069 32.46926190385606
263 -1.8122276203568013 3.1698484555263304 13.166521868498961
161 -3.143068717596188 10.948152499262607 -9.032768726425049
151 -1.2964240389759394 34.144515346134284 -22.263848138852683
162 -39.53273290975661 -15.292640808947395 -12.168661154056172
150 4.453059140905289 5.347472021749212 -6.7049731878492524
178 -14.9548942131487 -20.80069209850462 -26.67122136426232
490 10.765669838461449 1.1420118000738608 -0.5295855134130054
405 -3.7612090675726115 -5.646697351714479 4.242046117680448
73 -37.52844180272343 -6.315575264395239 -4.834207330830186
435 7.710580038915987 46.694860566488856 21.525459898067528
447 -2.460023253979574 3.4270525256758613 -23.875005871601395
431 1.392359375799047 7.394474245174101 8.87563586358771
675 -0.7467816222417157 -2.045406393576312 5.625825595442391
433 -35.232321754572425 8.818364604698338 4.49414548984621
261 7.586639282291557 23.49084555109563 -31.905269971783746
745 -8.989226755329538 12.993062498194963 -4.570311079568921
432 -38.7043302003585 30.169387511883553 36.63941937614983
728 -1.6494847481217445 0.42503708749934416 0.48951101931408214
760 -3.496639886569 -5.290139342780133 -0.3327425605252568
780 -3.994547115993058 -3.6486096460111517 2.7310389224339477
256 15.389951770536657 -2.2612694104891853 9.77795146963308
531 -2.7957519017797923 -8.616538780851162 -17.43295268793522
260 -7.663464668486789 1.0920229441021871 0.5874358712912757
355 21.585716312953444 -16.63144125654205 15.460476863935837
532 43.37561357548311 -24.16725107346147 -9.634199350593708
252 4.177709858518463 23.838988504544115 -26.764014650280693
538 5.123802010600941 -7.281439065423617 13.877741103314339
187 -2.3886181142371505 -3.4025183715715355 6.5322200254853735
78 -7.045717272190053 -33.56705863279098 -5.533456290577318
164 -4.651908628882873 4.233373677230948 -2.5716975685527497
166 -6.681533005423974 35.55395935198122 -31.074943548611987
495 -3.414483880120092 -4.532259422420534 -6.024541331917699
241 -1.5770326617939705 37.65322548729266 -38.11319369544946
165 -15.332766769203253 16.948764038164214 -1.4579580779317873
499 1.468903078403705 0.1758275761609765 0.9493973697854077
479 -12.230943818785569 -1.1374319981206773 -1.9497746517289125
503 -4.3769631689571975 6.6458860676451135 1.7597356693156831
458 -3.0522763300916096 -0.7210491443838497 3.211660996712113
525 37.42966330909911 -25.808729717640528 -10.4094975958908
510 -0.7137064891838373 -0.45303033434953055 -0.6314994248075464
250 2.9129697443312965 15.247550440107414 0.10168293759490181
522 -4.32644665827941 -0.6251619793996667 7.835703018200102
524 2.0170744067102646 -7.006164484719819 -3.7109191648278497
526 -1.4948282232516745 -23.850691823934156 15.817043904264935
801 22.292824941084806 -5.49771086009799 33.569946246715936
521 1.8789726615078726 2.4334787748145046 0.5711994121894514
712 26.80180914181509 6.765281034109158 -1.6586804130114383
440 2.3519051585025275 0.15594142434452338 -0.3343969356664876
530 -1.4221402251233228 1.1171914314285072 -0.7938351725816611
802 -11.237096575958011 -8.562375255058457 0.37311838709831474
794 0.7669339844201402 1.3560050623730686 -0.8188093749914964
565 -4.641334185785058 1.809326642515132 -4.6342974245078805
617 1.5632231245155381 -9.923586742905902 1.4826205895520623
769 -2.0205937701587007 6.077981948350847 -2.3837832102821555
511 17.34526369306255 -7.691292451734539 10.899586755098323
523 -31.142612622825116 -2.8586149948118194 -0.31977955344745046
765 8.874193696454915 -3.3100847770297968 5.525148841114577
623 9.685272295203736 -4.949073740375648 4.32334570000267
749 2.959991271301609 -3.7602226618235437 4.157871157899427
624 -22.33861434328212 5.549055443289122 -21.26813292166098
781 30.496483110612253 -7.00025847704421 -35.971437038972944
793 -29.77102178362877 -0.015696303681305996 1.656003080756772
795 7.693443964557492 -17.57067197421463 -18.016997891676702
796 37.902874891911004 6.45810193267255 11.46755043319766
806 -1.2643740762898472 -7.233004805188816 5.05211245932482
262 48.10003357617685 2.688205681580897 -18.77455918473343
800 0.2180220450260571 -6.644586923364328 3.1461131656447603
807 -6.962521749102333 4.106955670697749 -27.42706756868893
608 -3.186645277359727 -2.797346637712341 -5.797737676421541
761 5.312911839446211 6.648155175653277 -7.818875391855434
268 -17.950392968482138 26.61864836117797 14.823796705339154
239 -18.458557189998416 -12.556644867557456 -8.115149382435723
238 4.334074821436267 -10.79922090344895 -1.7481046036388486
224 -1.8981576901317623 -1.1061551412454862 -1.7491674939878505
294 5.783812918210106 7.40358790182256 -0.9461481545388127
277 2.4721745175274825 -4.059846856716877 0.9943904519185198
273 2.61800345353852 -1.1019470927525257 3.822791025513301
302 0.5558360899862355 6.120887963514251 -9.09247557525489
581 0.4911165067977647 6.947973118942423 -8.310009398067345
598 -4.323342670496844 -2.559397765620091 1.128964265903732
339 28.430818628050748 10.834762968855705 -17.85416952246196
588 -8.194278885168364 1.2546172939470428 7.02144531577343
547 2.090769602017468 2.158989736862438 -7.324922411493938
564 8.754938434043172 -4.197212510847282 -2.154585485401526
576 -6.818354364407774 -2.5165624433824907 -1.3843598865022615
584 -1.720227499487135 -1.3013820268848975 -7.863525733309048
682 -2.7038537040114647 -1.0760794977628998 0.9130257508053908
661 6.231514542468545 -2.7448890570480837 9.699475356274737
575 18.27548220693243 -6.004299430870781 -0.8171224246445153
41 5.9203239340928135 -3.955042209294235 2.5016142680630162
24 -3.0143951377947875 3.4788091583975667 1.8941064893743254
174 -4.674325203242955 -8.968514763106844 15.933328400746497
352 -28.71244293227707 9.419358535287328 -44.464607483957664
36 4.178108966106198 6.0313746015731855 -4.407336532235147
351 18.94869760436503 2.660342086277565 11.405825026331406
281 -1.126823941610553 -6.015109701209368 2.837041579662297
356 0.5562278209657889 13.138963779403714 -5.857383827184886
175 -3.93243597299071 -7.874428321386867 4.850087030670222
7 -0.7619674350772603 -5.37584760122405 1.5254037185478897
3 -10.03730792493499 3.167859872155636 -0.17771870638839732
32 -2.8235627326181376 3.440857305004735 -6.568734832461618
58 -1.1120313920024627 5.5111020363373635 0.4419955456174571
59 11.063845629364536 28.243600943177974 13.61748715625232
68 0.10572048215068092 0.6699248772808787 6.552057039835303
306 -1.9440263971561127 -2.1755917582833657 -0.5250706888571394
52 -5.953594432693768 -1.846572376680187 5.347165838649946
571 11.598755977279573 6.606270593711286 4.725150754130737
338 -0.6941612735313961 3.6817200801242653 2.9980207059103643
329 10.024496397355538 20.730345514814676 2.0958525017424146
285 4.042495577056331 4.150829416957257 0.56761190063182
437 9.356684237621284 3.2883006694899506 1.1320214759210168
708 -7.423928070045978 -6.302201494204653 12.07294481399092
438 43.79187600492883 -38.57294519986382 19.63817998817734
468 5.274010988101733 -2.8788331074517375 6.912520692852254
288 1.6536871835875184 -4.562320037130443 1.7415524554241733
391 -4.06514705761976 -11.64356835997774 5.570666946461418
284 1.4908096164720992 -3.0868425179816654 -1.2651738771142271
379 0.6701877040914449 -1.880920045015128 -0.9839688324755438
666 -2.4264740234735904 -11.393734260722464 1.244464906856392
648 0.06386042624650094 -2.2940812837806557 -0.1917495064173632
542 2.04700165144118 -7.109070500675806 -2.758699917657326
662 -4.629502109773912 -0.2500529773607987 0.8175651068494794
340 4.841244710145135 33.681724771260306 -2.8377264268944598
551 2.134732761483378 0.524782932109425 -4.3981656383070415
633 1.300051564334641 5.172851544964487 -6.623677990309765
658 -7.316581118533654 -10.488322520916743 1.3133543190957317
167 8.70756456203442 -0.671517546888954 -5.021472881145863
176 1.0113944115947442 -1.681191633697317 -2.093843941403158
149 -5.708943713400904 5.598511356783716 -22.894020528216114
158 3.3937065574341134 1.539837804882448 0.6888507363346954
173 4.50715048640717 7.871108296627893 5.836582421694852
170 -0.7607644451248857 7.080989425004593 10.11748815545177
177 -27.835026339069408 34.821823026489064 8.84458288704789
126 5.4459416638937395 8.730524405380752 -0.6666199602181879
93 -1.697599225802636 -1.211487978160654 1.934670954013917
118 0.851200669494726 3.1042886461281407 1.4137764390343914
159 -8.649863317235733 -8.503249544137578 -7.698613705198295
114 -0.40987931746870593 -5.802451735794771 3.3925290251813762
717 7.776829699599833 17.436572015106297 4.568994870438991
446 -1.7280018663125565 3.090856104626368 -3.0915129434997617
384 4.484314000087907 3.5718373606640386 -1.2179804755348758
401 1.8502924742025983 4.437688668581819 -0.2724707037443476
367 0.9846647340211141 4.217501681728993 -1.9727033794104443
418 -9.065984736169895 0.719830791165886 -1.2553748992935727
533 -3.04682584818104 -1.7473411885743928 -7.555740461414695
411 -0.34654058050504927 -6.184224078274034 8.85628970606103
419 9.535881148808416 -38.66917933492658 1.652000872193153
44 -1.1493687282504608 3.997925039930205 2.84014147650302
396 7.491401476539463 -0.34576085316440963 2.520104082297227
412 -0.6945259690335027 -5.315021182202574 10.798156675753766
363 5.340925832435538 -4.044483667100503 4.425063768572574
370 -0.5785345773295992 3.8808971606178586 -3.429457985505607
407 -1.1974749261540902 -2.660856174905826 9.13603161261955
741 -2.2880521356588317 -5.823033886643409 5.706332332316247
428 9.437201440773483 11.233064359274813 1.502514929404073
698 2.8730291891407727 6.833109176014109 2.1621345598100628
700 24.122699992214184 4.472579477244891 4.107587544520622
134 5.563642338235758 -0.27306561004607155 5.577299466554153
138 1.501914679690886 1.884282937206946 3.64467799345932
183 -5.511012872232042 -1.7378066973010002 -2.9806254472242855
208 -2.180785719353945 5.169141472719512 -1.9769168326251687
257 -5.727969217189384 0.6104026329250221 -4.315813844253292
258 -5.939070402427418 -19.898467151084127 0.6145213659985204
259 -12.225984286098404 6.902897898921274 10.087773227020259
689 -5.220434717342619 10.208019668376858 -29.16109010150156
688 -15.161209047362611 5.4049417266138144 1.6481277529910865
160 10.901855544372076 15.443020857774238 -5.508195163360118
131 -6.4706451261587254 -8.167919128180946 6.672773295501034
97 -0.7623346253060793 -6.262334256960167 4.5883782100299815
148 1.7886189717538188 -5.135211211157943 -5.6474469943197025
408 -4.599959288808476 0.4170353505339902 -2.4903503409457217
371 -4.325651220392297 5.078050403693408 2.094417610596121
529 44.61366197763033 -3.389021208233929 -26.6102098573477
404 -2.785589396892089 -3.6369450902361264 1.9456035473516142
478 1.6131698485378467 7.736247842230848 -13.71640480306541
474 -10.192536529723123 -1.6682759449163023 5.1252357979159475
527 -1.245845067484373 7.106409045221939 1.1653744484844535
502 -4.9200871218329585 0.6003460300048973 0.16016690299415315
448 9.578316438860178 -28.922823295974613 -9.299039755322985
445 12.53640783878176 19.05637002545649 8.606326752103522
716 2.3395670795000134 9.801998361676773 3.4586359996162757
534 14.259867354451295 7.672623877491994 3.919966111979888
535 -1.472683800978331 -10.576032687033 44.19587886050724
378 -0.03240430489311665 -3.1311827706764177 -3.3970150686260476
678 -3.1435507285652364 6.362611196793519 2.74121696555877
429 -4.356003719244499 -46.91772640362322 16.44678863956461
443 -5.756595700004411 -0.04652710870999481 3.7183396290716133
444 6.642614930969875 -7.220808136668837 -29.414638706103986
641 4.663218015353488 2.1749971606703316 1.5568442630205197
674 -6.653744804625406 0.07513847309085037 4.866515194717371
723 -2.544351283795249 -0.02945913062632081 1.4275924801209443
748 -10.310073208001585 -6.890561602949715 0.33744997191459714
789 12.523286657020627 -0.7742134241454947 -37.35456371105163
797 4.067077073942161 -4.156913641715137 3.0991315975344507
798 -19.85119857726898 -2.800155539370326 -32.141007861076865
799 27.881863334187955 -21.178990760177218 5.473751665159955
790 -6.937729950062063 -24.64306596229704 24.529210743781054
804 -37.09853282523424 35.50699367054289 -21.781388409383688
788 -1.6649798010676349 -7.725560035472724 -0.8301305661655413
266 -1.5669625371841942 -2.3813100802328826 -3.70316416577038
267 21.420946002977264 -29.79758443965417 -13.90123454392344
637 1.1184410612868725 2.1615981915905187 4.726725269963093
221 -0.6735031957838293 -4.693977760270997 4.412285838673714
772 -1.6914818337823556 -7.00796957059335 6.564584889904638
430 -13.97799897857415 -11.16478571942147 5.628497699090973
654 -0.5421036321682312 4.7687713669396725 1.6468659714909792
803 -3.027827852985523 9.959919418360169 11.081806843974741
805 25.37486687255301 5.806489800464691 4.796600369409081
671 6.827966851127857 8.505387166134597 1.1398804111071337
699 14.448384167400754 19.72146604889489 8.613615117061759
665 -2.755334622824543 -12.281777058231299 2.23230964067356
204 9.272745099350482 -1.7661246286316754 -2.044903405700201
28 -0.9925006501645172 2.0375553310607755 -8.103532248858857
536 1.7155714813455822 15.873470860973239 -0.7284573585162061
491 -7.413296416288086 0.874521097396402 3.867720713998889
471 1.0842217339721676 2.7377344148012597 -1.047976775164949
248 -5.732927459899549 -10.511000334013513 3.043246356962812
212 -1.1325970566144874 2.7348972773281184 7.483549729392822
348 30.444026618271 -0.5961244835798384 -10.394199809011642
482 2.7680135928228786 -15.244241790618199 2.3683955970861734
347 -0.09996674888177905 -6.504086509515014 1.893456619375255
349 -20.167013034858677 12.22387575797353 -3.7011054482646712
537 8.410627728485585 6.933186303124405 -16.88085203783901
249 22.79599595628178 15.223678701728158 -11.278366203186671
322 -4.2073167669584235 -8.464160760293067 -4.47107303775493
457 -5.561088678254729 -0.2038082918382037 5.479414615280831
461 0.25010975434271604 -0.8568315385665214 0.6410209190847234
494 -4.781189305605146 5.989040094305977 -11.529645742344295
498 -10.300057717891272 -5.582780273132713 -0.21358468826631088
508 5.350428984677493 0.34414737285511304 0.09281847081302935
469 2.55631753962696 -1.1580875067682745 0.35758469991844
298 0.22502601420515794 2.4264829907749084 1.1309350832430578
618 -51.34822269567686 -6.967430100633233 12.32643268772765
518 -2.203285126374871 4.413741896198087 -2.989282074430346
519 -10.266941656330529 23.045881569345298 11.614559689683613
520 1.2582122584902315 -8.209098077920409 19.00611037214847
568 -1.1181686070189534 1.5717656412368626 -9.262568512296697
619 -18.28896144333135 30.635383668525687 12.159961561695903
768 -4.306541830102061 -4.435780910691919 3.1625407468394804
609 -27.351609948584397 16.638739213758722 5.12100405787415
610 -24.94813959890677 -2.3371858438914526 -32.808919482736975
744 -11.525574013035925 -6.228590093628326 3.4711792975176095
764 -10.72999745685664 -3.520429648350454 12.370708886926801
727 2.629462362008053 1.4557095315909767 -4.103352191575817
778 0.5858494723712806 -5.983686658215313 2.2524771692357444
779 -13.359736706800525 6.192473209948423 14.87692628454614
731 -0.09182486686334533 4.839207167306638 -1.4355863770724457
69 -43.30434422892035 9.293576020442812 -13.7390453306562
228 1.6888695743064985 -1.9135451208623477 -1.722854016094933
77 -1.2935227537762435 5.420172407619103 9.229871555748064
79 24.924727953268135 -2.561691639624247 1.588877454151823
191 -1.2191324479835888 -4.352337814509587 -0.1702595358321159
182 -4.034115000442695 -5.11398364061331 4.6289888987992445
194 -0.7889913942811069 -2.56751495956314 1.427054973815795
198 3.8077177106029345 -2.934208942964411 0.2834321240293875
734 0.5837714106670685 -4.568974709948747 -0.7391124260444513
771 4.99639053440778 4.384430724186225 -2.9976508678027374
280 0.22270555194026362 -2.402802351495034 4.064138511657902
1000 9.694972994312144 -1.0305274551909254 9.266475005279446
607 -0.3309476941214858 -21.66169879460037 4.292663791776593
605 -1.8509408753615966 -6.214255078451797 -3.2203357560659924
321 6.1146345600457295 -2.827124427652298 3.2426566200441314
293 5.807869888569128 2.4154814308040056 0.37926802852441005
543 5.534936906776928 -6.827197456972677 1.2297913351816874
313 0.646912277077732 -4.3521896583309685 -3.7661951085059133
653 3.244804732571373 4.6572383202863135 8.367633908509614
452 2.370832864779658 3.3167018048112786 2.0245207466223265
572 -8.636391922505744 6.719430738471148 3.838144316296709
109 3.0769534263380587 2.56992685255497 2.3860998138740745
555 -1.316465929970675 -3.5903950310133945 2.2045140636256964
18 0.2546822087770933 -2.699373744648762 0.2783353251589681
567 6.564932642082906 -5.066376566366105 -5.534816348086852
587 -0.1817766822600314 7.12922451310759 -0.018718395897995052
591 -6.907359748552591 1.2698196350983375 -0.951036896466974
67 -13.375454562935893 2.3539528904579594 -28.18935418459365
57 -16.276706769199972 -11.625708007932355 0.1005202343990702
141 -1.6447830182714263 0.9536157434518029 -0.8672809508427709
752 1.3343843833411628 1.4552345709957952 -4.52689163029264
35 1.3042033625346752 0.585449791548788 -6.379367399006511
66 -12.557267238531361 6.804694856410276 -14.613673437753757
15 -3.1018390655887886 -5.73271017186475 2.293485610743581
1487 26.102885212687934 9.312303966705782 -6.84976525281226
96 2.8114422789857088 -0.19732303300676157 2.6440467329690946
318 -4.560217687707693 -6.195078283740084 2.6758269437475093
27 8.180093555033421 2.4978527581949588 2.432549162508184
215 4.987701323679876 -4.735537001528521 1.241454633875658
649 3.6669272315564614 2.9773118034358608 2.0803688481427303
645 -4.042370128878839 3.9794420900400707 0.08442222945519173
137 -7.045044677035061 -1.2812773688921901 -3.849098809260968
558 -3.5605224367675135 -6.0471224034501265 -3.645997583725953
640 -0.12563223125547995 2.5419920991603844 -3.9309982295971273
1396 13.276481481276164 -8.061411311985948 -11.950304104060864
677 -6.805509264777666 -5.518660393387856 -4.146795407042235
1398 -0.02329337025248985 -3.5928727396311158 -0.886975582658731
636 -0.908831641424889 -0.9454226180366642 0.7256428575543118
673 7.37339651422052 -4.26189698709474 -0.38107760231278953
719 27.44767188712353 -29.786854516011225 -0.042277459484837424
146 -4.377261956678025 4.763984380861608 -2.6363960536962816
668 -1.4255084715209048 6.069465749239049 -1.4154318060902196
1564 0.7679116571933798 -9.765380607979262 -1.0544830109447134
48 -6.04928713207692 -3.843306348867805 -2.56917475894712
657 -1.0892772667115374 -7.318126750589128 -2.3149456838021383
122 -6.570475542415507 3.515987014552344 3.9469992652572885
1342 -15.846789795917962 -19.8314200754446 -3.094275571899201
108 2.2298889712843386 -0.7477979142041769 0.7595681334782088
554 -3.000248007758109 0.5704598965392443 -3.6202088343569883
100 -1.218067504530237 -3.709869031785882 4.890764178206319
105 1.2280792082397411 3.3013189231877376 -0.8360158342053867
117 9.141235450113335 4.536129318313711 1.949766891571303
92 -0.3834208033411371 -5.2058132731659805 -2.061428172377338
104 -1.9777215347793315 3.3548632226058697 -3.493104257602625
211 -1.073246389040086 -5.591220330053367 0.12092173557528706
1344 -1.986330935655498 -1.130962976617221 -11.239472798939707
1343 20.380849951142963 2.445857547263795 5.830401278713293
142 -0.594398893212476 4.07318214240769 -5.011539884006931
11 0.8796351742978658 -2.1781480288467603 -5.117363182414841
113 -0.9045982419984011 1.4064114267795025 1.4541518816049976
2 3.531287786688648 -3.637266388429383 -3.7808620045613694
121 2.1229100668345127 -4.507814638014569 5.694536003071172
395 -2.958991184536203 -0.2984017834451221 -0.27677028286503996
362 1.0235911555151176 1.8135324389871907 -1.532913681833956
272 -2.647713211841687 -4.045544161373756 -1.5472585652385962
14 2.330175525161856 2.614440636074622 3.346225094770805
644 -0.5675379553236487 2.171756162094271 -3.5355137448545366
216 -6.108489046218294 1.918270604418254 5.105158823579241
195 -0.4018138953219519 4.6015975369151265 1.7670044966219303
751 2.771616632503183 -0.8283437678718515 -6.178676452567796
874 -17.39104009325448 6.365724222123888 -20.547556397644183
231 1.1639855199263303 -11.110920839448541 -14.070949729497325
269 9.277930301402613 -0.9507442464249874 -19.679883506400298
207 -1.0962997796017637 3.427898395839427 -13.397370954376331
101 2.8485393689795133 2.352256570725976 1.8436194093352098
453 4.055108311680755 -5.946534073001234 -0.8993362638635773
486 -1.9202755843763857 0.041518148812739485 1.4298123001191252
528 4.2251991135482205 -7.105447770140433 -17.475813266490615
125 -0.2998991585210853 2.8918905150577787 -1.4718582996368985
232 3.6223877198682564 0.6237170795680096 -3.0044652424382514
199 1.275286284142759 -1.267117628450417 -3.778748251718819
223 -7.015443090971309 0.6972053779449615 8.840504877048962
465 -1.6733821868454344 -1.448438139680681 2.035940070480286
203 -1.4939741647881364 -1.8861753131325176 -0.11929680624818248
497 4.538684586504216 3.630395248425159 9.750586325078759
1657 -4.344209676249613 0.5407372510659103 10.821379112991902
392 -1.8182845134304197 1.8695500149049848 -5.762481835189378
387 -1.7885711171373058 0.8224520568001153 3.252393101392486
460 6.413767710984348 -1.149575894587649 -2.034601025278642
493 6.679113028887557 -3.503747076646755 -0.958670822863992
477 0.9311179945510696 1.1930727272116923 2.9808397582106383
473 2.905534800364593 -6.048479890012837 1.22555751326408
488 6.730479635813083 -4.483840197464888 5.972518108673639
776 7.127970958767558 -2.006426032054392 4.06891149915477
1658 -14.580232473739025 4.183549919144552 -1.2644178325516964
1659 2.612739838302128 0.8065060681148692 -3.374667997666075
374 -2.6496922597854105 1.4521129614781982 0.29451020147011114
481 -5.376061297354871 -3.176271070029555 -1.3926288993409772
1102 -1.853369930927269 -9.256421363401449 -19.232990771349925
501 2.881806293398247 -0.1684893795905105 -1.1975627484248963
539 6.954128582585309 -12.151379021398478 4.458643342745467
1104 1.714572668632663 2.462443185998256 2.470942329700016
1553 15.753546845351693 -16.073397839012642 -25.762940659501407
756 -3.478219698321902 -5.4210272026711115 -5.594523537679847
1154 -9.974697303600104 28.847959239971363 -3.7911797145265296
687 5.354743463143014 4.445570867691952 -29.00578570939069
456 -2.4138470156237744 0.8337372206801948 7.332318966509896
777 8.972010875828238 0.41053684941642116 1.4682646765293594
758 6.061267328487259 -0.5430688740235495 3.5728257931455443
632 -2.309966934991796 1.981620548033693 4.0995092127993695
743 -1.5372137737976428 -1.4243720454141127 -4.960964262984
763 5.937663459417823 -7.085104672513572 6.307397961354403
726 -0.46929174166861387 1.6999813972894777 -1.7165051465519277
289 -0.9486418016668626 -1.1519256279504018 -4.7556178059514265
317 9.747543324298709 3.278718347696693 -2.8645407949941037
485 0.39056361148058244 1.2429273335700635 -1.505767310587839
509 -5.55359736063206 -0.2480011911814991 -6.021061934226866
464 1.7722855155890598 -2.622359808183423 -6.191049413247773
301 4.950011896125466 -10.79499187589721 3.799302452920492
596 3.9403319694733505 -3.258592510285325 -1.4184834348038504
1999 0.5335855988566177 9.815302812264749 15.98485511817872
1501 -14.50483474504676 23.30834245191642 -11.990173497921646
738 -1.4010965962251882 1.6826447197115544 -0.32991374851512517
592 -5.634249262034821 -6.160753975040313 -7.1640954525477705
559 10.247291684692842 0.1303509467381308 3.814238409292557
735 -1.2361139807215236 2.952067020721144 -4.648159534609663
767 1.3468413302775473 -4.880890050147096 -9.20621403456865
722 -5.422806010618574 9.707105873076044 0.3770436731455347
755 -2.7403034664435015 -4.349753636857131 -6.165197836588904
730 -0.7666055377605596 -2.86522764416684 -2.9934535696814115
739 -0.05871406306705449 -5.53879409783146 2.3889561065213685
19 6.592075702012965 4.6601432180608 0.8994188197181114
245 0.6384915754684111 -0.7971602400383405 -5.267114819765725
297 -0.07112974781956524 -4.397889394523621 1.7047178202981519
606 -9.29394751958211 -6.49589559350364 -20.548436843497996
326 9.924932847856498 3.695075992426237 4.652188822900014
308 0.3552630212619363 2.2370127504060546 -2.8239537300844098
327 -16.73820745868178 8.908182960734285 -22.691130808043777
1502 13.358819607216118 17.27362157083508 -19.885245014675828
2001 -4.60116834513753 0.11909311460693063 5.826346503361561
1174 27.70858333317158 -13.864568451232358 -17.46669363978516
550 2.361895756196926 1.3865692534385712 -2.5792833007677745
583 1.1323972826039175 1.2651326779072118 -0.12294745807723836
2000 8.25958935057506 -1.774945814597784 -20.30172460702234
56 -0.7525268873538471 6.981032050851964 6.145195998617092
65 8.301900839131516 -0.4270078883807948 6.009740657216871
829 -4.069570436558969 12.312256308696051 17.685863788625845
1777 3.1752093884898582 11.801465831389422 -8.12445440049784
1778 -1.655202090728517 -22.173802311833093 18.467314125621
1779 7.288333657731347 6.577424251300443 2.011820607695036
830 -38.83331488179765 10.874287101712808 1.230731466606765
546 -3.905010682791609 0.9910709051747031 2.1622274342868626
1486 9.219855995364178 0.5981866062544823 -1.7185335052618707
10 -3.984003166020028 -4.422673105818703 7.745164395773111
128 1.8164762014468865 -2.0579613617981765 -1.7320487385795675
47 1.6532512292870478 -4.174434079478987 -1.0185992771357728
51 -3.9509197478204796 -3.213091127121143 3.6833654500563284
1523 -15.78508164957027 -8.3558214266493 24.73257118183398
335 -1.4096487687424915 4.198637790452155 1.9951784189184998
336 -6.191945084119319 8.754738803376405 16.155851186883947
337 -8.768237052445471 -4.657319938779503 12.53563846719107
1488 -0.49441231258001905 -0.243432242483316 10.24275926132027
1524 3.5701786383506295 -5.904711225959289 -5.04037560988205
1598 -4.8465349167911524 3.8048849136074416 2.6919721892870423
986 11.388289253137176 -14.95556409431477 0.0537748931552402
305 0.22763897643224942 0.37121064602780685 2.05776060248654
449 -4.197335684897868 -35.50198047075641 7.511597427534894
1002 8.393545621211993 0.7058110667284019 -5.115945421266833
1001 -11.684067745530676 -27.53125256650419 2.5053174704280394
31 0.4011933336034377 -2.725217429868967 -7.1493615349499455
1464 0.5816949483367336 -2.863156338458961 9.647728131141722
859 8.69768049675241 9.78888298665957 -14.915142744473707
1493 -2.3900652720740396 14.865483202857845 1.9772260587206727
383 -2.8379818087366298 -4.421635881920349 0.7478118472147361
861 -7.254209406438878 -7.203320797388876 2.0535025541835705
860 -17.05320585183716 12.797002727123841 5.658064157603452
1816 3.6646225596618907 -10.159150398631672 -0.38363543269294736
1387 -17.381770704206826 6.937331798528466 -10.962205036144697
1480 -14.297747316088513 -32.85484443278039 -7.6023605688676055
1101 5.517060312652382 6.241769469202083 2.7474880508023296
1205 10.95068642330527 33.373831040924145 -1.4575827006318356
517 -1.5255067356636358 5.948251183214746 -6.138987660634108
953 14.116152308509466 23.55495566871459 1.4964590285821897
831 4.352302568502528 0.8974140391094001 2.267143011281416
147 -4.070218864430666 -8.916281516793855 -2.8085212192178552
990 0.12039253851941333 3.8347844528805752 1.612401107254657
1625 -2.826758520666381 19.334942112602363 18.99258166193228
1626 -2.776588446385325 -0.5547330154088789 -3.0210620017563152
1003 -1.0908360280862002 25.109228236273832 8.788423802553043
1594 3.707930298597754 8.56057808499791 14.253778328711434
1595 11.349637597495928 6.005922588576543 -14.095732663592852
1596 4.146872597777604 4.340181079407457 1.2780087516212761
681 9.017816003165562 6.386329833400534 2.1221080585292214
1093 -4.720699989498465 16.411715293567813 -5.422406886685642
133 -7.441866222071582 4.345451026933563 2.7858585751608116
1624 28.736661484054157 2.6595659796720206 14.118084135283125
988 -35.62443128943473 11.825953098106433 -29.30933536471953
1005 -0.5174406762858631 0.0781816727703335 -1.015992862011505
375 0.858568872202786 4.451621220177191 -0.35292405906025814
989 -19.321636781126838 -12.780310063698748 18.21284718762813
179 20.233814560372323 7.858334813944266 -6.777007244689659
416 2.7353801401653626 -0.9191202548099221 2.005782169449884
417 0.21031616678984763 21.88386105027659 7.281467456008778
425 -3.195959786713068 -1.9043353993374728 -1.1986349560394363
426 14.354213105083243 8.767811742973935 -6.956743906869933
985 11.907085249484737 12.042819125031693 -7.09045211076145
987 0.24630488861238878 -4.089576940619907 6.80552222668436
427 -12.277779307559294 32.78438399410994 11.836721901134764
1552 30.208487572551753 2.865225159290049 -24.81566178717076
1554 1.9032128779930317 2.1215219893913306 -6.309445544125797
991 27.0251619236592 -13.12480781925858 -4.212761800848553
992 -24.6946474600875 11.406978409210254 21.107842350919647
403 1.7149565958489768 6.578996339814501 2.6875597574522185
686 -2.682050810434589 -0.27185319069992336 -5.863294387716322
366 0.41401518462399167 1.9300624267988604 -0.5729654189515169
1522 -8.265807401140039 -12.066969975764025 -10.806896735706328
398 -3.815573357314285 -3.626374111014173 -1.399787276178875
1397 10.258933816072581 -15.125284989050355 12.130890366312697
1494 -2.306235461060888 5.618794311527971 -0.3315473707145806
1492 15.09638140455787 29.2378959997533 3.4222609680733163
227 3.5476040853437008 5.1369938601693566 -0.04607472618961258
236 -2.183986541383842 4.900242833213068 2.107147974783027
1566 0.8515303713484949 0.7313245072477765 -1.7790015264189563
898 -11.03721489645717 -20.57094135418635 -1.3168076421369281
1099 -3.0115328094209057 8.336938176198476 -8.274981854433856
1100 14.885487356876677 -19.69606927502708 -0.8209262208190825
875 22.045863559689394 -3.0660054010546434 8.571987017794898
876 8.57720411976975 5.18447091412725 3.8951114311367543
1216 2.683323601790393 0.9343788758516951 16.87282921501304
515 -9.165338313533853 1.575154153399535 1.4695563486257082
516 -1.9010003163431672 8.49718399011812 -8.612372221145355
1442 14.395002659111812 -9.200343619937916 7.510936077283498
190 6.3548765904233715 -7.367667500682668 -3.9123569112588443
900 1.3668284633544743 1.8238851408787913 -1.8127701375418899
954 3.014352762469557 0.2982127571166451 -5.994416771960483
237 -14.793341371490717 -1.8178546577329284 20.244333129650034
1565 -16.318926801107725 24.806428976554987 -8.807662280855125
899 10.958366999067662 3.193526193593044 3.220458246976871
506 -4.248722387103903 2.2077561434347257 1.0978671457846256
218 -4.786374595328272 9.47165443147514 11.10994303647046
186 -6.107421814843487 3.6019931139770343 0.1706657926212105
1195 -2.305202200807385 -9.333960362292467 24.78348181948921
1674 -3.715009081548958 -1.898333749224388 -3.6504521971432857
507 5.887385212743227 -13.69834090823434 -8.350574833891944
1673 -4.619928503351729 -17.462577367470644 11.24198506266221
697 -7.07950302236679 -5.874730690377358 -12.046217463259197
1481 -6.680472999786621 20.091758039641675 -3.7993625521202596
695 0.9497975983659077 -0.780528139785269 0.7256869361374965
696 -1.7162590561293958 -18.770203843000676 -2.110725835561597
809 6.259075753599935 6.605327891306188 -16.015851680685735
1155 5.630348966555674 5.999311778050303 -6.911766445353618
787 18.914432283018375 7.497616475568818 -0.4024149838795717
1153 23.7928734294508 17.49710701205464 -29.601013883318416
1482 -6.69691669128882 5.1999600164076245 6.192084902776025
247 17.63659789540643 -5.437986461666588 11.756280368509678
1374 1.3271367661584648 5.306799887330959 -5.556949823354683
1390 -11.524435503750945 -21.586962329567196 6.928271188096014
1392 -3.431673304342315 -3.9289817595454153 -0.7159193617164011
38 -2.801371444772765 -1.8730786966659387 4.878946121838367
1867 -0.7136466229393819 21.06142425065636 12.47250799297134
276 -4.687550953970503 0.952600142410421 -0.29004968275107684
597 -0.07591361381579635 16.403330011176383 0.9287502831273906
901 19.496146070983364 -19.28496056842846 -4.923983185823506
1642 -1.5948377855935747 -0.6819427536618512 -4.6202449000222705
1391 -1.9879378808907706 -25.969618769564597 -13.351758807824634
1643 13.963652612263846 18.801194755331903 21.870759520802135
1644 4.6816424893371416 -2.6306787444668354 3.962967451615792
1856 -6.349608826613672 -31.469069158718405 -19.88108069413027
1028 2.5602611658150343 6.631533159893956 3.0700431679146276
1503 0.3199525997251392 -6.535513819358987 -10.988792373577356
785 2.964581241186968 9.803131967720647 5.431844014480418
629 -17.18374997994533 -7.548121062410645 -0.7058955182689464
890 -3.8319720187268937 8.419181872638482 -17.782011252337902
889 -4.336122479008518 -10.269321522649586 -7.7907157841938135
786 14.137385759685998 7.375833427806244 18.161518864787578
578 -0.5639803844942702 -4.102738814401717 -6.213578724424439
1103 8.385808727339043 -4.485194863228897 4.705397142268921
1436 -6.855860169227115 -12.736427147292641 -0.501317557461561
563 -5.86176409784274 -2.6244509130691425 3.396045261665093
1435 -42.486895452873384 1.3917627458341402 13.447103486718557
1437 -2.147576353425717 -8.595533888287383 1.1149585483660396
747 8.85897044681047 4.242695535275703 -1.143276370645004
1373 8.979068422415784 -1.2651864900876773 -40.13117664222651
43 3.1658904553722236 1.9249376235740903 -1.3897292470271778
23 0.5523745656920747 -1.3702437168038109 -3.1418722231147838
1372 8.371331056125118 18.968118848561915 -31.04464280021465
6 2.436136868754651 -0.621855868358985 -0.4309865489554878
246 25.855508301331287 11.189910445686145 1.4282481414635158
943 -0.5780646935096024 -3.4995410964890827 -9.230530986798433
1855 12.836007042716423 -26.451915971871564 -8.377291222266502
1857 3.6516437351866364 -1.419434460656489 -3.4375793130815557
1081 12.376367668782748 15.59850211745676 -11.005555434302368
1869 -0.03291214871039623 -5.7100323893505855 0.5345707253161811
1082 2.8381934676876246 2.58043056826337 0.6107674100287325
1053 6.235459300406603 3.120635313572654 -0.13369591943616987
359 13.945778139037978 1.2207372178133362 10.321182942472877
1818 -1.0646169079405856 -7.218012223265557 -2.0152944487379596
1817 3.6710343630766644 -1.310044857703237 5.114368998290576
1462 -1.0902439489899372 9.314760513458596 16.345334712047716
1027 4.230992389927887 2.6593151868695615 5.412028166509078
974 9.99870834730029 -4.390149078333505 -9.959376284725248
903 -0.022412491611442632 2.445543359921147 -4.967305794520943
1029 -2.8195575468155787 -4.836348001236844 2.0479833205554763
1463 12.070629254632767 8.50684281102232 -11.426136210913999
975 1.093996530076733 -3.6713040230241685 -2.1308316977609465
1933 -5.945163916538856 -6.757008916952565 -17.722927819170778
1935 -3.2770126009435057 4.317236554206195 -1.4447368539365941
1369 -18.129892153198465 -0.22489806923210542 0.28470005798032316
973 -2.925876160781392 -26.361317859621455 19.502018240966432
1164 7.542849224366174 -1.8990947502501931 -2.4801391275470195
1264 -8.639661703724686 -19.22202987410448 18.968719671834357
1265 -25.57932634488842 -19.969018852415928 -13.889841937272491
1546 -8.480960272530382 6.171838067188726 6.568474398546482
1547 22.168820192440663 -11.554907527839163 2.054590707700747
1548 1.9328475911168985 2.1491775983642945 -2.5659772625392923
1669 -7.961920673280372 -18.903210634394885 -2.827579489365944
1162 1.0712494536457995 -6.199535724542915 -7.169068801104402
1959 0.5721962182111169 8.234763219389134 -0.9022775270278592
1599 -5.163827371000104 0.38861853945003927 3.123931199186587
982 -2.173875715717709 -11.14443742657735 24.65213462818979
984 -3.6551446386836983 3.003727176097801 -0.5779983580457574
1831 7.303790641306209 -28.34120695647043 -12.89915052261246
1833 -0.8449338579161755 -3.513893540318726 1.8925976979499648
1957 -6.814095341393062 -12.388781339959161 3.395852929966581
1958 -4.439294119809535 -9.109138590602758 33.645312873641295
1049 -1.7465498292584491 4.216013527921383 -2.4763483897633733
1050 -3.758330692554411 -2.066077851233957 4.685017295148188
1885 -15.097411535503165 22.67465318400502 18.84309260640442
1886 -27.733906818239955 21.38539898256102 -2.2793492221566067
1094 -1.2343398146601792 11.779731177806005 -12.024803308229831
1095 0.47053395731610076 -5.656023393632163 0.30638236762225013
1366 -1.1105164086546673 -15.071593452110239 20.441807904422916
1597 -16.765820155852328 4.991498202819031 -2.8708728817004956
1832 -8.825571083433424 -22.004096371372107 2.4172579220973898
885 2.6434468756659326 -1.8923275212705686 4.75046922922614
1048 -10.304527495305337 0.7167426863063953 0.4233114133607224
1784 -7.713650225882002 3.732484885990556 -26.48116231451035
1767 -0.10648206021317856 4.432635261091643 -1.0194265020546185
1499 2.772142278780177 -3.391212894157316 -1.090102221794182
1498 2.43749554193244 15.806787573610526 -6.467055466855724
1934 9.90665989275546 -7.160780772905165 -5.500071383029572
1389 -1.5873556355505523 0.12227002338226163 2.0166524809043174
1500 1.1644484388185723 3.8676591865392385 -1.772747413542928
1206 3.16163728623052 -0.32335297617858005 -2.3768879118710284
155 2.644035553012805 3.626660042789922 -6.429289896902877
156 11.973534664766948 7.384515507948421 -11.89136459577159
157 -5.836221081485716 1.5575275554499663 11.642548592539807
1388 13.292850602953074 13.907608355520093 13.106079449709563
1891 -3.959870169562067 -17.455717510276326 3.3092126002121014
1204 -26.381556811324508 19.289451459741535 -8.657663433264938
1217 -9.132669393919821 -3.853115092039827 -12.532606658742049
1441 10.288505464912024 10.432213637105212 2.964290630565626
1892 28.117588358234737 2.956817004406986 12.187489358400574
1732 -24.771731996673484 5.791718492872945 -18.857653088385042
1893 1.3725833278896693 -3.6209142684607616 8.976583103694308
1218 -0.16275488538107188 0.75314956265383 0.47449502247685077
1443 -2.5634771522415596 -4.099675088364298 -3.200099060525789
952 8.62525607440275 26.978498204585023 -27.876680978627615
1298 3.888429063803169 -11.440702856740185 9.74607861527394
1117 -27.477170006911386 13.869879020882466 6.3714635992977655
1299 0.3141638072475573 0.32470879068087155 3.455660384958904
1414 13.780566393009263 4.8905044436476635 -21.626057224216854
1416 -7.041762272072252 0.0712506879603899 -0.7343618666395114
1525 -4.043903615497693 -31.86666247713712 -5.616023214229038
1004 -6.775932454361775 -22.031230278800596 -18.744574989049823
1118 -9.748303956033574 2.8797774279621744 13.747906640583889
1527 -0.9534091690008667 -1.4544133512067836 4.74766042379296
1119 -10.105137277222488 -0.05129836603078709 3.7388792885069217
1297 -19.00988097871251 9.943765619407383 -2.4668203564448032
1383 5.004484112422438 3.027059637828163 0.5694286789087647
1415 11.710994908220561 -9.990053241542084 -13.0534347369873
1526 3.9773234744165618 -11.719083757558307 -22.099496583985953
1734 -4.58568752878707 1.837806229202489 -1.4987717761291266
1381 2.2616511635693874 8.626189571941985 -1.3254401743327686
1887 2.6040076594743633 -4.925750242665935 -6.119726719046208
841 11.857095186762898 -11.963830401668412 -5.719758697541426
843 -5.081398056951643 -4.1560437713960505 -1.3773815426946117
993 -3.8057113403267673 -3.391691904843741 4.034839328155574
1219 8.749039254842659 -3.9362344278677988 -31.405347912558305
1221 -8.795791423093991 0.0677729934454684 -3.315784603976798
1098 0.7659047090147165 0.8809325427096241 -5.58373490730068
1220 -10.169418197306188 -21.521012564985615 0.5438794961229054
1196 9.145854337744371 5.725883455408209 8.110225305072492
1404 4.998447901400801 4.238222858483936 -1.6004728539586852
929 7.877401929023214 -14.340607489947693 17.047340094873046
1412 -6.675751427754331 -14.886290385820681 20.56366586073506
1962 -0.18133355973309445 -2.089746818743226 6.41432993924375
1403 -4.818012237180607 19.58021520285056 -0.2962829288051367
1402 14.026154383671333 7.330182426944868 15.186106610156656
1905 -2.0137336466297167 6.1988472607147465 6.497308697207705
1413 0.6557521479892849 3.7796802212159135 -2.9449370182426833
1411 21.889640469861178 11.23316902761622 -4.122718807863653
1468 -9.615069698830718 14.416865799074035 -7.245695238838883
1470 -2.8607194338007944 1.0507636728672654 -0.9077382665939157
1242 -8.45796433761201 -1.6130956792763573 -5.012597173429627
1469 -23.60256027384861 -14.47600299762239 12.524308505613723
1308 -3.8567785316790553 -1.709116089433528 -4.245531994611278
1509 5.536154857729271 5.697508734982173 -5.4322533862645646
892 -3.6106489353444444 -19.90280186174221 -9.2345613914035
894 1.1332148725266182 2.677092375120879 -5.298779911782265
1306 -17.218770523392802 -10.316950800816088 -11.627432008887913
1380 -2.771124010267049 -1.9603145774682902 -3.7241818433741947
1837 -6.839707048242359 -10.927171291593138 2.5171228231954275
1197 3.3660785125258927 -10.208763936246726 5.163544686781779
1240 -5.40560291086311 6.300650173722795 -1.2650902412365796
1241 -0.4287721353503897 4.535844824839411 -12.560901789636596
1839 -3.8645332747831898 -6.300209666894122 5.040759426840113
1311 0.9405549713380922 4.245423064242793 1.2100583219093368
1838 -0.5057290588235166 -0.9020494887756956 7.816212544699965
1378 3.6788211089228033 -7.6579414267085975 7.694216005010101
1651 17.040656362042004 -9.13699581731428 19.842250785222884
1652 -0.6277139364542792 -4.906919925116736 3.3495132186119965
1310 0.9366754262135965 -0.3910734248065012 -12.969149455123533
1096 -18.638313349338922 -6.9177633951763005 9.880112110473068
1382 -10.785318391510048 -7.192463300510248 12.790320010436067
1630 18.54519930518725 21.74857933419051 18.46574636767817
1631 17.749738619806422 -1.9043893525755835 -1.2656377296647703
1632 -3.5610721548398665 1.6541112129553 -0.8868506799892001
1309 -14.822733610286747 -7.524536193003131 -2.3488374847709435
1672 1.1784806851257714 6.774282165304307 11.072944603903716
1653 -4.395222774472826 0.15776618423483083 1.2009020253833704
1665 -1.842994020733042 0.42314389380315454 5.570189356128991
1664 -3.4248958081951217 -12.058355091828538 -1.71727084656988
1909 7.417460690832804 2.0323260394428666 -14.286574353120278
1097 5.847284339976314 -7.5179553768783505 -9.003742395049446
944 15.417911409606617 15.452909962398879 -5.575111655174807
891 -3.5004793469902067 4.400210632808089 -5.9016166304322715
1645 -10.500082097574813 4.05896411579156 -10.081420757683643
1647 2.791245053927797 -5.625696449078321 -1.3347373050828224
1646 -2.181286192698226 3.185023451444613 23.08113292068535
1714 -11.98181422195744 -5.253470026001767 11.345036576768221
1798 -1.1989436452093982 0.5458799039136101 -10.434524231335821
1799 -23.0658560159443 -10.968234970280918 7.677722899950254
1800 8.848121815471753 0.48277529091912086 -5.536921545372515
1930 0.9386680438282539 1.8693646399462223 -4.678705117597502
1931 2.394586842538227 -19.89617942053666 15.113171781325342
1946 10.92648545834649 0.6920528126667586 -19.465080586219575
1106 23.059119686805165 26.117143695438966 8.506492571557848
1226 0.8570544988754928 -2.647912588904938 -17.433985330818835
1947 0.21354370749221152 0.27906082796380294 2.788575338769753
1261 -5.39853315977968 11.750598584330298 -11.27215990666098
1715 -16.81692753098327 -2.1929463352495078 -4.733408339954847
1945 0.5679289679860259 20.42519292072134 4.924792523454527
1225 11.784181718111153 1.0896882610677925 3.2196625257218026
1960 2.8637247878190433 10.524752568337549 -18.08489324806732
1716 -3.2727708180990205 -1.9864878246731914 2.3948195212143015
1107 -0.1625112721707398 -3.37043368758786 0.1017619264939394
1105 -19.305157293680338 -5.4011846289187675 5.040903202128116
945 -1.9349675428199158 -5.780292050388319 -6.333422148428523
1307 -16.180552174916908 4.570859032156188 -8.429890689598482
89 -11.437436742906506 10.25133605947055 -2.2826535340518452
1056 2.4668208358940356 -0.04150795471485647 -4.667282556509197
1507 -8.28888136340401 1.253790760280047 2.616707367275978
1054 17.288606229542303 23.064573329798762 16.025104982543745
1619 -19.72864382838646 -2.750157002634333 -28.115814514635005
1508 0.22240758256571289 -14.159801825363687 28.557740571926747
1620 0.47909817691928563 -4.6755619759727765 0.5633340077480053
1868 19.479357535954815 31.646469915424507 10.906508864748929
902 1.4273864743826388 6.446664270515295 9.66014655893427
1175 5.8836560862815945 12.455104231626892 8.21689174984906
1253 -19.828098678675477 -5.128124460598117 7.600551387344882
1618 24.484125686195764 -17.148507263268975 30.08798602959179
1176 12.981210679515264 0.867568241446457 3.127545094558885
1254 5.2578760887603995 -1.8158058121552303 5.6905628846885445
893 26.756285075566517 0.31016220612997586 2.6123830596731206
1055 -20.00860128627086 1.2643244336245043 -2.9300248159127436
1252 3.5442427365939215 -9.64569167440424 1.8606074608083847
1888 -11.401673296066196 -16.329911201364464 35.79522819345565
1890 2.601726045295288 -2.7738105802872353 -4.483546494337322
1889 4.988970313096013 -6.880639996913467 -0.5401342399868788
1266 -5.3483148938869505 3.710805880311767 -6.652139416161241
1932 3.0526028838692323 -2.252258202939868 -3.1706140654053505
1262 -16.375066932376438 -26.67842206636768 -26.61758312903125
959 -1.062907513338919 -9.01980097708153 4.769111284850879
883 -14.50118437111509 22.82348511178656 14.203480072590752
1656 3.6663862421763485 -0.46302195271588587 1.8286699207538084
1671 -0.7464824240297266 2.397118994431925 1.6530284341629462
1670 -6.5445959819843535 23.36543928700964 -5.15830600566497
1370 -13.913089458494586 19.80469776967102 -2.366324457610121
1744 -7.527522938161814 -8.997457693394296 5.554934936317861
1745 12.543662271002987 6.3597027655185325 -19.712366189612627
1746 -0.05172610660198547 -4.0234369256557185 -3.800885868720487
1654 -11.720712384923587 -3.445500040461394 9.628676822160962
1655 -5.890097883821276 0.8247553995041645 6.255668271737503
1263 -2.9727804969781517 0.7008844405995177 -5.05461452604697
960 -1.6240787625953368 1.5131403541428012 -4.370066863299242
1083 0.14771261085154214 0.06084950902290145 1.0234119789702685
1371 -1.1066201160418678 2.269316914145415 -0.8175431506273343
958 -1.7062361221405957 3.651054174110958 -5.883449958031953
979 -18.005966964360137 24.15802135129561 -7.061738734638824
1046 7.777381838540937 1.6303807866258722 -1.0409054196446172
1047 2.702067912743484 3.5094804583863906 -2.885547167201473
1228 4.321714756550742 -1.2729369005700055 -14.094740633039148
1230 0.31008737585032065 -2.2193181613480353 -2.92180666485045
1790 -9.616544815878967 5.5794262286954 1.8291707912468187
1862 22.38560787059629 -10.311212226448033 14.484529084877588
1229 -1.464955607629158 16.03520028763623 -3.293402176825411
1810 -7.26196724911865 4.269288691301278 -3.5619654452668508
1835 -7.280206209370961 4.118944373194084 19.035926253530576
1789 2.8882039869893865 8.228894945918745 -23.332129799490797
1052 -1.0026698868702908 -13.127357059482975 -5.499393233233785
1766 1.8925264496261243 -7.644490524927903 4.131235395268315
1448 -1.8946289834526333 -6.237498482986924 -6.863253558614589
937 -3.8003974813008026 -1.857052627287879 5.092096648801457
939 -3.894884365577026 1.622567998342317 -1.8180385705978195
1861 15.431391888016407 12.052893394045162 -16.82590533355633
1863 -7.739683099934748 -2.9757026755088543 -2.6047704610074645
938 5.709042260857727 9.622643756187848 8.572478844361871
1447 -2.793061117748465 -2.513073133463642 12.920606648284377
1163 -1.8943132651929473 -15.319641449655302 -14.925181931678486
1449 0.6041021962819245 6.04986511331962 3.7096040413913336
1514 -12.775057564958098 -0.21946906567508484 -7.433730674975291
1367 -5.5076937191402 -9.29145057571564 -11.467677514426603
1368 6.180508342361898 -0.3335801954241209 -3.361917084724073
1513 1.4140348911565763 6.315099091661274 2.6238675847101596
1515 1.8799089557296158 -1.3900643196242457 -0.3972375859592414
1660 -13.006671555883146 -3.9616576297114623 -6.151630148434748
1662 -1.4496112220455302 -0.4474920931665569 -0.6243115038523682
1724 3.9735960436770053 -1.065230289392127 -8.596487052715329
1725 2.947298530944003 -0.7878316616789378 -0.26522770236648324
1754 0.08563493549390346 -3.574206894172956 0.9061930157209149
1753 -17.92690364971811 1.7067802802612555 4.742851066490673
1577 12.175742388885862 -12.659989072736133 3.4540954208441397
983 8.781638551242139 9.394659863430078 5.787481536711292
1578 -1.6165653063303502 -2.1656652604108793 0.889953739347349
1576 -7.875957985261109 -8.017454801959275 8.806815589106552
1743 2.3721942387072703 1.4606600179861198 2.8269777682673363
1836 -3.5397450806223767 -4.576020469301456 3.0318396152498086
971 -3.0334706110753302 -10.405210507637133 -2.398606820357395
1926 4.215039760944958 1.1200783001362755 -4.363314212375907
842 19.656734776654417 4.43504957553512 -15.365258412386279
1677 -2.8327912137862143 -0.040557822792242376 0.8933473682188676
1059 -3.4897389863458406 2.071026718909725 5.024573030041742
1340 -16.819237391143957 3.2966300413234055 24.666496207318804
1011 1.137009652373062 0.0283242261870941 -4.373281807950883
1010 -7.662782491642362 -6.357562270950964 6.8818279024538604
1051 -19.53151044922144 -13.312440214401988 -11.307603582047516
1045 7.20451945689054 11.241496005182626 3.4972222231214705
1637 -4.189507712657582 11.788948132348313 -11.066604270072524
1510 -6.729360021105253 3.4439247566869406 -9.916478701536496
1765 4.893083680215302 21.42954960176473 -2.7449121021046343
1791 6.720361179542133 7.241063964123913 1.5326173294114314
1035 -0.6042337861301762 3.1106436609432038 4.053298022154016
1688 17.43487664090794 25.09564109363134 1.2129274450633545
1689 -2.233301285875073 4.208066033193864 3.8397738752429817
1785 -2.04243888123052 2.0375700200594564 -1.2335826289063447
1600 -3.7011234374045157 0.848916038212312 -16.88555630589331
1601 2.573046897914984 -19.693807188604403 13.872285200613792
1693 -22.48476886801818 -7.0945950746286375 0.42733878674673315
1648 30.13062230951398 -8.444929842305356 2.32177394944269
1783 -26.838673194323313 8.851823862615483 -7.460985159154646
1695 -0.5010651337363082 -0.36094734532418193 3.224640369281526
1429 -6.963206978491504 3.227880158878802 1.751781287768998
1687 1.2389093345581215 9.007464737393885 -2.771910413803099
1733 -9.69347741861347 8.65915129194736 10.661134922490596
1755 -0.22457697466199994 -1.8605205969141076 2.138805216803324
1431 -0.5270127113563539 2.6770184616549106 3.8313969036361955
1210 -14.634294838164914 -22.02670035385441 1.6330989062090442
1430 -20.21085355687787 -5.929869359274672 8.155100463586473
1694 5.973177409499823 8.64475412387205 -10.73040707776595
1007 -4.007155553582444 -0.5334248836455632 -10.329704336106182
1612 0.5437384420431844 -1.2967274944236078 7.47756039092455
1621 -6.1330215140676465 -9.222313603994193 3.3772502923213787
1212 -5.810691008116088 -4.5432432753633085 -3.8015537906766013
1997 -20.40976136840085 -7.53629849410265 -6.53916252844874
1251 4.6476626549291815 -2.7719756655579926 2.6993927549966714
857 -6.763204715849718 1.376950507653395 2.175184163796877
1723 -10.65012889566327 -1.8791310841727764 -5.210468851994615
1521 5.301811163067634 0.44477392378101543 4.165618820524336
970 -0.3680474415658748 6.349424241571932 30.42200357016831
1519 -22.237237531643668 -5.687895705140272 6.074814682515986
1520 -4.10726727998579 9.940703788437917 -5.407164831376296
1998 -3.1950133380472674 -0.35622536014305906 -1.1123018927912502
1996 -17.91881016766998 -5.550214512310151 11.111082978881576
1017 0.32114861212876594 4.630549809597009 -4.596377310886158
1903 5.172694283656708 14.241319375767466 11.876441108186699
1015 4.197304771824597 -20.66123616605421 -11.591901762255244
1924 -3.8348534079005807 -12.999748831353731 4.442044222434364
1638 -3.443677607682633 -0.19253398631250962 3.7576346704932595
1636 -10.545938584711132 3.3777709544791823 3.8647182791668198
1904 25.28477232320689 -11.36088338704884 1.6773265874808336
1925 4.384973449027488 -12.846481266802341 -11.505282654151323
1069 12.64739961704198 18.934595018433626 -34.38274591230429
963 2.4949641933009987 1.857640515373825 -0.05381213946759961
928 2.3714816488785004 14.466580662308296 20.544474878332842
930 -0.019719661704819168 -6.156947509249757 -0.48264549755995667
1018 3.2301680481247224 2.3803986344738766 17.522810558556532
1020 -1.2038121167671039 3.532866964265133 4.317538710798762
1019 -7.9706778865556025 -15.49432176264734 7.61781161016231
1952 -4.09565022803448 17.200971095115474 12.798624481431977
1953 1.367880805389541 -1.4064885285233641 2.661110828413838
1458 -0.5006974714715077 6.389050605274543 7.527773241700294
1457 -7.44814873396825 -11.817143045356712 10.225792010571624
1319 1.671952116037659 4.909237338599196 -7.321785247625513
1159 -5.639077907318693 10.685777929936515 -6.287127968587964
1161 -1.652738243524756 -7.076246305397522 6.031765002811807
1870 11.213828854631432 -10.456812601199402 -29.30841295820262
1951 12.552254491340486 -7.05139550052662 29.988856943938643
1318 -7.551855366497225 5.154515847811704 -8.04220821575937
1614 -5.474540435853193 1.7355266536350384 -8.801617484591752
1613 12.152935240152152 -7.502885225745785 -7.801273021959972
1006 25.186026140126668 -16.63635330057258 4.996529708016647
1008 4.051040169015488 1.799508460937871 -4.151696863500533
1345 4.579775894313973 -6.901296621392261 -12.839341582134226
1346 6.863616971343133 17.95303942790643 13.055676896492644
1347 -7.083533727257318 0.42935401613972846 -14.489919414686524
1823 -10.43573639397694 -38.91434791841447 -3.389891936070702
1822 -6.906351851848091 -6.988744723585404 18.828533693129728
1270 -7.193757242749967 12.739442742494903 2.868770193415785
1824 -0.5206445981028734 1.2561083211807944 5.460673287346925
1990 4.472042105705893 -9.649391232049117 -16.361363207349985
1379 -22.63735167971105 -12.790569853070261 29.912122419726266
1250 -1.7162654250295508 -22.41874690521839 27.578668442676616
1821 0.21722792546165137 3.458440386872677 2.832880199392574
1663 -5.445240211224498 -2.7876436742329664 8.087720844561156
1126 6.756578946978758 2.881047378661123 -6.479806472842666
1684 -7.143575584682222 -9.812273402723406 7.310168434588094
1685 14.933594610309804 23.234282470759187 22.417300053338423
1819 1.4860953078366972 -28.549791953564394 6.783458075888443
1128 -1.548152026288206 -0.45607206845370246 5.36896868239628
1910 2.8871081676339654 3.918675703204668 4.4648994009021825
1686 -1.9437847297532431 -0.4668396651857979 5.206755671843503
1992 -1.8497608936764756 2.342828805895192 1.7141329590458596
1127 4.680980001088731 22.114107133514658 -3.850808380929953
1227 -1.5133473968582953 0.29486178422683834 4.169180005612487
934 -12.712137935603158 -5.898234795586506 18.245463779194246
935 -11.563193511533703 12.031835268047848 3.0163174781617603
936 7.005931775203971 -3.182838516103324 3.7424316118090273
1961 -3.7164528825107292 -2.754392494155086 11.954209061163567
1138 -9.275438592729751 4.253118246639641 -11.638978850515546
1184 -3.946354844148741 30.69487716249833 18.006175058421743
1722 -3.6471850195466926 -4.456719718559245 -4.574103603859641
1993 -6.832362113306341 13.297646522948101 10.939226657315908
1720 -15.821385561701577 29.33111359552463 -3.991571389497689
1512 -0.5752014407290759 -0.2963676242577758 -2.92571046522318
1865 1.7062724930601576 -5.761931541303469 -5.097950548543004
1872 -0.8946403986527411 6.938210956027136 -3.5240694160382335
1911 -5.876377861470749 -0.06580884320180219 0.959230784141809
840 -1.9416626753537771 2.0789816058735036 1.3075303218171588
1875 1.3466314155339223 2.768150282091575 1.8212757544910296
1991 10.52595192862827 9.830344685592419 6.435655278026344
838 -13.094274440033697 -0.6203028492006303 -17.540883491791135
839 15.993406747748349 -8.745465994224952 -18.833112337550602
1030 5.1364283670416 -4.490359359542802 15.543704188176024
1031 -12.734359533040154 -11.842423235118693 7.561435043823775
1032 -3.2195087024413214 -2.8731297579463635 -6.929800040122369
1558 -20.051965010558675 0.21948679660180825 -8.352638524688572
1559 -14.120843525389406 -14.319336241484292 13.366408712711381
1560 4.554408740596231 1.627409883132885 -3.9629704354226667
1820 0.5453919147864216 0.1166044568091026 -30.307483158067434
1661 -32.3313727596266 -4.29278572101922 -0.854272261741259
1009 -14.844815679678469 2.4381007643263928 -1.5686536775871556
884 8.494542647490722 -5.369834752007346 -5.40878420796105
1058 -3.77269344108953 6.609184939128937 18.46627759391451
948 -6.302963546986986 1.8648706718872785 2.753148338421182
1341 -1.3999842841240906 3.721041542682665 4.924939868691993
946 2.2968282109326426 -2.51004603186874 -12.071455923271937
1675 -16.88413624424185 3.296314366457299 -3.2687954916349606
1676 3.552511984791317 9.407439352460939 -2.590922620726283
1995 1.3343183252117483 0.2677702788826233 2.5717549475401045
1057 -15.925511347958983 -6.181649361695593 -11.41734403203979
1339 2.5708240724155553 -19.472519151348195 20.171398879659144
1691 -2.062300562265969 -8.838260327255398 -13.262837476172283
1518 1.4387926562162627 -0.9229475212104087 3.435713070299147
1812 -5.620466875585866 -3.972609033718461 3.260225078378762
1834 -12.764127128594364 -0.9308479852562401 6.485451490580153
981 2.1603257994974614 8.667652514369315 -3.953943060284504
962 -12.796588010488538 15.601048152821607 -12.900629021250865
1811 5.8497488053901705 -4.740193010109989 -10.009654857742955
1108 14.664447745269811 13.294727042139934 -22.61053247514991
1109 -10.051239315816911 -3.4020207110718537 5.235603156840607
1506 6.280474175243169 -2.8347662378500504 9.614374348596746
1634 5.560695812591561 2.846710664026393 4.35242713734691
1633 6.012292598070941 -9.496728085493913 -6.729975733038929
1964 0.7614368106360744 -5.134039017622137 11.728052503529799
1150 -1.9581589166501046 -11.910499361127467 -9.293446632444672
1151 -12.254958670565856 -7.870642751961556 -19.036487654521203
1152 2.0440349559547424 3.279625595976646 -1.2213122953885245
980 -2.4393746953644495 -6.503794687355427 -5.616055604192592
1168 22.566617524501503 -15.459277215688761 11.30909411144607
1874 -9.656335314826428 24.411568824751605 -13.39914354509062
1873 -6.122347992069938 5.400319647478042 -5.02680215414944
994 27.748296458203637 1.2984189253648442 -7.374477406301561
995 4.870811831119297 -11.600458824126248 -3.6041449361133506
996 -2.300542839515349 1.926166948302045 1.6714985163911953
1169 -2.205777525862884 7.507221585843007 -6.373773030409673
1170 -2.630211711877683 -0.08758692462802846 4.502406003351304
1178 -3.2213957150522243 16.08707906840028 -8.792521733721976
1729 5.773299583663917 11.635667796102679 -1.3849419902940836
1194 -5.548163717029326 -5.177309982005347 7.619607896337545
1177 0.18407043557982233 5.725760164072198 8.347779724813245
1179 4.59492481818323 -3.7574487683701774 -0.21086114228158434
1193 0.06905293272071614 -7.250698965336229 13.989595250217093
1136 6.643073472849582 4.48113850899064 -6.449840180596788
1137 0.1711497141316889 1.2299691482992963 4.153280282976751
1144 10.654992318170633 -3.411601895564279 2.3887090908427093
1364 1.2524976749328027 -0.5559922998045562 6.535599393290262
920 13.651655738386077 -7.280349210786781 -2.5282618734132667
1730 -1.6438976227031858 29.718367621152627 18.439866085427585
1363 2.4761876053007565 5.822397641149574 20.952504377630024
1365 5.135758756247585 0.8135688288246666 8.254997388517097
1115 17.7175268297109 -4.633100333316571 6.927200730005882
1731 6.247177725127251 -5.829221350884378 1.1233172080637777
972 1.9625896723087541 4.055276434920514 2.955154845248203
1116 -2.11599892857153 5.692965507435908 -0.1971658231918819
856 27.68250988724468 6.994446646303684 -10.45910390357092
1330 -13.723043196642571 17.832733549797513 -1.3390961583120158
1332 0.5804318607553408 5.981580966476177 -4.509928804462574
858 1.970265476723586 0.4850644036398397 1.971556401230199
1432 -8.454674927657509 8.654444521207235 0.35472855366548744
1433 -5.958315615277093 16.12478153144769 -15.792004734974709
1622 -13.698540917675142 15.885441221038182 12.2563120138657
1697 4.143010397828632 -14.127004780775232 10.371425688995222
1696 16.819241665582403 12.650630858468858 -5.327508836317751
871 8.70121874522593 -8.856876136030941 1.8822942908904805
1434 -6.2538918425231085 -0.41609403821872937 -3.853147899856604
1070 -13.06708385824704 0.3907404494313662 12.717861283319415
1698 -3.0150387530492777 -4.508143431931033 2.6223734691844705
1511 3.9876289504991607 2.8345842011987576 -12.7394973172132
1795 2.838901310649245 -20.305022051549813 -15.432321086624865
872 -18.445836734437954 4.478186541588408 -8.184306389885814
1071 -6.40099726730419 2.118547131357298 -1.6299576218481113
961 4.657589477245923 5.921539713048877 -4.710355176987362
1110 3.666303160295777 8.459250765491165 -0.5430373586917695
1033 11.113510373303088 -13.122193241344842 3.140348288450602
1314 0.691940424898317 -0.5833166520382727 0.7538003157300469
1284 -5.601644653844524 0.6388178980451626 0.4901041638291192
1034 17.841547299096803 -1.0718989110850183 -9.429499058999438
1988 -3.603755885630193 -11.082224465879298 -0.17310047339608803
1313 -8.575414627207957 -2.4995254590702456 15.759250664538573
1065 -2.6134383512009496 4.998549022351923 -2.2660834116585913
1312 1.261970381999352 -13.57622277021991 -17.285270792819112
1781 -7.16768734249825 15.055163191689989 -19.542087457409973
1987 15.05341133341421 0.5505840054643623 -9.304145751688951
1649 -2.9065478086278267 4.705289376508172 4.164265126202562
1650 5.704221795195076 -0.6526143838468036 -2.224362515212271
1780 -12.297211899600002 -3.5782433752150298 -1.4566342682552162
1782 7.7329267339624055 -0.6453898272438918 -4.812504271763796
1602 -3.117958002905223 9.636407422197369 -5.70946078080763
1989 3.2266549153155504 2.250053441161032 -2.2913396771575703
1063 -9.521549845793091 13.746980290871731 -1.6013551998080093
2007 1.3466250862455804 0.7393816726669615 -2.2448474261262845
1405 -5.756525527524213 -4.290781495981376 3.5788057391227883
1211 8.13857077879677 1.3641879607200305 12.737033015090885
1192 -3.9959685938235037 5.4057512764613325 18.792123928276812
1077 -2.3249135455683883 -1.2628476928039676 0.8878458390187473
1064 -3.3290847379649824 1.7564047304717287 15.457343441621072
1406 -17.223270021189197 -10.640943060716305 19.438281862242587
1075 2.763694113059819 0.6529317406755182 -12.704958880242003
1623 -0.39285260858860416 1.053175993181636 4.045261349875728
1331 7.91855301844772 9.330165073953387 -4.851237405280157
1395 1.6841078867818755 4.6779056669464145 -3.6403485943031733
1742 -21.424283516986193 -12.968380572821125 -15.772580731824295
1016 13.471352789546067 -12.387838098427105 -25.102939782356376
1741 16.359996940079586 -0.7736489970164425 -25.023798134965663
1393 4.669942469205839 9.25992480988275 20.985453905260883
1845 -1.4351886831146852 7.699465728525426 4.59606550830674
1843 42.323387223841024 -16.55791219505191 7.131284909937751
2006 0.29362809244938964 2.4908257513347176 -1.0923874614105344
1349 4.295020442865237 -12.766836681183316 -3.0842791378585774
1320 1.7961371055287643 -6.465244547475243 -5.5312663003285065
1827 3.5625180586149514 2.7038974345099493 0.869297005555595
1864 -12.216720116680385 8.599148697040938 -5.900914636441717
1305 -5.81954291105087 -3.728695590876001 2.7677954324947325
1304 2.286083689443525 6.016446622131499 10.388955543005407
1456 9.898713861932723 -10.911704276100876 -24.624149355182148
1866 -6.841886617178341 1.3834413515075694 3.162304129586035
1249 -3.5351443830739253 -9.828567926062517 10.345544219830975
1222 -8.270429486931613 -8.67209390215083 -1.8732496413119564
1224 -5.063083441779519 -2.3814807066799637 -1.9529223596192635
1271 -3.016576903428066 7.760232344166503 1.788763429863324
1272 -1.1261950632347728 -1.3117313722718271 2.6966811770465187
1814 -4.416886880933329 -2.4202933846737333 5.12834650619101
1815 -6.156307100667505 -0.5372712025699133 -5.349230505281526
1813 -12.774762134907068 12.920563532672393 2.003107959020612
1844 -0.6980093020856764 11.86628693184755 -12.62776869217559
1771 -4.111071566504374 -12.845753960220348 12.988850708748267
940 25.309329827343262 11.717892967202154 -2.564955352932813
2005 1.1585239977891373 -0.26455284056348405 -0.6002319663217455
1773 -1.1903239789177111 1.2391175943219526 -1.5348723556515622
942 1.5672023453157906 2.590848140205235 4.930620547882071
1394 9.228312831152111 20.093339591837193 6.899377870224094
1351 -10.152918240523283 -7.437831040139379 10.879342203553211
1352 12.902547438084005 -14.61490369264873 9.748476667747854
845 -0.4575221298369257 4.5827411482972185 -11.002727426242219
1739 4.9962013793754805 -6.187794249052438 0.47887717765598276
1772 -20.248714755884265 9.495831460299454 -2.3192941138447445
1738 21.08342825794137 -0.8814848417854984 -7.131446591063686
844 11.670969684887567 2.22008984628541 -1.3596561168249541
941 -16.568650713511094 -18.234830857318745 -1.6761201015878253
1353 2.1417186200345024 -6.01421848300296 0.12184403335482723
846 -2.0890789873328797 1.0260951749227394 -3.2635476780841013
1569 -3.229794518477565 -0.44884076541456785 -1.9498046152978292
1740 -1.8764218416913592 -3.2741756596114118 4.189813571178785
1922 -0.3526618797784295 5.657388764684044 11.739127155892554
1295 6.443072744681666 -0.7415297419865083 -17.80799298952097
1721 -7.8335992601476905 -2.7160264614029006 14.239021681490996
1185 3.4695875975063415 2.4574107820248696 -6.632944473025436
1348 -2.38030031954829 -3.5450198476323216 -17.482511875185075
1139 -20.511265420265197 -13.544464461812304 2.057466337672892
1183 -4.114185404440984 -3.227363170638828 -4.2908446999018315
1994 17.712559654312624 21.08207236892866 12.690939623838643
1359 0.9443419471187242 -4.089709463798296 2.247621698790871
1140 -3.246013437202657 -3.9998461420307994 1.3488759179021133
1921 -6.452958890954015 -0.24530536249051246 11.577916502099646
1923 -7.083631062508616 1.588583467777084 -3.4096216905981978
1350 -10.095736221919246 -8.83765497790305 -3.7093544554593114
1357 34.73268275587617 10.101900119912449 -32.39020026560087
1358 9.210953297956053 2.0658529156689625 -10.432621436600076
1201 -4.904098065235005 19.148707054288963 2.9795050575412017
1334 -1.6035844573715603 -6.863048425026931 25.248554820020683
1160 -6.551434626494443 -0.924805352516771 -6.634320550814902
1517 11.750686954712284 -47.49635939242094 -12.548283521871792
1635 -2.5516025781975773 4.618827113732601 -6.886679326241956
1545 2.5984081090129636 -0.940201290227918 -1.8046322736957867
1135 15.169284215894079 -12.924746264793868 22.893200461797846
1543 6.805394131853389 -3.238980765873401 -10.223499533928148
1978 0.4310041144030068 -6.39324280938023 -2.5194721837845395
1061 3.1208785194904296 -11.229039651712986 1.505416321873664
1237 6.799512507239038 11.60415082700605 21.155758737934267
1238 10.103130877067196 -4.867334126096693 -11.591455684307233
1239 2.079460798882153 -2.010991609543938 2.5974902198885252
1060 12.172505537705582 4.000830305271088 9.832075900415562
1145 4.17051779243266 -3.8393931597750517 -19.64647485720304
1979 7.918893318125878 13.352467888590398 13.513160579169423
1980 6.016897236312562 -0.4325937094646794 0.4297125596259375
814 -0.29048309474745043 -2.4150613295944616 22.0022375367785
1303 13.541531546974133 16.945182712911972 19.724789165135952
1062 5.675260030383236 11.56708775236161 -3.7250936222737963
815 -13.504046929242474 8.804308404204626 -6.955460860850586
816 0.767764316752139 3.8272189075814675 -1.807135833142095
1146 5.719392139622991 -0.11983411901397702 7.803927013894047
1690 -7.183263519158606 15.368641477529245 -11.667729773842407
947 -6.034670234085859 -10.441101840932296 -15.550076750654759
1516 -12.086224037698898 -7.925151983240797 -2.916797793287374
1692 5.149943008821827 5.6195585226251525 6.059685446400925
1871 15.478381702822407 26.108341160895968 -5.8334999089166715
873 3.6543015713621094 -0.3877514844108327 -1.9613035266661683
1967 -9.54098862407838 3.753829290993771 -28.85146291434338
1975 -21.337106713446058 0.9434497842954316 3.4852516706423464
1072 -18.347105481474102 3.0753543559189778 17.013212630535246
1384 -0.4321678784813698 -9.224043131544446 16.114063751563187
1073 9.38478177459592 19.805264821318275 0.432746169968495
1963 -10.693292489488002 13.695446144106429 -12.592392919356081
1198 -8.682425811583073 4.489600052462627 11.003236199465183
1074 -4.557667601121843 4.801308387460762 -0.9873605588022046
1737 0.892675656542364 2.5838303914516816 -0.14564235239374757
1423 7.35007281356044 9.047617864234113 5.278337504435863
1735 -0.897630524650645 -29.70695462547549 17.320306296792648
1424 -10.605516590082592 5.1516743306973405 8.133726311921796
1736 -8.001617317410155 13.717547879445272 0.27553684406265405
1385 -4.396450179094577 7.620501253097119 -1.170917968651502
1199 -4.404093430700167 1.7876677374311627 -18.439831264585006
1966 1.651159491868607 -10.70211403221381 -6.048499913549068
1977 2.98532361142471 0.16561856053824717 -1.2183216643205197
1439 -6.461529609484882 21.004925725361407 -0.7519380338736683
1476 -1.2360432868810955 0.009385725576077622 -0.4592769819736604
1589 6.939365324851318 11.406276119922365 20.264039013410006
1707 -4.028020552369408 1.2670630998102796 -4.0837269694518925
811 3.1565667756538227 -0.043552662176252616 -1.1281552356358264
1591 -4.23258623221231 12.03776015564674 6.568814829955651
1474 -6.543823468339487 -4.3313184828057425 -5.326401647225518
1467 -1.5456831388067767 3.6945601807996544 -4.723986977597477
955 -16.246699113012887 1.4261746277679872 -14.250986318859766
957 -4.553214453417047 -2.0658818569972808 -10.131409348342277
1025 3.9633618571164986 -15.691815481133492 2.703967760645518
1445 -8.5890978384662 -14.42360007987223 5.35322083899632
1446 0.6144010291821133 -5.170695863836596 -2.6580123955666375
1465 1.8404129884668752 -1.0303931067637646 6.123353513506507
1944 1.6539444083815458 6.965819638528046 -2.122538273564606
1942 17.27708513260352 -1.3925021213408422 9.308187049084598
1943 -0.7595385379569373 18.138865187073584 29.82314662665607
1024 -11.188963381107216 25.281657501617385 14.536678658999724
1187 -6.687804501073666 -14.935596013309091 -3.8081212771328143
1188 -1.5056009874672922 7.143335089051439 -2.946087431385208
1114 15.793627308336681 -4.426020344820206 -4.166875035264779
912 3.113038454419683 1.3485793432315931 2.5459247732763073
833 12.564894579633858 1.4635900535189326 -34.00645016617699
832 3.732086141122822 -8.261281785763552 11.409455878132203
910 0.43958351360862946 2.55217011110705 -1.7654632981793026
911 8.334291975617868 -18.469373576566017 10.380097105066973
1121 0.1907639725009473 9.73180339451141 5.421930735822762
1122 -1.6203580065497287 -6.1301497914125 -5.030317602006548
1768 -38.39561701523474 -12.970624120510813 -10.421082539490696
1770 -0.7502296435194832 1.5791732980324642 -1.4120429952189912
1471 -16.692357756398557 -1.5584495041350437 -3.1587939311083097
1473 5.482327951784927 3.2271356832563844 -2.2068366592433546
1954 7.86386270159388 25.088425870795312 5.613412769720756
834 -6.867015190288793 -1.340831439476856 4.378819702096955
1472 -33.245634057623455 -0.9933357215001307 -11.984181340085902
1769 -0.8400926140477428 2.1816314987561696 -1.3548624586465288
1956 -5.382318525030444 3.0958352447922466 0.8848081418867642
1120 -2.7765769381180627 -0.6098602389638058 -5.0286106992405815
1797 0.4620986492540097 0.6382142199953605 3.4272430998081274
1901 1.0633598942047657 0.7703945387337608 9.702294739838052
1504 4.212637652241271 6.893687829386513 -0.373535517498107
1505 -1.8284151321742994 6.389589693268154 -6.482715432475355
1796 -3.8652949023670904 19.555337013116727 16.645906083153637
1900 -6.640482198780423 -6.868857501271338 -9.154005533540383
1941 1.725938954959604 2.6110913195441565 0.23828258405655045
1879 0.4241987336773655 -1.1283098497848696 -5.718181580323058
1336 11.389222890023108 -16.6119961247132 -19.62168045875308
1706 7.018948794069998 -17.16502074754067 0.48943245450449885
1111 -0.07676700718396741 6.576287542623371 -1.214351375074567
1180 7.199919049687823 12.72223392161595 8.132906570026904
1705 1.3389300292974065 1.6238747821171948 1.1282588197727539
1182 0.12323351462478088 1.4696143451972434 1.3187073820295983
1475 -9.8787572569033 8.171854595320175 16.72905486252999
1026 2.995552398871095 2.375895982992939 -4.111764811241321
1444 27.352860666599053 -15.128994825736978 -7.442354274078465
1466 18.489500083411716 -6.601715949849073 -16.780652718958812
1407 1.8827198747936273 -5.8849699016927985 1.0495557904428403
1076 -2.8444912492731977 -3.707612601687064 2.074345974968335
1417 -10.272587780561079 -0.33518795322628414 -4.637397805778968
1681 17.32226067302171 -4.933541077872425 10.285105607124045
1682 8.118706337253972 -1.039570838024974 7.411720849402443
1683 8.14524766925504 6.901626725391361 -2.1179815355397995
1828 -4.124911079248147 -12.4708849699012 3.781068294371809
1829 -17.450788815562362 -8.117895809807965 -12.078265525974137
1830 -2.456821297735413 2.4912585739256143 -2.2073084992364853
1419 2.218704912767727 4.200397811716677 -3.6512260349054633
1289 3.2374024687324976 5.982550947411761 -20.794715507624865
1084 14.565992649496524 -1.2727462503732683 -17.42243909038191
1418 10.117403025868393 -0.39607943246848026 -13.794256045152851
887 -14.563260863065413 10.717620666129157 -8.426453273327699
888 -3.3657608432023833 -5.12366619676614 1.1210670362699307
1085 -1.8520211441772638 18.197652519767562 -4.529403725558228
886 4.805598071433106 2.4744690401273157 -16.424285040828725
1086 3.3020459957246047 -2.699109580334914 4.537480932075788
1940 -12.084768013517385 -9.548446662133149 -9.851617813969934
1338 -0.4657975433335746 -4.263076094937813 0.1733098927489126
1147 18.378695066969115 3.63043712226041 -5.31205705921547
1149 1.191426320574748 -5.026638200008308 2.8257554703895598
1337 -9.74242859053181 -11.930885413053703 -8.165017111054077
1880 -3.6211148644151705 -8.682046672309658 -19.392894085055005
1148 -1.6430006585587822 -24.4014878631403 -15.435277539704082
1881 -1.6612551325624194 -6.509371705166911 1.0716263404163107
1202 -25.729766025424944 -3.0819263294122226 33.15762967738098
1203 2.587946737054981 -4.849704776315449 -0.41609731433178015
1902 -6.178933681840978 -1.3066963367838778 1.6401154430378433
1939 6.628397988414034 8.10850333620591 -8.133388214833047
1335 1.5535918632705652 1.1080588269219867 0.7583005359078894
1282 -5.737512715440279 -6.935187350824804 11.600424620989894
1283 -2.7999175487735637 -2.311189723310762 1.901106747531401
879 2.823000628439061 5.251475054891063 -5.736574469366516
877 1.3094241820671555 -14.068129330809343 13.072330236336667
1549 -2.0356469236313575 12.970936484008313 4.018052622810408
878 -20.31838161269028 2.3889198211794618 5.193685889886909
1112 -12.297579606070824 -10.229591800754486 9.315468197903883
1826 -14.75976967996873 -15.722265701102446 10.526847512689987
1551 0.10849210996364525 0.5305491646274119 -2.7740070678992668
1550 17.56724397657138 -3.4916034430127447 3.427643076423414
1825 -8.671897272102711 13.065950655204043 -3.508383729863941
2008 -1.9850421132525056 -1.3410695958502399 -1.0686627975886878
1401 -0.5367137426400378 0.29265680575070685 -0.6278420064442504
1377 -6.595388112266878 1.4267648249711253 -1.074088662625034
1376 6.025808000034144 -2.448600926935053 4.701462889141398
1223 -6.300332264473454 -2.773376768707376 -5.810764734897908
1726 -0.5353678569466336 10.023605615698807 -7.43745352507758
1207 4.1457367059838335 -4.815504199970873 -7.0629481063616995
1209 -0.9150399141959914 0.29049823988415663 -1.7071211391826535
1375 8.85023766144709 -10.59258044824595 -2.1597113964538814
1542 -1.0637246276327683 -1.3531576319830176 3.173849107681199
1727 -10.80942655669303 -0.4135205473953773 5.191599997053414
1728 -1.128325567272854 2.2950416178523563 -1.81881257296503
1208 10.332959605378024 -3.2601197752778517 3.8754487383099856
1846 11.694230321500633 11.469583397779347 6.409820783802814
1912 2.0846362168117842 13.140969913564534 8.732705195672466
1847 14.813800204207542 3.5332743932530426 -7.0497718690019475
1848 0.09174043364197668 2.7932306420760833 -3.1210624319624145
1913 -5.943470361799391 9.84843537630603 -0.3981111349798672
1914 -1.6602822349510002 3.0586339031850467 -1.9116354347306994
1540 -4.540062468252286 2.216203482109528 5.695202134054308
1541 -7.656839766510025 -2.982416082502974 -16.848941012220067
1567 5.152898032876312 8.094606474946026 -17.128908351493315
1568 17.3722374521156 -4.689882025868492 7.38032769062709
1296 -6.812561531068379 6.034645346986781 0.7261376630633176
850 16.068987963612702 7.6803255853413654 5.37996961445874
1294 6.391853569135441 0.2561556452708631 -3.4976519026097677
1571 -18.991577458575694 14.504098234180427 3.8202565043814722
824 7.515308153930796 -6.675207257153473 15.302822971180177
825 1.7835661173218478 -2.726518170913906 2.3060788599030344
851 -9.283733055261433 -12.25573328733576 4.809486923301474
852 -0.38637709376943585 -4.515787013927815 1.2249332188617188
1036 2.4004192499714354 11.863094679989203 10.380265683141879
1037 -0.7934052065328582 2.4989201308555877 -18.18293722842252
1038 -5.178532098613403 2.0176588865035074 6.956279123359739
1333 9.467830034876723 8.422601328777755 4.210150670662246
2002 12.400833155154094 9.365332327972716 7.055311531704912
2003 1.4650268893288614 -8.502939703351462 -2.17677572517172
2004 0.10031478461851724 -0.21059891811287781 1.4545166255998725
1853 -2.3367687956094265 -0.29353284805390295 -10.975549228451735
823 7.506556652875688 7.34221378133569 -13.532415714394727
1454 -1.6971491155635685 -3.8395508832115275 -3.0756905598168447
866 13.75420119766585 14.282835681829889 -24.92134896215144
1113 -2.583949137711838 1.091848690279113 3.150611524133995
1882 -20.36183371425133 -3.8273653536692915 -20.327964070146802
1300 -1.3680957796372468 -3.4012094344234463 -5.54339190714438
1852 -10.433542261541998 -20.436654222780646 6.882612461162196
867 0.6330804920296591 1.6091963111802299 -6.756624345371299
1425 -3.1343909916042905 1.6741926606321897 -0.7589366880050387
1386 -2.4112670410532973 -0.4098139858571776 -3.668756228267379
1965 6.524644273951077 2.4409880280451044 1.2133626965679405
1134 3.8953511876005615 -6.08126871455806 0.5803008206462579
1794 2.13749763987173 -3.9375079205497237 -1.165863462583635
1544 -8.841272613380097 3.446839749462004 -6.631323161599684
1133 -10.386784330788764 -0.3729723515287468 7.77861378855211
869 2.548261398421419 -5.498479245868803 -1.5145443898471815
919 13.796853781338033 5.692379764911496 -0.03599443087230898
921 7.217567960136299 1.8010448867176414 -0.8031120915164807
1200 -1.252624279382711 2.822259130147664 -0.0032439708253853804
1585 -0.28873773081642784 -4.822293165903002 20.760137040828376
1586 -6.698611432940275 -4.3625971548898965 0.9981016477223084
1587 0.646209340151424 -1.941403665540459 2.732670125660253
1792 7.326700178632119 -5.58283327078047 -3.7350954299757126
1793 -1.0817935187816456 17.826429898086236 17.9314810110823
1132 2.144430560952451 -14.369493043003674 -10.773887127861485
1678 -1.708631628564961 -7.853836925523479 3.068392628386937
956 7.747504918915384 0.05136789827017455 15.80392246655122
870 3.715141788610768 1.4738425405783189 0.16017863751118616
1929 -4.911833696626866 0.3648510240608309 -2.4453845222545616
868 13.491855728329465 -13.941548312438474 3.1863070344281104
1409 12.062679713427595 -3.3515286895804843 6.870213682685087
1908 0.6268848827712076 0.19905167717544645 -0.7871641069949057
1907 -8.392789244368347 1.3428460510142162 -3.7379707641265227
1410 1.4309288813009442 -1.2120638958540477 -0.418291589509595
1854 -1.1931326279584133 0.4106621878069989 -1.8124009938875612
1906 -5.890671866376599 -8.787882382891855 5.232923410929797
1453 -7.727611563516762 17.617597023054756 -12.078447272426953
1302 -2.5929518620863967 1.9189457326389276 -0.8147717568037366
1301 2.8226178701841276 -2.7395707876199538 1.8817480308064312
1408 -1.1522956706933118 -5.491458755372507 -9.656989905390706
1968 4.586196485257271 3.7050250696336375 0.8576835648065217
917 5.033176923978387 6.684388734840311 0.8768608127985813
1496 9.02459253037273 -4.533550333588329 3.9328993932133676
1495 24.91189077641057 4.490217044999285 6.982066680756091
1497 2.5157067932393784 3.323064323230747 -4.181811022456296
916 0.4172500546886087 6.269554426061361 9.508705680590483
1611 -2.3513001408021768 -3.088702680329553 3.482632820318401
1606 2.3628159762204644 -17.15676406673804 -3.634048305114316
1976 9.413639986277818 20.724701653945544 11.245574078131373
1588 -7.397175707106558 3.3075735691978863 6.129754373235842
1593 3.367946771755947 2.556767126021018 0.5992626680233766
1438 -0.9819469927236096 8.568888251867664 13.59848558578459
1440 0.6709055792423937 0.7243757998144897 -3.5133177770960398
812 5.860215780822964 0.9364597107453521 7.914097942668352
1592 11.313205503467863 16.830150718603633 1.9457305419346627
1590 -3.2653415622650512 -7.307317782986934 5.004269642412173
813 -0.9950684144008022 1.3266955366828095 -3.113520615313842
1842 -0.1984884527956094 -1.2740268708799836 -0.9495698665576936
1938 3.467671382099889 -1.5914975691857827 -7.09468370657055
1841 -4.260758112678002 13.142017490190975 -16.00117464083838
1315 -13.552609128299267 -4.86939899662819 -14.409537722630077
1477 -14.117517559565051 -14.144206422807365 -5.025819056294777
1478 -9.10438266629195 -14.165442999496143 -13.665233397989688
1040 -3.092349087981128 -7.275641576373948 1.118503579644483
1479 -0.8393676933794715 -0.40187794657669995 -2.7200343142915235
1751 6.004412084613709 -8.884501286796516 7.516070051578881
1291 17.01718141971301 -2.8176238309771255 -11.418072451884568
1293 -0.47755978685219835 2.924011031296007 -3.37181417502889
1752 -0.1308696502614921 8.01879359953702 -7.552707153420711
1955 14.701888638578257 0.6459589644062362 -8.127605746939143
1534 -3.6774479181448556 4.411255767456595 -6.213923212051518
1536 1.297601689384562 3.0393736277956873 2.3269836339275214
1535 7.767863166179225 -15.113956983436097 5.077990645647348
951 8.28684340369895 1.8061480282077993 1.6833327503215723
950 -3.89063761784261 10.325097893040862 -2.093093933138085
1191 0.23299603819425316 -0.3474120093884778 0.7620183738774631
918 -0.592955030254236 0.9114105484138031 3.364153873633236
1607 8.454216951680408 -4.704788093599698 -1.1828963099084486
1273 -15.85698557841817 8.894041251452233 4.986453431938946
1275 -2.85067894310936 -0.6460034563776382 1.96387640360271
1181 -13.029607459687558 -3.0416715902269265 -0.32942693889317143
976 -17.177159322526084 -11.104762600392332 -10.355219162981282
977 0.5967984640751138 -8.44487441047725 -1.1433735207044202
978 2.8967575084861172 -0.448219705123092 1.3403260341026602
1278 -1.0348405855770209 4.36440950228983 -1.0818459625560888
1400 -0.42320839986113157 9.278043508086832 -13.13554684144341
836 11.478616861851977 5.603597914973517 -24.53368420211867
1760 14.350388414754946 3.530285175671987 -28.213169512909783
1580 3.371567367555168 -1.0216079690004705 7.701181969195354
1581 1.1546337028751803 -3.4578005181334883 0.7513430848127561
1699 6.175593763129467 1.4746637695410947 12.35834796532575
837 1.6388235573379908 2.3550408725120024 -1.2398421732667175
1399 3.7331587111016353 -2.071087458912258 -8.871469743783361
1971 -0.05148656718295518 -4.753390643451959 -1.8811160402611635
1317 -0.926626787884277 1.2330313523401344 0.38993748389418403
1290 -4.710609444733714 2.9298823733944466 -0.0010478829344780333
1316 3.7261187455566303 -12.081071462013437 10.430274366480331
1041 -3.0866371748170094 0.3964001222852067 2.197683406598777
1876 -3.721010185576727 -5.950606816731036 -21.840935587517063
1214 -4.238966275941074 7.621793824621404 -12.340896619321123
1066 6.24512694020973 8.081763088433373 -0.24074909264294087
964 -12.63352426707161 -0.8588467177660414 1.4612547953463553
965 -12.615624669974423 -9.364274256010809 15.460087177128177
966 5.711688868476857 4.568767862523613 -5.9088179052795935
1142 6.916320639978648 1.6492206013197175 -24.038540872931556
1528 6.457169313468072 5.256062688656389 -0.521496011484849
1529 4.636379995717522 5.849857202151619 -3.5858236233516703
1141 -7.669373815918025 7.811615498977045 5.4378997459632
1068 1.9582972752300878 3.4416040776588734 3.9055388426006967
1215 3.283284319281638 -2.2488783007918673 -2.3469122944729315
1067 -2.2877186345785794 5.551827000083861 -0.9846798380320492
1087 -27.992812755432954 5.012452994077573 9.860156973606404
1213 3.1605189878965607 -12.304142858692941 5.400639244325456
1640 5.564834774964137 -5.179301887069828 10.23877820379015
1776 3.6520435262991975 5.468848362812007 8.661461338013503
1639 -0.578152734315357 27.35068245643985 15.27805328317135
1125 0.1031141202131977 0.6485822039272351 2.5502795283031783
1775 1.0113572912737485 -1.153309084594998 -10.75218014891906
1641 2.289650124052651 -4.11499406779744 3.7971879404456437
1629 1.2311849719374988 3.5168850951657444 2.438857008198163
907 3.426098308003902 3.841164230034367 6.81235007710153
1701 -5.20808452114938 -0.7668530947212271 1.07527293480079
1277 -0.7041297521162116 1.7321881457328447 8.027688709702494
1970 0.9397001148352927 3.3709318582398207 -14.58943090424291
1883 -10.764707866259856 -7.711764275961942 -14.185600072680824
908 -4.366826107553931 23.995503460646187 5.66176632745656
909 2.1159891571653286 -6.665766521897259 -5.265183946965249
1276 -5.175380504424838 6.207871036846146 5.265633423019151
1603 20.25590435259091 4.2151270241910925 -2.5803411373927445
1747 -15.008684878438105 -11.025110445907531 -10.529116727532678
1605 3.599497753084979 4.27912189600088 4.810934186917388
1604 8.35713363331258 -2.8576131915487077 -17.762430563026683
1246 6.697731931168409 11.040881189099675 14.659764341421008
865 11.577319424593055 -8.153838558514064 -16.620827608397637
1749 -7.9521835044382065 4.6000293906818035 -0.8339240052709317
999 2.217208228773512 -1.0485150844137496 0.926542800707007
1451 -0.08068401823782369 14.093448059532914 -10.489204553252913
1288 -26.9285880227049 -3.0440231461474436 2.457991739488533
1452 0.6717347621485612 -1.4902675167862327 -1.9146485741324042
997 -9.958947636378317 -6.549401760413121 -11.386479892794878
1530 -0.46637066060552135 -4.441401047996726 2.178045388877392
1450 6.328615338179026 -6.921966035705783 -12.551718664985156
1129 8.560376933552835 -7.462663904973117 -6.9456368705926455
1709 29.55743087987959 11.291363667930426 -1.027723925166395
1710 -1.4951828291917033 -1.7338419174702384 -0.6155501007284053
853 4.184994815150949 -0.1411654431727188 9.168967584808597
854 11.894871562664758 13.991650573731972 -5.288699217757019
1570 -0.1558169406025239 -12.56766282304328 1.9466606194894984
1858 -5.88906749879235 -5.9646078276236905 12.472182755256275
1572 0.073392086292966 3.307411210206131 1.123421478296003
855 -0.18831721380701824 1.8539493387659145 -1.4213257881332317
1801 1.4881972487419923 -11.298712089197648 -9.694876547602728
998 -3.561709852825735 6.668076748664206 7.427329459686638
1859 -1.580784562208839 18.90767051327747 -2.2184612911459185
1575 0.5363599582146028 3.7155575047345617 5.502780755671563
1668 -1.9662336918297767 -5.37434467673738 -1.7863722769531676
1328 13.600721061636781 5.404219755331738 -5.076308241615423
1531 -5.898033100790391 2.792215255403214 -7.542582935522048
1803 -3.052348453399008 -3.224284861142334 10.769554337861996
882 2.7787830302670264 -0.435677675006992 5.76330713136982
1573 -17.562002925957405 -26.54557573531966 5.775401377007625
1574 6.685530919478847 -11.658269580918372 6.276492069408506
1666 -4.556500257202991 -4.525753977441068 15.27774268235648
1802 -4.297145128474269 -20.957483353755087 -0.12057172371344634
1327 -2.2309847919698225 6.081344569753123 13.064225675872862
1329 -2.043764276335438 -4.303608957307289 -2.2505021604057123
1532 -1.6560243633234986 7.111427451162991 11.16799239377314
1533 -3.8485247903998574 4.813982144369018 0.08551572239423948
1667 -25.328609754196417 13.928397788085082 16.231905975042555
905 -16.128466223212428 3.3214427124793726 -7.664157854462002
1247 -1.0637010933803064 27.45859796372728 14.2708569425324
1627 11.698418093449863 14.821424711292007 -7.8280640605285035
1628 -2.6498971681695314 5.608395936823798 -6.7747549822531825
1248 -1.3592382581578455 -2.4970051767616175 0.30954505639546315
932 -5.756353078432437 1.7677126632821372 -10.368333677541207
927 -3.492405087978638 0.06136781668861805 1.9521596447331633
926 14.178544916367146 -1.7527218081814302 12.116977024360823
1748 -11.286574051740208 -5.863935751670775 -11.916758960062088
925 1.9294959006617018 -3.2585961412251807 -2.313350826034731
1708 -9.639199996510685 0.053167333457570784 -10.542302604976122
933 3.63124878529052 -9.13446538898711 2.40102612902209
864 0.7078663169848212 4.108719643011563 -2.2267523003853986
820 -3.3732999409634505 -11.945942100365684 -14.482031661675368
1860 0.21976313927593127 0.6103574469785246 -6.524438168694101
1927 -1.7378854637453227 7.597854238322781 -7.067425472579494
1268 2.051397852121468 8.785578810178107 1.5368954806377797
822 0.6538631254784918 -0.0241854449663862 6.545045287629262
863 4.68425212994993 2.0927941763541975 -2.8278033211201556
821 -15.358588522070209 15.831304651420439 -3.958038286239176
931 -8.05671165870385 17.523483507978487 -4.203745637079871
1928 -5.976441227827162 6.721015739015102 5.8814012060530905
862 -22.52716747757409 -9.63948043045709 10.629471190084248
1680 4.335356116902429 1.1598918857068443 -1.6903150720254916
1679 8.4609311840725 -15.659153863941041 7.4136626367541965
1455 -1.929568191773689 -3.524997537340693 -5.248115660897327
1186 9.274444896908163 12.85524877085356 2.6120273464769985
1561 -8.001196124725698 -2.5976019062882814 17.89198354284542
1562 -5.006964391706343 14.363975223245314 -4.552490063887211
1563 1.1905992612714584 2.1708149129935257 3.6192967423750844
1750 -9.480408496793636 17.304522235066564 -2.2510270139193946
1788 4.697839033833526 -3.95187246636141 4.035569411486891
897 3.3388419377729184 -5.843905420313646 5.6822664869449016
1884 -1.1761228321627675 -3.416263756466521 -2.9123499875889687
1617 -7.7737456399722 4.21956476227986 3.7005788485442186
1774 -3.602785761621546 -2.073644042373843 -1.4189890631949438
1171 -14.486757256910442 -7.309741712074788 3.474459066745514
1173 2.82961992536167 -5.410693743835248 -3.62867118578052
1610 12.668015430467046 -3.6772983824620664 23.87797967415727
1615 -5.98004247326419 -2.8780243248553607 -11.828160076046384
334 13.534485654497319 10.159211318783836 -2.4855681146168447
360 2.4122505439422017 0.1320067816560767 12.135145863877305
309 6.2622391546089125 0.7990803769909364 6.713907634998184
1267 -6.500105900062021 17.761194750277202 -17.271855276904578
1711 -0.7026867866881774 -1.0039957325008713 9.22688668492616
1459 21.559183927180225 16.91333122267032 -4.5948002435544995
1850 23.90329027272487 5.8249922911325385 -0.5149407984294238
848 15.039676199348577 -1.2021256182533402 4.838282680745313
849 4.272887137324723 2.8886106193905605 2.7864546418085037
1172 14.418601357538282 25.538854847835896 14.077745535334113
1460 16.16582836929851 -6.263018726701297 10.869168223454658
1156 3.907374776761307 -2.9958307214372395 25.932798887295935
1461 2.123325129205281 -5.273834521497319 2.031458498162983
1897 0.06289736787503146 5.4668181862889265 -7.443440545677635
1899 -2.4364227446144144 7.078721836582197 1.26367259836251
1937 16.112818505956973 3.5553822651889297 2.0498684187854894
1936 12.214031592424062 5.818070842822384 -2.4038080210936115
1851 2.7171670141450415 -3.193565567680392 -6.031136285379872
1292 -6.830430943072452 -2.2619044178113334 1.487941040277935
1190 -16.885385897415045 -6.074729536423198 -10.896888386085221
1537 8.533912490953469 2.640325231899786 -17.54361548631307
1189 -6.197467609711012 -12.987512496276334 1.8193055821168775
1483 2.3599387802890703 -12.50075529784864 -8.63853291594853
1484 6.400253460139226 -6.072484844606996 -9.65868992180848
1485 3.0129643876602312 2.753281941849231 2.3518936706656706
1538 -4.294201532080172 14.294503447564447 7.126559466483767
1539 -5.8525949764958645 1.001130659819777 -3.9206069740849925
242 8.606565950343345 -6.58694386684338 3.6423189193364665
1274 3.8800714865406185 -9.550086134684669 -7.4652353974027506
1608 -5.952388738906813 -0.4031625104574795 3.8015844180069425
1123 -1.3838459032117196 20.59325775221297 3.7091200021165003
1761 -1.8478281129423406 -3.4724999849218197 -2.4364885979950395
1878 2.418724065423458 -3.3870721445948275 -4.091793245748129
1877 7.353844819627936 15.825515898852174 -0.14951334855362725
1919 -12.391673843337696 -17.165997651620614 -5.694170016906298
1088 -25.316022896743966 -11.20898975434525 15.132796514915706
1849 -7.640717577922162 -8.137615109631064 5.585808784391093
1012 5.072162951439986 -3.523550513801383 -19.40887700891977
1981 -12.130669788554139 4.773277008167676 -12.268069335209114
1013 1.0867613647191812 -3.232873779098781 8.342713175288399
1014 -0.5589394864493891 -3.4947136410321993 0.8062171957285592
1039 7.521090569695602 -0.9577013710594652 6.652036774318637
1361 7.081502849022872 0.7874701163612218 -7.792197483773689
1362 -4.007349152088833 -5.224909632327752 -4.784404345017656
1420 2.6590463408246015 -11.4339121520718 22.46692073513601
1421 -13.951829279904686 -3.4177251727067777 3.437488225788656
1422 3.737195185658053 2.857339942409915 -1.6789533954792326
1763 3.736621403180252 -17.71017768932056 -9.449985615192277
1918 -17.426475773271566 -9.86340879301689 13.340260924873743
1920 2.468687674097589 1.3976891507391425 5.308938749053948
1764 -4.541185694203626 -0.3277916051460904 4.409520753076463
1762 -9.296465715716678 -2.7527709418799033 -5.377110546156636
1974 -3.169358298893852 1.7104469431558698 -0.6976415339581061
422 2.4551013706628484 1.3515820789420578 -1.3515824457994967
450 8.010878939960751 3.9348217942988417 1.478952646179398
1143 0.4961355551274901 -0.891468047352233 2.540806668814156
914 -11.699982701455435 12.99941970222911 20.327480151949633
915 -1.9155937608815656 -1.3534740206628457 -1.4009964952455538
1972 4.923943429294252 -19.044491004500493 -32.45749685201256
1281 -1.286884456671636 -1.0171506913216866 -1.7133378087923274
1556 -2.6117478759445376 -3.6202272306013255 3.784529147783673
693 -3.395768945822821 -3.182903903960893 -5.23634651394845
312 -1.172333393165898 7.518319850427086 1.510614997705488
595 5.665891986001984 15.936913390071602 9.54524763290385
1124 -18.01418093253719 11.269630147245229 3.731063696605558
1555 -24.61009422645392 2.5140911169078954 1.260282214463729
1557 2.8039827518476517 6.1415801970717885 4.3775535401512
880 -20.097936333621867 3.1528529287829055 34.04161512559392
881 -9.498652436778235 3.9528340340517265 -12.356992541377705
1427 -3.59511302510589 3.3659019043618335 26.76079297237038
694 5.966818903598252 -3.5361287221645137 -5.414717136821424
835 2.5443298442331983 -7.661088388641265 -16.49256387590712
1984 17.641531905930776 -2.418410519760259 3.4569194029203745
1700 -6.169435861787148 -2.118752997228594 5.796129091882806
1969 6.219172101344555 -24.93695690115412 -10.679853728996108
1805 11.599299637909432 15.78118610053875 -10.421873827077816
1806 1.816723467821998 -2.7208820007178547 2.3867700257835427
1089 -2.871344466290387 3.895542343239513 2.734659699142905
1985 8.647988081960508 -13.184117522860756 2.1211129713521863
1917 -1.3417040253754817 1.6606181337545347 5.2203596861024915
1986 4.881091214880008 -2.506563174772477 -2.246796834546634
1280 -9.561864037538781 4.058193293783096 13.440471702939542
1131 -4.4902397504722575 -0.12072868484522281 -0.9123759701306939
1718 4.291390982299814 11.579994791951124 20.66689638145533
1915 12.192697276911678 -3.832430562060375 5.9670817710545805
1255 5.49831474904309 -7.9213103408566585 11.503153601987465
1257 -1.5938840610944824 -2.004142805199843 -0.05835096168439163
399 0.685057071749205 -1.7990400429737747 -1.1456246913903738
1807 10.995556133584701 -12.836242045441686 0.015126110618130788
826 -8.709984851448684 -11.884607705937405 -7.456772205000925
827 17.92827731835188 -7.594608915794255 3.1632150208149565
828 1.3051600651055217 1.4915044281280336 2.976089464383198
1130 0.019029707344035737 7.10297138217302 -2.6023337422123682
1256 -3.4976735615742447 8.277072446761988 8.565008319502324
1279 25.5577307461319 -16.86895336039007 -11.714115903631917
1426 -1.563318923913902 16.97520867419834 -4.183026905964388
685 -13.846901932007663 -15.86459696905851 -1.9084378018536061
1809 -0.6475890147345352 8.71659307973181 2.299894635645852
720 0.9119278192334276 -1.3500836348206515 -1.9685121538904813
1428 4.187172792598222 -4.153873303594703 -7.5380744227835645
1233 2.372425386472342 -5.067512030552477 7.748275566207843
145 -3.960852121806064 -2.962153544753974 -13.896048046319072
1042 13.716911888184601 -0.36193084092788547 3.6866602147353227
1232 23.331840242134327 3.0319370791890576 -3.645843412506065
1583 19.033333144050374 -2.2314226544708786 14.476395139484763
904 2.949870272216469 8.761436853946241 9.372265116409386
1584 4.581803406820244 2.0440318290254686 6.6760331820494425
144 5.1935725504459285 -6.217944222401008 2.364159573219606
1579 -16.36420340341101 -11.343807865524193 -7.490881807525227
1260 -1.646544993962983 0.9234750264345267 6.399543596406921
1717 7.368184402866109 -11.56701562616977 -10.399122604602985
1609 -2.341071189774048 8.113926865327734 0.16715080831302895
1259 0.2466523265898661 -14.546824592380709 -6.427027341954064
1258 17.694080096430447 -2.5399341568481626 -10.519901352649955
1719 1.475485843510992 -0.07065654307076426 4.934803045991699
1616 -9.403645783104723 13.395578732604998 -9.364681871356767
1080 2.1081316056179293 3.2777866122231645 -0.012949101466481793
1079 19.83490107577933 -13.09968769435386 -15.470488054585582
1078 -5.116589325184727 -3.038002500059498 15.617448735357975
1840 -6.693635242790059 -10.707302110111613 -10.353538837013218
1712 1.75500079698432 -1.161742156804442 6.835265889833289
1713 -4.575537216996509 -4.752581110783902 -3.5970695433805537
1236 3.0430119303895187 -2.7804104077484544 -2.9693456280484933
1269 -1.0276696664245177 -6.0015879772430365 -3.7720213816188397
1808 24.11727078356411 5.003574109951889 -16.599785254200423
1949 7.208867812900593 11.666080900767485 -1.7914606660612573
1245 -6.423374526221383 -1.780503600954003 3.109862645856984
1244 -17.182167708113596 -3.3577824371180984 -1.6876669385999046
1950 -0.00949447354576458 -3.519940844495433 -1.1308041297345603
1948 -0.7416238690489495 0.20222297931695324 -11.293549984879277
1703 13.779768890581533 -1.7884728470946423 -10.372192436807012
1243 -11.692807552399586 -5.064621891939336 -18.63739494495002
1787 -9.59909538501787 -0.7735664890912167 -8.839842812079658
906 1.1594457782184644 3.5756452507934724 -2.5205902525149853
1582 4.6795515439715265 -7.174949723090287 4.334997603092597
590 6.261314067572831 0.09774536119514136 4.510548756257726
782 1.9646142720074768 -2.4068528168839616 -0.797162862053762
783 8.388376064649156 -3.8732569064681517 -6.772505002953047
784 18.059093020173616 -5.021134953518663 -21.91805522481022
810 -6.51504233124773 -9.013650341919904 -6.778634174675057
1786 -5.86110238573241 11.25265738300999 -16.499663002626903
1896 4.703438586177179 0.9066007103852032 0.9219189248151435
244 -8.35254195674128 -19.183852813223194 12.418883277521934
949 17.18597708771194 -3.8858312377839686 3.228185072943921
243 -1.515348734913278 8.97093430606895 -6.046460562945544
