LAMMPS data file via write_data, version 20 Sep 2021, timestep = 200030

1956 atoms
7 atom types
1016 bonds
2 bond types
535 angles
2 angle types

-0.24492784080623267 20.450527840806764 xlo xhi
0.006890152057121528 18.621864847943566 ylo yhi
1.4275646120586585 57.00495338794108 zlo zhi
-12.204558202674257 0 0 xy xz yz

Masses

1 28.0855
2 40.078
3 15.9994
4 15.9994
5 1.00794
6 15.9994
7 1.00794

Bond Coeffs # harmonic/omp

1 554.135 1
2 554.135 1

Angle Coeffs # harmonic/omp

1 15 100
2 45.7696 109.47

Atoms # full

1 1 1 2.1 17.566450726174228 0.8194255224187769 2.155393868420749 0 0 0
4 536 1 2.1 12.124307857096367 4.041159314727862 6.646472671252088 0 0 0
6 6 1 2.1 2.7549341738260216 18.22027047653238 8.567588079409834 0 -1 0
7 3 1 2.1 15.143791604491494 4.5580858537120355 2.366442152941235 0 0 0
10 538 1 2.1 13.679489391296398 1.4893788341403866 6.499317167918334 0 0 0
11 539 2 1.05 17.276557807763194 0.9948875529314777 5.360413588574541 0 0 0
14 542 2 1.05 11.694577032843872 4.103663421369977 3.3205962383197023 0 0 0
15 543 2 1.05 13.947369428102972 1.20339132914055 3.3831804874087603 0 0 0
18 546 2 1.05 15.560768906283535 4.252528227417488 5.502147628394814 0 0 0
392 97 6 -0.8476 -3.969605080297978 9.785585652642403 12.002653741214248 0 0 0
640 126 7 0.4238 -1.3091594826191002 11.122819798120904 11.133552589546891 0 0 0
23 549 4 -1.05 3.2232321343946713 17.002421987908996 7.694515598150658 0 0 0
344 706 4 -1.05 0.3299821641329337 5.717654161649336 1.7877251587529446 0 0 0
27 553 4 -1.05 12.838770350115015 2.76283884865239 7.010890101413835 0 0 0
28 554 4 -1.05 18.36579856037841 1.7422969411437461 3.1652387652829552 0 0 0
31 557 4 -1.05 4.771589693980002 17.314200104186977 5.612011231526456 0 -1 0
32 558 4 -1.05 16.229879210985473 0.4091285062593738 2.8632293408349985 0 0 0
35 561 4 -1.05 10.985941917918526 3.644857947494487 5.514808222091864 0 0 0
36 562 4 -1.05 1.9808533436071856 17.658493582624807 9.810054937896531 0 -1 0
637 125 7 0.4238 5.475019213428351 7.382311176309399 12.097548721601253 0 0 0
41 565 4 -1.05 14.107595273782014 0.5659785560386361 7.66060230507638 0 0 0
42 566 4 -1.05 14.290965065545151 3.636956308820809 3.2988533104998883 0 0 0
45 569 4 -1.05 12.829014235561555 0.6875109507690381 5.447945399074992 0 0 0
46 570 4 -1.05 8.339054237960466 17.175892056220007 2.9621628909871514 0 -1 0
49 573 4 -1.05 15.024982263495751 1.966309968239645 5.8134330892101165 0 0 0
52 6 3 -0.95 16.16361824898887 0.5038510555921302 9.11391091716165 0 0 0
53 6 5 0.425 16.090229626330995 0.5557019834461501 10.155466702881885 0 0 0
707 131 7 0.4238 -3.81043694678928 16.042273256390914 9.648730585076637 0 0 0
481 37 1 2.1 10.706049394974583 0.6291640161926676 1.87071587980187 0 0 0
708 131 7 0.4238 -3.908584166715792 14.460761035680274 9.2834215457148 0 0 0
63 58 6 -0.8476 14.212165391944058 5.882268964904431 8.479753076298406 0 0 0
64 58 7 0.4238 14.895512339308917 5.13872568004927 8.67764526602666 0 0 0
65 58 7 0.4238 14.135903262648897 6.079097811128113 7.480828030981152 0 0 0
66 59 6 -0.8476 9.788520400234873 2.496210729252611 11.336819531857525 0 0 0
67 59 7 0.4238 9.56497037234805 1.9036302142882175 10.522214360002996 0 0 0
68 59 7 0.4238 9.876526696224497 3.3972466433202646 10.855835661986582 0 0 0
72 61 6 -0.8476 13.883866738496936 1.7056848511578062 10.781448780053159 0 0 0
24 550 4 -1.05 6.233563092921854 18.15602059253452 1.9256697717174276 0 -1 0
153 124 7 0.4238 4.168007975700169 10.40345115553385 10.031509931514265 0 0 0
703 130 6 -0.8476 -0.5436718239393884 17.60969908225284 10.023437880360461 0 0 0
380 93 6 -0.8476 -3.4065402570642282 7.158936480874576 12.515038149094499 0 0 0
80 63 7 0.4238 8.983355974730848 5.483429268067785 11.134403892809749 0 0 0
81 7 1 2.1 13.489330491960317 7.126087793287862 2.3927041071086426 0 0 0
84 575 1 2.1 7.893056504736131 10.186609801425988 6.785908350382632 0 0 0
86 12 1 2.1 10.58045573220217 5.5780181475507185 8.921686859632192 0 0 0
87 9 1 2.1 11.173178954288215 10.64490836149226 2.4208743322880526 0 0 0
90 577 1 2.1 9.493477322478276 7.643360807970019 6.92059140717286 0 0 0
91 578 2 1.05 12.996716968414164 7.262843674632952 5.472224096238407 0 0 0
94 581 2 1.05 7.875544867889153 10.598162972321752 3.5676942510929863 0 0 0
95 582 2 1.05 9.800957976279598 7.305626651267133 3.572991917414249 0 0 0
98 585 2 1.05 11.366649593791234 10.513953018694886 5.863417452755653 0 0 0
487 39 1 2.1 8.256565053977983 4.524302075276667 2.1587176970646804 0 0 0
584 823 4 -1.05 7.411486593472546 5.767793205566873 1.8314519114842116 0 0 0
103 588 4 -1.05 11.296631610905303 4.7227095217113435 7.872248823330125 0 0 0
396 98 7 0.4238 0.7764493736916277 4.873424583272519 11.749620527206346 0 0 0
107 592 4 -1.05 8.665361262157816 8.913116009359687 7.18009922309182 0 0 0
108 593 4 -1.05 14.155096738054295 8.047115832808876 3.455596974629103 0 0 0
111 596 4 -1.05 13.155855035897972 5.089774104935221 6.105625630158967 0 0 0
112 597 4 -1.05 12.174633638827009 6.612284054017376 3.020573909728728 0 0 0
115 600 4 -1.05 6.682975253365443 9.849393029015888 5.946627195108352 0 0 0
116 601 4 -1.05 9.731581857091403 4.764000080258774 9.877723732469807 0 0 0
671 869 4 -1.05 1.7243476921452405 11.271480041268159 5.60297160401893 0 0 0
121 604 4 -1.05 9.765272061175931 6.744643621221391 8.221867496643837 0 0 0
122 605 4 -1.05 10.088174604817086 9.579479468790845 2.6839057710926606 0 0 0
125 608 4 -1.05 8.758696593800952 6.756814058977219 5.841813879246302 0 0 0
126 609 4 -1.05 16.512190970433725 4.921654064299777 3.113360113524427 0 0 0
129 612 4 -1.05 10.858831169927456 7.9685624409723 6.309500362340082 0 0 0
132 12 3 -0.95 11.820557853465742 6.216463909939344 9.851224576983764 0 0 0
133 12 5 0.425 12.723819933249326 6.10841472270028 9.341086818157198 0 0 0
706 131 6 -0.8476 -3.558070103374207 15.125931172721712 9.947000195132828 0 0 0
339 703 2 1.05 15.30318090744439 6.379250948028791 11.43799501184748 -1 0 0
629 123 6 -0.8476 2.237778080484526 6.887757787544795 11.972920536079856 0 0 0
143 67 6 -0.8476 11.707152214659914 10.394235975526058 8.403503687642363 0 0 0
144 67 7 0.4238 11.225059614378035 10.021586696930296 9.235847876799737 0 0 0
145 67 7 0.4238 12.657557804755266 10.568129399936742 8.696225237141649 0 0 0
146 68 6 -0.8476 6.457965988547605 8.493767996333384 10.868412403809321 0 0 0
147 68 7 0.4238 5.774059227942443 9.216223003166577 10.724773024624286 0 0 0
148 68 7 0.4238 6.1480976473422215 7.7308268441991705 10.26282658265361 0 0 0
152 70 6 -0.8476 10.787410511297628 9.45062346810049 10.61459515327802 0 0 0
312 88 6 -0.8476 0.6964654531684205 1.8544713048797137 12.078937095155219 0 0 0
676 874 4 -1.05 -1.0257503080541706 11.290133730366895 9.749801225002502 0 0 0
399 99 7 0.4238 -7.303257006116337 11.461736492481691 11.441882194095959 0 0 0
561 43 1 2.1 6.527959893974017 7.026083658752605 2.174206654643791 0 0 0
160 72 7 0.4238 5.732257695625545 11.204474667187611 11.483121049563302 0 0 0
161 13 1 2.1 9.590373192727752 13.409140301515588 2.290299911698173 0 0 0
164 614 1 2.1 3.8211344794637596 16.302769401451155 6.429145576654475 0 0 0
166 18 1 2.1 6.562213120522782 12.1582885471537 8.836157150030937 0 0 0
167 15 1 2.1 7.073365021718371 16.84708856505882 2.138442822340889 0 0 0
170 616 1 2.1 5.410744932010549 13.657063885369395 6.365532659077442 0 0 0
171 617 2 1.05 9.30353975053086 13.529345133516786 5.565487016965291 0 0 0
174 620 2 1.05 3.68126435879158 16.623453973969518 3.3742173430674827 0 0 0
175 621 2 1.05 5.813306551492283 13.578357425784256 3.4000157693142734 0 0 0
178 624 2 1.05 7.26662506288842 16.484733001615748 5.4411058753023225 0 0 0
318 90 6 -0.8476 16.851899044354898 3.805514572247412 12.067066698199785 -1 0 0
395 98 6 -0.8476 -0.17093311683684548 5.119989387730271 11.453826360535553 0 0 0
183 627 4 -1.05 7.440485471530607 10.996355750169352 8.075907285931338 0 0 0
158 72 6 -0.8476 5.781921355826205 10.905831134332368 12.453521954628975 0 0 0
187 631 4 -1.05 4.624799391316136 14.980939906331965 6.729502675182828 0 0 0
188 632 4 -1.05 10.3950713112032 14.236072044321862 3.314637325951928 0 0 0
191 635 4 -1.05 8.779635025595152 11.19835923223935 5.905154561933369 0 0 0
192 636 4 -1.05 8.261044468813601 13.017543688946175 2.95674490624086 0 0 0
195 639 4 -1.05 2.5936508932849165 16.01910284854943 5.498388672831407 0 0 0
196 640 4 -1.05 5.58190715782758 11.518336841510061 9.842502532865819 0 0 0
157 71 7 0.4238 12.617827495161416 5.415271357398828 11.032024510951743 0 0 0
201 643 4 -1.05 5.790902004092307 12.95780088940366 7.700631708794424 0 0 0
202 644 4 -1.05 6.190563579008996 15.870747180439736 2.98422649736922 0 0 0
205 647 4 -1.05 4.539734333141875 12.78797867246989 5.4189896553392 0 0 0
206 648 4 -1.05 12.019865204766461 10.98809108589116 3.630693201512282 0 0 0
209 651 4 -1.05 6.668221424116891 14.133960756379867 5.5216703261358555 0 0 0
212 18 3 -0.95 7.5691100176360875 13.073569940810883 9.618740240851144 0 0 0
213 18 5 0.425 8.394046707457164 12.804486592622123 10.219761351027202 0 0 0
264 667 4 -1.05 -7.819616637590813 17.987298893276584 1.7153476825184533 0 -1 0
689 885 4 -1.05 0.06809846376800108 14.444504162457248 5.759555017552914 0 0 0
654 854 2 1.05 -3.2695554299483933 16.606569888436855 3.061184159377913 0 0 0
223 76 6 -0.8476 8.041488930381568 15.626892064968725 9.020631747464726 0 0 0
224 76 7 0.4238 7.989346127191408 14.630960941007007 9.108066092285927 0 0 0
225 76 7 0.4238 8.999635879035198 15.904200398093781 8.9169724099547 0 0 0
226 77 6 -0.8476 6.365505453724478 15.939162242326054 11.095189474618657 0 0 0
227 77 7 0.4238 7.1279883162942115 16.315471384666477 11.649153943746214 0 0 0
228 77 7 0.4238 6.762848360404311 15.81315271751054 10.149715384094991 0 0 0
668 866 4 -1.05 3.3787736540600495 14.25133730001443 2.833281525073244 0 0 0
556 116 7 0.4238 -0.732996252988844 18.318184439949793 11.495093966397432 0 -1 0
664 862 4 -1.05 3.487823236821034 11.837253704105898 1.8711446208647626 0 0 0
705 130 7 0.4238 0.4545628416155497 17.73167029440671 9.755123765854323 0 0 0
720 135 7 0.4238 -4.96578506382284 17.429564516382452 11.293271602149014 0 0 0
240 81 7 0.4238 1.8206603168368245 16.662337319088607 11.219699486185837 0 0 0
241 19 1 2.1 3.6807511215376163 0.7759845646574404 2.0243681137469656 0 0 0
244 653 1 2.1 -1.7058042397193767 3.9717393529132736 6.670047324269159 0 0 0
246 24 1 2.1 1.8030575087208105 0.05773914852396377 8.794663776677954 0 0 0
247 21 1 2.1 1.2529342629500422 4.5681373675140176 2.083214861612772 0 0 0
250 655 1 2.1 -0.0752545294808246 1.3733757373157665 6.715363476998181 0 0 0
251 656 2 1.05 3.4770191798243397 1.2375835473829633 5.3489732229088425 0 0 0
254 659 2 1.05 -1.9470769594870985 4.2300073230894375 3.466384461761334 0 0 0
255 660 2 1.05 0.1610999597963879 1.294538710979778 3.5184219723956542 0 0 0
258 663 2 1.05 1.8401710637945978 4.239426665751958 5.70092131886659 0 0 0
19 547 2 1.05 12.019794241074354 2.3526103212598195 12.287812437532521 0 0 0
672 870 4 -1.05 1.2926621730855055 12.89861715085878 2.6622064622045483 0 0 0
263 666 4 -1.05 -10.081516347685062 17.15286450971398 8.198013962746964 0 0 0
154 124 7 0.4238 2.9554423549831714 9.99441491938356 8.917522325880572 0 0 0
267 670 4 -1.05 -0.9963117773872582 2.5881507912511887 7.19751699243254 0 0 0
268 671 4 -1.05 4.622433389567313 1.6654728658784839 2.7814603701991847 0 0 0
271 674 4 -1.05 -9.06202977769979 17.414525118914906 5.856786574713825 0 -1 0
272 675 4 -1.05 2.432161953403082 0.5265035144457733 3.0014362666127483 0 0 0
275 678 4 -1.05 17.737449142201484 3.5751599608191746 5.9151770283526055 0 0 0
276 679 4 -1.05 -10.866662650046681 18.576684029291368 10.260997771194031 0 -1 0
236 80 7 0.4238 9.397225136317768 12.979822667358215 12.32733456304642 0 0 0
281 682 4 -1.05 0.5820672019858948 0.5638103525146787 7.889285398656086 0 0 0
282 683 4 -1.05 0.42220748375981565 3.292022914360535 2.4584146925082337 0 0 0
285 686 4 -1.05 19.740097787967393 0.37225763295518927 5.882916310939229 0 0 0
286 687 4 -1.05 -5.595103525536734 17.298015055010886 2.787487987652941 0 -1 0
289 690 4 -1.05 1.1298380454212984 1.8839039955646515 5.849263464530909 0 0 0
292 24 3 -0.95 2.9955929703251183 1.144105997281562 8.594862955703183 0 0 0
293 24 5 0.425 2.8379695807376493 2.151674299696524 8.577741416840382 0 0 0
75 62 6 -0.8476 16.404800747124835 0.6200617616802111 12.015072946997996 0 0 0
686 882 4 -1.05 5.580474765705816 10.945386191429355 3.022860179253395 0 0 0
78 63 6 -0.8476 8.700396001849919 5.908481946628909 12.012916027132134 0 0 0
303 85 6 -0.8476 1.5828756786425109 3.733962595440834 8.440349158126027 0 0 0
304 85 7 0.4238 2.1667657781550256 4.357132924577449 9.001410256236575 0 0 0
305 85 7 0.4238 0.7325979735056155 3.6736942339127445 8.951256107604966 0 0 0
306 86 6 -0.8476 18.336516335575354 2.004843693079857 9.717605098473484 -1 0 0
307 86 7 0.4238 18.991524647622835 2.0984147507825903 8.95267574155689 -1 0 0
308 86 7 0.4238 17.480207586018867 1.5369737118640043 9.33562269813437 -1 0 0
475 107 6 -0.8476 -4.997841857317734 13.062383349222904 12.264514085241878 0 0 0
314 61 7 0.4238 14.654788471332507 2.316648168848304 10.639477370589896 0 0 0
667 865 4 -1.05 -1.9774417501155916 15.249546704843947 7.034228469819435 0 0 0
626 122 6 -0.8476 0.0711680471610997 8.795605086058803 10.09676685719588 0 0 0
381 93 7 0.4238 -2.449193810372888 7.079086409940485 12.249372324182058 0 0 0
320 90 7 0.4238 17.087974878863868 4.1806341954685395 11.151626394826412 -1 0 0
321 25 1 2.1 -0.33840567228792834 7.150952029518202 2.089467613952217 0 0 0
324 692 1 2.1 -5.710580905958061 10.176218815514813 6.704203927694597 0 0 0
326 30 1 2.1 -2.6781921715676504 5.87310341511867 8.88712344076956 0 0 0
327 27 1 2.1 -2.7780772310223356 10.604385024994217 2.06099362429046 0 0 0
330 694 1 2.1 -3.99634184638301 7.738535223319556 6.692532440654501 0 0 0
331 695 2 1.05 -0.5038114618494476 7.311131130675131 5.332430925471465 0 0 0
334 698 2 1.05 -6.3351579933680915 10.464336194276333 3.7957482359360237 0 0 0
335 699 2 1.05 -3.772014315837307 7.375393970515015 3.482315671038658 0 0 0
338 702 2 1.05 -2.44515820076972 10.508779291623956 5.278550458246892 0 0 0
259 664 2 1.05 18.752813529146884 1.9687250025147034 12.108248325318382 -1 0 0
658 858 2 1.05 0.36794224949340476 16.735157259623765 4.9213134279064255 0 0 0
343 705 4 -1.05 -2.0407675881810787 4.811044402126501 7.931653839047301 0 0 0
315 89 6 -0.8476 -8.763520387538067 18.567369344696882 11.860587422047885 0 -1 0
347 709 4 -1.05 -4.635908691922444 9.077406216438378 7.208872957388668 0 0 0
348 710 4 -1.05 0.70464183661516 8.007488512416812 2.8231641979902435 0 0 0
351 713 4 -1.05 -0.7540680662067748 4.7172930258032295 5.686231084927599 0 0 0
352 714 4 -1.05 -1.465849708367205 6.771310389853479 3.048076994571147 0 0 0
355 717 4 -1.05 13.762926945788651 9.535885563554439 6.001723261107694 0 0 0
356 718 4 -1.05 16.94330438844843 5.267648137037481 9.86161871966034 -1 0 0
477 107 7 0.4238 -5.667733656555805 12.881551850535898 11.52522223675722 0 0 0
361 721 4 -1.05 -3.3233513525113954 6.93705852329051 7.9768747449660244 0 0 0
362 722 4 -1.05 -3.604139682309948 9.716285210679235 2.9741966762010703 0 0 0
365 725 4 -1.05 15.780947217589093 6.740841073387336 5.98078032391352 0 0 0
366 726 4 -1.05 2.2633686348952953 4.994367195713449 3.1572297333661408 0 0 0
369 729 4 -1.05 -2.8196768976898507 8.103424129942436 5.6790344380814926 0 0 0
372 30 3 -0.95 -1.529761091733899 6.558117142038087 9.748424840534096 0 0 0
373 30 5 0.425 -0.9954509623957343 6.0315966698816315 10.45558767662733 0 0 0
651 851 2 1.05 2.1651859436037824 13.657177032444292 5.090820041198334 0 0 0
681 877 4 -1.05 -0.6493668913814361 13.186141883500019 7.859487068416606 0 0 0
718 135 6 -0.8476 -5.145849867122888 17.374120028448612 12.33145506666839 0 0 0
383 94 6 -0.8476 -3.0746928096778743 11.131445806862653 8.127234024534856 0 0 0
384 94 7 0.4238 -3.4318384020117714 10.229915441002403 8.374884993515085 0 0 0
385 94 7 0.4238 -2.413301123619584 11.272030927089407 8.894469586287384 0 0 0
386 95 6 -0.8476 14.717906766489623 8.644137213535728 10.687021903072823 -1 0 0
387 95 7 0.4238 14.25493164126392 9.024016593137988 9.88747081024479 -1 0 0
388 95 7 0.4238 -5.139382493295219 9.132815807679988 10.940399958572982 0 0 0
634 97 7 0.4238 -3.1136648336212764 10.290349135654415 11.8596270798649 0 0 0
394 70 7 0.4238 11.370031003669943 8.65753335062053 10.829317762282182 0 0 0
398 99 6 -0.8476 12.98231385618607 10.950787182729288 12.223452003007145 -1 0 0
675 873 4 -1.05 -4.15726934315176 16.1732807834192 5.9718779290704 0 0 0
627 122 7 0.4238 -0.458572049202446 7.957846292286905 9.822353218058893 0 0 0
424 745 4 -1.05 -3.4790089339322523 12.032550815588744 1.854882208642976 0 0 0
401 31 1 2.1 -4.548235806538338 13.172388750966993 2.0488876571768104 0 0 0
404 731 1 2.1 -9.757750940671485 16.436013003384296 6.832646999278149 0 0 0
406 36 1 2.1 -6.2007747829246735 12.375649169877887 8.715953706756801 0 0 0
407 33 1 2.1 -6.981047728961624 16.763082361570884 2.190714546752358 0 0 0
410 733 1 2.1 -7.989724797284127 13.951063466577157 6.780854652451159 0 0 0
411 734 2 1.05 -4.548988633641417 13.579865752001739 5.4437896816592986 0 0 0
414 737 2 1.05 -10.110046697043785 16.7323308345113 3.6546979418092627 0 0 0
415 738 2 1.05 -7.95828733211541 13.467188334731299 3.6363317825600006 0 0 0
418 741 2 1.05 -6.479491293199996 16.83273538069808 5.350317355598307 0 0 0
155 71 6 -0.8476 13.303016900013283 4.8709619550899586 11.586284113101186 0 0 0
73 115 7 0.4238 8.295648847902221 1.884973617740695 12.364613214116275 0 0 0
423 744 4 -1.05 -6.234359133083633 11.00231069163934 7.914636553149799 0 0 0
646 54 1 2.1 0.004213383275878947 12.142575399204855 8.899837869746552 0 0 0
427 748 4 -1.05 -8.825019984929083 15.211845787181078 7.1394009403169765 0 0 0
428 749 4 -1.05 -3.903566630013388 14.26951772606124 2.8998331752297055 0 0 0
431 752 4 -1.05 -5.006495562235097 11.163494716604434 5.723728171916574 0 0 0
432 753 4 -1.05 -5.862992651247061 12.578004354687597 2.6964458796818938 0 0 0
435 756 4 -1.05 9.648706741069454 15.886857832411845 6.129660494345804 0 0 0
436 757 4 -1.05 -6.410940587915257 12.108682302399696 10.169276056503676 0 0 0
685 881 4 -1.05 -2.161846411374497 13.05416601482926 5.698939194234008 0 0 0
441 760 4 -1.05 -7.391813369070816 13.366179659656341 8.093365752566942 0 0 0
442 761 4 -1.05 -7.7450586894759 16.073103329029927 3.367091375494222 0 0 0
445 764 4 -1.05 11.777149728248325 12.97043901521976 6.037733843338991 0 0 0
446 765 4 -1.05 -1.3822223702028313 10.900962044322108 2.7058082395128658 0 0 0
449 768 4 -1.05 -6.8182950540662794 14.398085758844326 5.822168788698973 0 0 0
452 36 3 -0.95 -4.806333637712919 13.167178179577885 8.39508061733145 0 0 0
453 36 5 0.425 -4.136251704960309 12.370829445208226 8.223640017568684 0 0 0
184 628 4 -1.05 10.387312030481668 12.086078365501496 2.082061187584419 0 0 0
693 54 5 0.425 0.6431564758077303 13.174088746676178 10.835936240206193 0 0 0
659 859 2 1.05 -3.114717436550002 14.509036333723301 12.470161163783715 0 0 0
463 103 6 -0.8476 -7.1112665234197 17.330933985881966 9.627451768894442 0 0 0
464 103 7 0.4238 -6.147715300059796 17.691153808259536 9.700558958143539 0 0 0
465 103 7 0.4238 -7.641671694132873 17.63133083725061 10.443716035319456 0 0 0
466 104 6 -0.8476 -8.715966831102238 14.689649499542853 10.108629026181934 0 0 0
467 104 7 0.4238 -8.494575437152964 14.03885769846722 9.368177586063378 0 0 0
468 104 7 0.4238 -8.172595146762685 15.530844932406778 9.834857584755538 0 0 0
99 586 2 1.05 8.546747460773993 8.53850415870597 12.138847281681867 0 0 0
478 108 6 -0.8476 8.576270785804104 17.09002100459181 12.119398997703525 -1 0 0
692 54 3 -0.95 1.0249369676741278 12.852812872726334 9.919551886729414 0 0 0
238 81 6 -0.8476 2.1399610643356044 16.161048570161313 12.060126698830013 0 0 0
393 70 7 0.4238 11.102894666032999 10.169279168099717 11.235475408970892 0 0 0
480 108 7 0.4238 8.807132051682931 17.625261644659123 11.271230685216917 -1 0 0
641 49 1 2.1 2.6062295500433357 13.23190935101291 1.9208839801437203 0 0 0
484 770 1 2.1 5.289318336493826 3.9572213639191856 6.55447703699235 0 0 0
486 42 1 2.1 -3.742686143971467 18.508891205766204 8.735391293178427 0 -1 0
631 123 7 0.4238 2.4704076983845455 6.297308036851295 11.166044035439326 0 0 0
490 772 1 2.1 6.974625978346888 1.40348735758006 6.3838095365712615 0 0 0
491 773 2 1.05 10.507923830455871 1.146963014808603 5.0024526447758 0 0 0
494 776 2 1.05 4.9522325591362755 4.041589843023927 3.296364401495107 0 0 0
495 777 2 1.05 7.250229925655302 0.9128029996296442 3.165374863185305 0 0 0
498 780 2 1.05 8.670489460801488 4.289840218368811 5.4291871392856175 0 0 0
104 589 4 -1.05 14.407498767695348 5.887789717868372 2.0836840914675014 0 0 0
628 122 7 0.4238 -0.4967702833135495 9.59092906667216 9.957328225408261 0 0 0
503 783 4 -1.05 -3.1357949411660972 17.418555211726595 7.850706626304825 0 0 0
644 848 1 2.1 -2.777526168841786 16.53044350324974 6.591017398771619 0 0 0
507 787 4 -1.05 6.125036886292866 2.71161539475206 6.872799424850401 0 0 0
508 788 4 -1.05 11.551486419191267 1.6512025446798289 2.757211705033296 0 0 0
511 791 4 -1.05 -1.9593739114559583 17.273242533282538 5.523593414416628 0 -1 0
512 792 4 -1.05 9.476432371035717 0.22221637981285597 2.660415410834649 0 0 0
515 795 4 -1.05 4.111793076029335 3.5317372542875094 5.6245240619291295 0 0 0
516 796 4 -1.05 -4.612941310755043 17.96581464140614 9.81939433605117 0 -1 0
682 878 4 -1.05 -0.5398006584993963 15.762821870904208 2.836452729589282 0 0 0
521 799 4 -1.05 7.530249579946694 0.735219620016681 7.696660057693327 0 0 0
522 800 4 -1.05 7.3918862756968995 3.3692658329691128 2.6087628676771066 0 0 0
525 803 4 -1.05 5.958160377452125 0.5541559915497495 5.6511576478420595 0 0 0
526 804 4 -1.05 1.4744981777748116 17.229123342126357 2.795665776594652 0 -1 0
529 807 4 -1.05 8.154903971219204 1.8891124553388725 5.55099831458555 0 0 0
532 42 3 -0.95 9.616564997823748 0.8388868732275393 9.365624649271606 0 0 0
533 42 5 0.425 10.55583345443278 0.4651082729104649 9.5522910469056 0 0 0
655 855 2 1.05 -1.1620461786228151 13.450508842545235 2.866706236301238 0 0 0
579 820 2 1.05 1.8070696723312454 9.261546329605766 11.742836771903884 0 0 0
663 861 4 -1.05 0.7374045784107358 11.074186908176559 7.939920535347952 0 0 0
543 112 6 -0.8476 7.217079228225679 4.539803947739215 9.948670911737533 0 0 0
544 112 7 0.4238 8.257161131569818 4.60750361342127 9.832774159176248 0 0 0
545 112 7 0.4238 6.980201123682874 3.5940323593238745 9.785696072852312 0 0 0
546 113 6 -0.8476 5.6352954321462 1.8078071794744972 9.862096403369675 0 0 0
547 113 7 0.4238 5.003674740814766 1.9350714672545688 9.083795951824658 0 0 0
548 113 7 0.4238 6.051705597754874 0.9221111183380175 9.616971604564412 0 0 0
558 117 6 -0.8476 2.327926759589759 3.955488050220605 11.887349318682753 0 0 0
554 88 7 0.4238 0.9895793781385469 1.0063277257489072 11.560637499877245 0 0 0
650 850 1 2.1 -1.1368054621629813 13.907307716360748 6.615319957626397 0 0 0
632 124 6 -0.8476 3.232063135429985 10.041829045855227 9.887193307642049 0 0 0
313 61 7 0.4238 14.2117881009073 0.7434884187868019 10.786801014514674 0 0 0
560 117 7 0.4238 2.790184228814836 4.60368147696973 11.251528144366402 0 0 0
553 88 7 0.4238 1.425661724728101 2.542334148489761 11.845727237938839 0 0 0
564 809 1 2.1 1.0671425475120777 10.29113110451203 6.5970443099578695 0 0 0
566 48 1 2.1 4.235901308009505 5.842262963963814 8.817834259655008 0 0 0
567 45 1 2.1 4.313618112922873 10.632569155517293 2.146230980110851 0 0 0
570 811 1 2.1 2.9399081180352016 7.742067862322239 6.6157162062001 0 0 0
571 812 2 1.05 6.418383822220293 7.406026607507588 5.215755950273802 0 0 0
574 815 2 1.05 1.0216059799062813 10.544787850013535 3.3263729274611404 0 0 0
575 816 2 1.05 3.0424961291896815 7.329048436218362 3.2999921829699286 0 0 0
578 819 2 1.05 4.498402415476106 10.375855861234982 5.153023367648001 0 0 0
79 63 7 0.4238 7.761067376309766 5.55073639630553 12.157904571329116 0 0 0
235 80 6 -0.8476 9.488664540153472 12.102494119932777 11.795156280738588 0 0 0
583 822 4 -1.05 4.740631157626976 4.686346245919098 7.831966936038346 0 0 0
317 89 7 0.4238 -9.658357370960738 18.50969464485594 11.344361333636215 0 -1 0
587 826 4 -1.05 2.20041168518892 9.174599584102396 6.957615852680041 0 0 0
588 827 4 -1.05 7.286901175930821 8.144724812366597 2.973005714627739 0 0 0
591 830 4 -1.05 6.285783942387002 4.891051827733296 5.657504583462078 0 0 0
592 831 4 -1.05 5.323704748757562 6.537789159990338 3.018697033885327 0 0 0
595 834 4 -1.05 -0.13490557249147037 9.641311665763881 5.889893247890486 0 0 0
596 835 4 -1.05 3.1507356493569687 5.338996131048623 9.806143025131348 0 0 0
704 130 7 0.4238 -0.7115050004919181 16.641365980890697 9.705620735737925 0 0 0
601 838 4 -1.05 3.6149533801521074 6.965620812864563 7.877212577977907 0 0 0
602 839 4 -1.05 3.5139375265621124 9.611154813385062 2.9413861435034954 0 0 0
605 842 4 -1.05 1.8222561113122615 6.908453032018308 6.003124854027796 0 0 0
606 843 4 -1.05 9.351496764265296 4.968354452407532 3.2091399905983695 0 0 0
609 846 4 -1.05 4.119485226934952 7.98644454754825 5.689239385846322 0 0 0
612 48 3 -0.95 5.490000694503702 6.403058462918193 9.561928725691713 0 0 0
613 48 5 0.425 6.285771132881007 5.76482329097678 9.802522098920807 0 0 0
647 51 1 2.1 0.3031740082855209 16.78798229585143 1.9272163776712388 0 0 0
156 71 7 0.4238 12.847135155824153 4.748992346557049 12.527182980131908 0 0 0
179 625 2 1.05 4.334465672649039 15.004956481327458 12.005582084927392 0 0 0
623 121 6 -0.8476 3.5161886804420006 13.133614528217002 10.82133964886493 0 0 0
624 121 7 0.4238 2.6154734818265393 12.86927609307437 10.342765640615697 0 0 0
625 121 7 0.4238 4.220908456295857 12.43540855025045 10.516068504184299 0 0 0
638 126 6 -0.8476 -1.573227306514097 10.922573212741632 12.129508045159712 0 0 0
397 98 7 0.4238 -0.7638643018306582 4.925199434849971 12.247772101369339 0 0 0
712 133 6 -0.8476 -0.40433975595201116 14.386600412490525 12.414102947363991 0 0 0
499 781 2 1.05 5.103606575453956 1.8058912100604514 12.235664164119042 0 0 0
237 80 7 0.4238 8.912216318887205 11.425593342809226 12.323968951442891 0 0 0
504 784 4 -1.05 -0.5925171793233025 17.980715844548772 1.5239675997466724 0 -1 0
382 93 7 0.4238 -3.682275041383672 8.134962060636772 12.477351222767833 0 0 0
473 79 7 0.4238 8.779593195186063 15.408016270326426 12.474317430965348 0 0 0
555 116 6 -0.8476 -0.9306863664116919 18.568858913837794 12.459296954301427 0 -1 0
76 62 7 0.4238 4.449781427557543 18.34866013055313 12.499179494264945 0 -1 0
2 8 1 2.1 14.577163511555339 5.707799409622495 21.424528322955858 0 0 0
3 535 1 2.1 12.801889246780252 2.3343733396397894 17.181740705382495 0 0 0
5 5 1 2.1 12.188755599722802 4.548097058375046 15.244578167025642 0 0 0
8 4 1 2.1 16.363207663280445 3.1045489764301024 21.865670227178487 0 0 0
9 537 1 2.1 10.226820551741225 5.797391116073326 17.306769939713057 0 0 0
12 540 2 1.05 13.846753164435372 5.491913243339084 18.200938056478154 0 0 0
13 541 2 1.05 13.071104480011375 2.6923888864702783 20.673102503165357 0 0 0
16 544 2 1.05 10.88721813800694 5.798008265815653 20.692626436661566 0 0 0
17 545 2 1.05 16.020610347804407 2.2818782337630528 18.629676177436284 0 0 0
21 2 3 -0.95 18.31914678070055 0.42402067806114546 22.629428572036556 0 1 0
22 548 4 -1.05 12.679998820016328 3.134401885793406 15.850224090160097 0 0 0
25 551 4 -1.05 15.41289548323525 4.452717351108112 21.80318600471652 0 0 0
26 552 4 -1.05 13.599551474760583 0.9900952627716866 16.914787868804147 0 0 0
29 555 4 -1.05 19.694088012672353 0.3619391233853659 20.312340473999615 0 0 0
30 556 4 -1.05 13.580784886366008 3.177705439200475 18.22493441887212 0 0 0
33 559 4 -1.05 13.33141562099618 5.1931856214088405 20.727686904179023 0 0 0
34 560 4 -1.05 11.357089288623207 1.9776652772464147 17.626784052488105 0 0 0
37 563 4 -1.05 11.936415264845033 4.295274760136114 13.751485551181602 0 0 0
39 4 3 -0.95 16.651636930547703 2.634000191766815 23.30931975311725 0 0 0
40 564 4 -1.05 10.981811535768022 5.156046340170442 16.033813377501474 0 0 0
43 567 4 -1.05 15.672492759255352 2.0109670368622306 20.941161980148497 0 0 0
44 568 4 -1.05 9.099793737909897 4.864680018677406 17.817430901315475 0 0 0
47 571 4 -1.05 17.65395284001819 3.5176640112716773 21.036300420246224 0 0 0
48 572 4 -1.05 3.2775938438664816 18.436316355796833 18.314287105854724 0 -1 0
50 5 3 -0.95 13.416238131734268 5.571913465940439 15.436048896280141 0 0 0
51 5 5 0.425 14.081092193549898 5.474285773000839 14.658477881233761 0 0 0
687 883 4 -1.05 2.794214921419739 15.68185368771403 21.58595216644879 0 0 0
691 53 5 0.425 -0.5141184588503188 17.474548783027718 15.264087244525966 0 0 0
700 129 6 -0.8476 0.5881830361905969 15.446865547631434 15.245157306033175 0 0 0
60 57 6 -0.8476 16.08701697159443 2.6850586661614013 15.720077621138385 0 0 0
61 57 7 0.4238 17.046015457941305 2.4216150561260235 15.997570960064198 0 0 0
62 57 7 0.4238 15.885550815952675 3.6320673847446256 16.127920577160765 0 0 0
69 60 6 -0.8476 14.541427791527177 1.6323896525220944 13.884707965954126 0 0 0
70 60 7 0.4238 15.252136411550895 2.127916507782913 14.438166180452175 0 0 0
71 60 7 0.4238 13.947762147237924 1.2373500028117588 14.566811831498097 0 0 0
719 135 7 0.4238 -4.221037986559494 17.301816370456404 12.84436964470811 0 0 0
713 106 7 0.4238 -6.493112477548519 15.176109735545557 14.087678953111116 0 0 0
639 126 7 0.4238 -0.702708522642147 10.691568659882185 12.635614568575518 0 0 0
82 14 1 2.1 10.483008064871665 11.895855876269648 21.613233859526815 0 0 0
83 574 1 2.1 8.59799744758172 8.399345819982264 17.098552503672163 0 0 0
85 11 1 2.1 8.184222541541496 10.673643287515327 15.025261854007312 0 0 0
88 10 1 2.1 12.134975593622633 9.313477148344454 21.507074033701024 0 0 0
89 576 1 2.1 6.237637655270146 12.069864693746794 16.98206641110523 0 0 0
92 579 2 1.05 9.804589100465819 11.718864887399095 17.93600140796602 0 0 0
93 580 2 1.05 8.989937569824054 9.059732675713853 20.28341991269251 0 0 0
96 583 2 1.05 6.893531401636632 12.105411683667585 20.410872875376306 0 0 0
97 584 2 1.05 11.957448269397482 8.588462203913405 18.019483458029853 0 0 0
101 8 3 -0.95 14.212857752679724 6.583670727986447 22.71187426712633 0 0 0
102 587 4 -1.05 8.273319500022824 9.24321806930116 15.72049968859193 0 0 0
105 590 4 -1.05 11.286256281786843 10.600895911378208 21.864385414947243 0 0 0
106 591 4 -1.05 9.58319162141429 7.207720334332053 16.82506507286421 0 0 0
109 594 4 -1.05 15.40003663773929 6.695191448919867 20.53044870301535 0 0 0
110 595 4 -1.05 9.402155640552287 9.380139220749681 17.990474108425364 0 0 0
113 598 4 -1.05 9.326900103423041 11.594485961319894 20.6716209584197 0 0 0
114 599 4 -1.05 7.312923709932956 7.962778734413384 17.779205744311355 0 0 0
117 602 4 -1.05 8.112653674144672 10.46840916441501 13.53446167031824 0 0 0
119 10 3 -0.95 12.378427716075398 8.444361366698308 22.80478560661814 0 0 0
120 603 4 -1.05 7.016058280682049 11.47730732590974 15.726522149667048 0 0 0
123 606 4 -1.05 11.283139792660897 8.52492482048795 20.496198581657616 0 0 0
124 607 4 -1.05 5.287084030423033 11.02384492630222 17.597334845021035 0 0 0
127 610 4 -1.05 13.556599851278465 9.669847620376572 20.901478548813948 0 0 0
128 611 4 -1.05 11.358318412189028 6.1598494903059295 18.308690910559136 0 0 0
130 11 3 -0.95 9.468656147106765 11.526720668647421 15.444300616966897 0 0 0
131 11 5 0.425 10.386323607082158 11.792357948126538 15.00508897822291 0 0 0
232 79 6 -0.8476 9.138343295677194 14.508304838873565 12.866424295167375 0 0 0
390 96 7 0.4238 15.910439697707112 4.741280072900761 13.470578185393041 -1 0 0
690 53 3 -0.95 -1.4010948409328368 17.606866647333185 15.740535267055806 0 0 0
140 66 6 -0.8476 12.17080930069179 8.123028226484864 15.52102092039685 0 0 0
141 66 7 0.4238 12.706571877254586 7.241986788330149 15.521497894559278 0 0 0
142 66 7 0.4238 12.801880043271426 8.889663210305576 15.628130466696126 0 0 0
149 69 6 -0.8476 10.669912555707663 7.885569833324518 13.157738130028747 0 0 0
150 69 7 0.4238 10.40271501030446 6.89425068329698 13.069549864265484 0 0 0
137 65 6 -0.8476 7.376004543391785 12.378361762040651 23.36434936523434 0 0 0
476 107 7 0.4238 -4.996387461031118 12.202344033434391 12.794215823873019 0 0 0
724 10 5 0.425 13.161638653622417 7.742258854098049 22.850420232568112 0 0 0
701 129 7 0.4238 1.0054461230750016 16.272422516778736 15.680436288082209 0 0 0
162 2 1 2.1 6.605250413721037 18.169345488473194 21.34387032213411 0 0 0
163 613 1 2.1 4.512115625092926 14.68162806340996 16.94454965563384 0 0 0
165 17 1 2.1 4.1263756678082855 17.131748110230138 15.17965195785621 0 0 0
168 16 1 2.1 8.074933436419368 15.511407839832257 21.881372267523094 0 0 0
169 615 1 2.1 2.1837415896885406 18.271307492828857 17.173746993068967 0 0 0
172 618 2 1.05 5.68230282449336 17.77546354908117 18.27484986371692 0 0 0
173 619 2 1.05 4.892774052778035 15.284735469258253 20.58143723362752 0 0 0
176 622 2 1.05 3.0129750961192148 18.35633191733803 20.964452392893904 0 0 0
177 623 2 1.05 7.813085019615846 14.712952576655868 18.424812558348528 0 0 0
181 14 3 -0.95 9.969939065989003 12.585901366163968 22.932353427448493 0 0 0
182 626 4 -1.05 4.360525016140664 15.705440040980204 15.796043887446189 0 0 0
185 629 4 -1.05 7.419429748030262 16.960804697338624 21.93277236198611 0 0 0
186 630 4 -1.05 5.429804470840379 13.461440013343319 16.532259155295947 0 0 0
189 633 4 -1.05 11.540757230147495 12.922607139473168 20.9513129297341 0 0 0
190 634 4 -1.05 5.300868872895413 15.350547566113065 18.172372570026287 0 0 0
193 637 4 -1.05 5.312818220839042 17.6615232024926 20.71126547888247 0 0 0
194 638 4 -1.05 3.13092207209595 14.119710055431002 17.371502134476586 0 0 0
197 641 4 -1.05 4.1120026070901945 17.165737043133614 13.64512631686572 0 0 0
199 16 3 -0.95 8.19955576340732 14.883478066256108 23.318592472537308 0 0 0
200 642 4 -1.05 2.872557019282974 17.8155118377531 15.885996230449418 0 0 0
203 645 4 -1.05 7.166051937886483 14.59773053906997 20.97610602334894 0 0 0
204 646 4 -1.05 1.1162519776741189 17.24897795060248 17.682025610201073 0 0 0
207 649 4 -1.05 9.511514716208042 15.70574545516976 21.30969448900188 0 0 0
208 650 4 -1.05 7.286749547281424 12.534991881749104 18.068450960592383 0 0 0
210 17 3 -0.95 5.417008090970374 18.11059017277329 15.754878657409987 0 0 0
211 17 5 0.425 5.949279065806903 18.610486424905783 15.02345015984113 0 0 0
77 62 7 0.4238 15.645355689295709 0.9632975257502491 12.569052966509469 0 0 0
714 106 7 0.4238 -6.199060438283534 16.30199023817942 12.848840303151187 0 0 0
59 56 7 0.4238 12.683144685453167 1.5056486107817957 23.236013378680255 0 0 0
220 75 6 -0.8476 8.34819738025746 14.271896275703309 15.781500176967938 0 0 0
221 75 7 0.4238 9.149533063113703 14.286261397398688 16.45542197330147 0 0 0
222 75 7 0.4238 8.160507452007021 13.339605901453123 15.554615987673625 0 0 0
229 78 6 -0.8476 5.420487333571136 13.534612768699384 13.675672656857902 0 0 0
230 78 7 0.4238 5.512712201016911 13.68849724656219 14.687868410987406 0 0 0
231 78 7 0.4238 5.639189843345467 12.54129895154962 13.530089091411929 0 0 0
736 46 5 0.425 6.355565258021036 7.897980790880335 22.937051107437657 0 0 0
633 97 7 0.4238 -4.527796997690038 10.32241904007318 12.659822686102281 0 0 0
1008 219 6 -0.8476 15.090513339216063 0.22575301140765827 23.40600170733729 0 1 0
242 26 1 2.1 0.8267466252531949 5.538671157245241 21.608591202420712 0 0 0
243 652 1 2.1 -1.1156567323081144 2.0166489005234944 17.046153783046016 0 0 0
245 23 1 2.1 -1.4888635411185542 4.359206571021539 14.982123075153012 0 0 0
248 22 1 2.1 2.4970228235262697 3.0561639692688365 21.720595304863192 0 0 0
249 654 1 2.1 -3.4138876110888465 5.668751192588683 17.076178443764643 0 0 0
252 657 2 1.05 0.019114347524294112 5.446239748166693 17.97219201994507 0 0 0
253 658 2 1.05 -0.8369534059306256 2.6850354844161295 20.525060110604134 0 0 0
256 661 2 1.05 -2.546947962434597 5.841133508451951 20.4448334045346 0 0 0
257 662 2 1.05 2.290611528679761 2.4569678434722877 18.059600095309108 0 0 0
261 20 3 -0.95 4.044595923253986 0.030332482047271302 23.145553108107727 0 1 0
262 665 4 -1.05 -1.4731836257565052 2.929507563050054 15.693234400847595 0 0 0
265 668 4 -1.05 1.6649209738473425 4.291183354839717 22.152370023871914 0 0 0
266 669 4 -1.05 -0.5009380440037958 0.6387283115290101 16.67063879638914 0 0 0
269 672 4 -1.05 5.60571966647122 0.3556097574635146 21.211254537699457 0 0 0
270 673 4 -1.05 -0.12352983817335833 2.869877727372072 17.822658420393147 0 0 0
273 676 4 -1.05 -0.1870805052255474 5.17449042676135 20.47105987151581 0 0 0
274 677 4 -1.05 18.17866096984997 1.7319049276173655 17.72071630098138 0 0 0
277 680 4 -1.05 -1.4881294037586335 4.171351089027628 13.46974789205608 0 0 0
279 22 3 -0.95 3.1455604392655085 2.4364070885695632 23.118488775312834 0 0 0
280 681 4 -1.05 -2.605028863238596 5.175939929224911 15.692595278198244 0 0 0
283 684 4 -1.05 1.565922164537257 2.001294771837974 21.09081983829465 0 0 0
284 685 4 -1.05 16.297947085719766 4.53960242082621 17.38028246050481 0 0 0
287 688 4 -1.05 3.5865313913532124 3.557542065024811 20.73791454578222 0 0 0
288 689 4 -1.05 1.5167195233856765 0.15171660078144988 17.987351691630813 0 0 0
290 23 3 -0.95 -0.08838727605250865 5.071216882806834 15.517068895915134 0 0 0
291 23 5 0.425 0.7232655933564401 4.459514949434915 15.312000927959863 0 0 0
471 105 7 0.4238 12.081547676351013 11.660288308108552 13.496911057627777 -1 0 0
359 28 3 -0.95 -1.3252967407756568 8.421685163724627 22.95239604520412 0 0 0
684 880 4 -1.05 -5.6881649293654215 17.158435386779054 17.714011583634008 0 0 0
300 84 6 -0.8476 1.6113961847945437 3.0187138039036547 14.667854462277951 0 0 0
301 84 7 0.4238 0.9136570446780049 2.886904982331089 13.96411565825574 0 0 0
302 84 7 0.4238 2.4801390947963045 3.1387370420467784 14.134820312895965 0 0 0
309 87 6 -0.8476 19.385775824315445 0.20489560034403936 13.836100228915653 -1 0 0
310 87 7 0.4238 -0.6089051958149153 0.6807008187091401 14.39463492492454 0 0 0
159 72 7 0.4238 6.719870632366597 10.727536349089512 12.772049329894134 0 0 0
311 87 7 0.4238 7.781625129824903 18.083817679996827 13.445911127106182 -1 -1 0
727 20 5 0.425 3.777524809482585 1.0617453347052235 23.135227208662524 0 1 0
722 4 5 0.425 16.99763708911314 1.6863051471042527 23.453597742213542 0 0 0
322 32 1 2.1 -3.163575005674536 11.853596692257273 21.567823327665785 0 0 0
323 691 1 2.1 -5.135976601520873 8.369823880275272 17.00756964778005 0 0 0
325 29 1 2.1 -5.482697590274119 10.81025004075156 15.18707240624742 0 0 0
328 28 1 2.1 -1.7073870025481612 9.181840238417655 21.61777919304445 0 0 0
329 693 1 2.1 -7.453434259026771 11.87107746028029 17.208115131149302 0 0 0
332 696 2 1.05 -4.181244454650122 11.672835748006408 18.32877091343048 0 0 0
333 697 2 1.05 -4.785376344525601 8.962832430945292 20.491297121570714 0 0 0
336 700 2 1.05 -6.817935739280771 12.073497485554666 20.541428112598698 0 0 0
337 701 2 1.05 -1.9699714209950434 8.6402314714028 18.274776342774274 0 0 0
341 26 3 -0.95 0.02243126090695492 6.122731800439226 22.85030125133382 0 0 0
342 704 4 -1.05 -5.3599126563688815 9.212318198640169 15.65447516073092 0 0 0
345 707 4 -1.05 -2.5302177441564857 10.450451736301675 21.970035035598684 0 0 0
346 708 4 -1.05 -4.017587214041518 7.167057703432895 16.709520806707484 0 0 0
349 711 4 -1.05 1.7877578638882579 6.6386100726401445 21.113213696293798 0 0 0
350 712 4 -1.05 -4.422515119401507 9.267099544708316 18.041783606055613 0 0 0
353 715 4 -1.05 -4.408411269859619 11.465212369159199 20.72968818547882 0 0 0
354 716 4 -1.05 14.266049919781159 7.751405817510942 17.514239026726905 0 0 0
357 719 4 -1.05 -5.62471929765916 10.880690896679168 13.659889717064019 0 0 0
319 90 7 0.4238 17.70624874862188 4.0326561214695875 12.573440975131541 -1 0 0
360 720 4 -1.05 -6.716822036001416 11.366279525886823 15.89358936055084 0 0 0
363 723 4 -1.05 -2.517124576652029 8.343645840810527 20.63375660620779 0 0 0
364 724 4 -1.05 12.264391902846125 10.809240660898348 17.789357159589684 0 0 0
367 727 4 -1.05 -0.4116068428679463 9.584876663730904 20.838268751089906 0 0 0
368 728 4 -1.05 -2.2994843678277648 5.912287598934183 18.130227186657624 0 0 0
370 29 3 -0.95 -4.187995698238577 11.651723298409792 15.65616044424736 0 0 0
371 29 5 0.425 -3.446370796168595 12.065817193249579 15.057507602940786 0 0 0
735 44 5 0.425 8.13960424103585 6.845479268624542 23.44071071811011 0 0 0
151 69 7 0.4238 11.323009524085347 7.915766653315454 13.967063263932342 0 0 0
479 108 7 0.4238 -11.227823496763746 17.056463432688673 12.690876455807814 0 0 0
1194 281 6 -0.8476 1.6974614540254145 9.223132549791352 23.096781938998483 0 0 0
699 128 7 0.4238 7.037690143870142 0.4162900208681298 22.785786870498416 0 1 0
474 79 7 0.4238 8.999205759668627 14.662171347464675 13.868974619521502 0 0 0
389 96 6 -0.8476 15.443710178980584 5.529955931591317 13.87751416867354 -1 0 0
57 56 6 -0.8476 13.336349971002987 2.2777867497975004 23.350523966237123 0 0 0
391 96 7 0.4238 16.15712252638401 6.165370904981905 14.121181492570832 -1 0 0
734 40 5 0.425 9.558971114401517 1.4071871071458963 23.495656279362276 0 0 0
299 83 7 0.4238 -3.633435549142442 7.533468491101141 22.953145883779445 0 0 0
709 132 6 -0.8476 -2.3551359737857003 12.685373403205658 14.0684140044917 0 0 0
402 20 1 2.1 -7.611297314669446 18.00091855737169 21.776541552025034 0 0 0
403 730 1 2.1 -9.129886787888712 14.556938993980218 17.006836032552165 0 0 0
405 35 1 2.1 -9.831493603783258 16.78521519299378 15.100865768008108 0 0 0
408 34 1 2.1 -5.78763039455751 15.432223445227304 21.76186485161278 0 0 0
409 732 1 2.1 -11.810032725554155 18.05118152528958 17.128598067560592 0 0 0
412 735 2 1.05 -8.156598897050664 17.956980657838074 18.115131913168543 0 0 0
413 736 2 1.05 -8.90241254979277 15.205136115043235 20.41201170679834 0 0 0
416 739 2 1.05 -11.022638546328208 18.155634200624455 20.37291062756848 0 0 0
417 740 2 1.05 -5.904396727016611 14.74047931424084 18.307895829344396 0 0 0
421 32 3 -0.95 -3.6710477665786883 12.582816695724036 22.91909058826197 0 0 0
422 743 4 -1.05 -9.397003680320086 15.373834783586071 15.713335829814504 0 0 0
425 746 4 -1.05 -6.805246512355563 16.62006800849322 22.024722132299548 0 0 0
426 747 4 -1.05 -8.32011210753219 13.08832182448538 16.752033521721064 0 0 0
429 750 4 -1.05 -2.188446110487937 12.646767985210545 20.75386133120399 0 0 0
430 751 4 -1.05 -8.389768500370417 15.429952914255866 17.987589320450265 0 0 0
433 754 4 -1.05 -8.757867335901643 17.670594691505066 20.701050582074267 0 0 0
434 755 4 -1.05 10.208173920796158 14.120561439228696 17.562912686070987 0 0 0
437 758 4 -1.05 -9.972773351273672 16.880905567390986 13.589275955952962 0 0 0
139 65 7 0.4238 8.349179721038873 12.189932247124691 23.07613171059191 0 0 0
440 759 4 -1.05 -11.154099790155474 17.203407986367548 15.841900512481297 0 0 0
443 762 4 -1.05 -6.414280161132344 14.54139491993752 20.685446418783474 0 0 0
444 763 4 -1.05 8.18593947336521 17.091431319528063 18.076541736280483 0 0 0
447 766 4 -1.05 -4.448440926114243 15.955406417864628 21.327098627807143 0 0 0
448 767 4 -1.05 -6.423150290294944 12.337184747434016 18.188949551596075 0 0 0
450 35 3 -0.95 -8.651862251573085 17.723319739273595 15.583735939842382 0 0 0
451 35 5 0.425 -7.948615830532651 18.101580747110837 14.963329954465182 0 0 0
716 134 7 0.4238 2.748675865610415 13.067029039137982 12.733031611952732 0 0 0
400 99 7 0.4238 -6.955379981625825 10.732363235448581 12.874205672432995 0 0 0
635 125 6 -0.8476 5.391424653342343 7.0973235525941885 13.084503453496025 0 0 0
460 102 6 -0.8476 -5.835140656466165 14.660966887875022 15.715757982768544 0 0 0
461 102 7 0.4238 -5.02297217706465 14.108880773531515 16.0241135636521 0 0 0
462 102 7 0.4238 -5.619528244455836 15.587893334531048 16.00027521525004 0 0 0
469 105 6 -0.8476 11.800474984286332 12.439812855651386 14.109120067242364 -1 0 0
470 105 7 0.4238 -8.216116764536192 12.52070728688676 14.880397852236106 0 0 0
711 132 7 0.4238 -2.075340413929732 11.893374716395662 13.43353726693917 0 0 0
1005 218 6 -0.8476 -2.1207353050769 15.738225181642719 23.033473204442547 0 0 0
726 16 5 0.425 7.95664089665896 13.884883053114592 23.482078354632982 0 0 0
837 162 6 -0.8476 11.16174076877753 5.7977828335951385 23.151363282410248 -1 0 0
482 44 1 2.1 7.7525238737665285 5.7840902806477335 21.491279802386405 0 0 0
483 769 1 2.1 5.774550448888237 2.2637261622844616 17.13701789511858 0 0 0
485 41 1 2.1 4.970006671940312 4.244146976171282 14.804432157095068 0 0 0
488 40 1 2.1 9.34684841524082 3.1043273287167494 21.741076412276815 0 0 0
489 771 1 2.1 3.4432075050305877 5.886128784355152 16.892582034769788 0 0 0
492 774 2 1.05 6.8518931315619005 5.391822918712876 18.34712506784681 0 0 0
493 775 2 1.05 6.096492390038218 2.804588502925185 20.85761339281837 0 0 0
496 778 2 1.05 4.10888195491559 5.953674534723632 20.48415904534327 0 0 0
497 779 2 1.05 9.093771274637112 2.542079139579159 18.176015839635266 0 0 0
501 38 3 -0.95 11.628706135920789 0.2534118531520731 22.640203488440747 0 1 0
502 782 4 -1.05 5.392057078061073 3.1958527748735053 15.918487579958189 0 0 0
505 785 4 -1.05 8.553217586413405 4.49401573808995 21.787724091836488 0 0 0
506 786 4 -1.05 6.619096412410694 0.9394300571782617 16.687398997900303 0 0 0
509 789 4 -1.05 12.777963379654441 0.3087459881368045 20.29443180790817 0 0 0
510 790 4 -1.05 6.5539460942270145 3.10849860052863 18.16125999590769 0 0 0
513 793 4 -1.05 6.45711890437387 5.274748837739 20.74012611904023 0 0 0
514 794 4 -1.05 4.507450641591553 1.6422879550903353 17.77039082037885 0 0 0
517 797 4 -1.05 4.310568444157579 3.606416362598704 13.590549131520874 0 0 0
519 40 3 -0.95 9.454017715259736 2.4094658479951914 23.26101762021934 0 0 0
520 798 4 -1.05 4.0014917805182115 5.28439121384228 15.569253728144915 0 0 0
523 801 4 -1.05 8.49641008957815 2.154226982020073 20.818570727016105 0 0 0
524 802 4 -1.05 2.404157743899069 4.9759004367997886 17.560145149965127 0 0 0
527 805 4 -1.05 10.758398252737058 3.436736938668632 21.112929629549235 0 0 0
528 806 4 -1.05 8.574676999329007 0.09306051539925994 18.047551531078224 0 0 0
530 41 3 -0.95 6.318843094669819 5.13366012998915 14.431309993857958 0 0 0
531 41 5 0.425 6.1113432360597155 6.028726143859708 13.974927802733866 0 0 0
723 8 5 0.425 15.034345551674427 7.1837876584978835 22.969473565002662 0 0 0
439 34 3 -0.95 -5.623670759694313 14.549158204467968 23.090018049684623 0 0 0
239 81 7 0.4238 2.532230993140725 16.836172060356297 12.706302574520825 0 0 0
540 111 6 -0.8476 8.759034459555828 3.7455941857372994 14.635104288886254 0 0 0
541 111 7 0.4238 7.985050835878151 4.412043727488013 14.689932722960684 0 0 0
542 111 7 0.4238 9.614705821911079 4.23134615124077 14.705933259460917 0 0 0
549 114 6 -0.8476 5.437275186218412 0.4825429863901559 14.310174545622582 0 0 0
550 114 7 0.4238 5.949055859095393 0.8080873198534434 15.106492196818323 0 0 0
618 119 7 0.4238 1.508580207816562 11.642780070041688 23.076580151446752 0 0 0
74 115 7 0.4238 7.900882784102559 2.763557334486918 13.666602617116702 0 0 0
737 50 5 0.425 3.8516535878736327 12.711387163671462 23.283664560453236 0 0 0
688 884 4 -1.05 0.41809743260142324 12.415733644076981 17.993501954729567 0 0 0
562 50 1 2.1 3.683830991282652 11.783418441466576 21.17724609350375 0 0 0
563 808 1 2.1 1.6873243507757842 8.449991168855922 16.97484547999749 0 0 0
565 47 1 2.1 0.8854768795862041 10.602240657193425 14.849564924270362 0 0 0
568 46 1 2.1 5.338827954713275 9.219021093067202 21.369737830595152 0 0 0
569 810 1 2.1 -0.7650500309461696 11.920653647744054 17.120086056098007 0 0 0
572 813 2 1.05 2.7935786020840925 11.86957636931319 18.04797090460584 0 0 0
573 814 2 1.05 1.9014024649904724 8.943491049182057 20.253551300112164 0 0 0
576 817 2 1.05 0.10713072325889225 12.066007837871707 20.413669121947073 0 0 0
577 818 2 1.05 5.106953872551078 8.633020832726125 18.068710514539614 0 0 0
581 44 3 -0.95 7.333785273992814 6.572244484039604 22.822328928216102 0 0 0
582 821 4 -1.05 1.2574291961682276 9.261900781799099 15.608619390560664 0 0 0
585 824 4 -1.05 4.507511902288287 10.503659074628839 21.622493744711313 0 0 0
586 825 4 -1.05 2.779519499452671 7.333968533558035 16.665553798639195 0 0 0
589 828 4 -1.05 8.557290533956085 6.70857318434691 20.596801784408 0 0 0
590 829 4 -1.05 2.442448835985302 9.374082182232424 17.941397153862024 0 0 0
593 832 4 -1.05 2.4670885119390955 11.349599330164759 20.326403585944913 0 0 0
594 833 4 -1.05 0.4167677995303452 7.819789210309639 17.674759474855662 0 0 0
597 836 4 -1.05 0.537339489243968 10.436820577696132 13.357420531048813 0 0 0
599 46 3 -0.95 5.60616248108988 8.600434691430083 22.74240108265228 0 0 0
600 837 4 -1.05 -0.16618668737794734 11.347489378257258 15.770460308546552 0 0 0
603 840 4 -1.05 4.533592488588743 8.236706522093455 20.493103571924987 0 0 0
604 841 4 -1.05 -1.6028128210657706 10.89442412826627 17.875201475429854 0 0 0
607 844 4 -1.05 6.688129420847029 9.61198007728425 20.69834948334562 0 0 0
608 845 4 -1.05 4.619935322131643 6.147324757753794 17.933872881468815 0 0 0
610 47 3 -0.95 2.2377914717572147 11.503558285862093 15.016955063137495 0 0 0
611 47 5 0.425 2.3397282068013836 12.486693721752474 14.743608878938323 0 0 0
551 114 7 0.4238 -6.187022693467958 18.332075167186083 13.948752669260696 0 -1 0
636 125 7 0.4238 4.794033532328247 7.834413127308741 13.473322005068948 0 0 0
702 129 7 0.4238 1.3167759418963383 14.851113146675376 14.823990921656224 0 0 0
620 120 6 -0.8476 3.934612709649077 9.569436760710364 13.781764069652088 0 0 0
621 120 7 0.4238 4.703012554273179 10.145610340329693 13.442417198786268 0 0 0
730 28 5 0.425 -0.7390937443849918 7.55280333815281 22.889943556313877 0 0 0
932 194 7 0.4238 -1.1540199732948448 14.196557094054038 23.619145896398116 0 0 0
733 38 5 0.425 -0.6396207252531072 18.36608635862242 23.558586491444803 0 0 0
1004 218 7 0.4238 -3.0874426909054207 15.945045116448586 22.798918118894818 0 0 0
619 119 7 0.4238 0.13899645326143834 10.69018484152578 22.68598163510877 0 0 0
472 106 6 -0.8476 -6.829463501191586 15.580895363668919 13.261521013568242 0 0 0
710 132 7 0.4238 -1.7725815585937064 12.587678863977702 14.92129657160034 0 0 0
642 38 1 2.1 -0.3041125479757144 18.087159739566776 21.298476624042156 0 0 0
643 847 1 2.1 -2.357108851769104 14.498545726130704 17.11870761034772 0 0 0
645 53 1 2.1 -2.765873586385699 16.810342183254313 15.233019164510623 0 0 0
648 52 1 2.1 1.3031276847869295 15.390549987569472 21.754574573496637 0 0 0
649 849 1 2.1 -4.70604460332395 18.263713322522445 17.09612781458609 0 0 0
652 852 2 1.05 -1.0608900045711689 18.256917946425894 18.146954271780878 0 0 0
653 853 2 1.05 -2.158478200324483 15.1345810318184 20.36377772245397 0 0 0
656 856 2 1.05 -4.1309118833307865 18.442848010524024 20.42872849807533 0 0 0
657 857 2 1.05 1.0178546062089524 14.758953409395248 18.256416853579495 0 0 0
661 50 3 -0.95 3.127645761953064 12.497691056207533 22.601112693768666 0 0 0
662 860 4 -1.05 -2.7773511895875873 15.446738398601912 15.95640461263581 0 0 0
665 863 4 -1.05 0.579967965833729 16.852840407360954 21.754224758960557 0 0 0
666 864 4 -1.05 -1.7032149274469839 13.108045337109465 16.68390476393461 0 0 0
669 867 4 -1.05 4.536762529027544 12.850123928159158 20.490369502390745 0 0 0
670 868 4 -1.05 -1.3018905417200806 15.130485415151849 18.07290690061926 0 0 0
673 871 4 -1.05 -1.5341046708910493 17.712907669475715 20.503058708933775 0 0 0
674 872 4 -1.05 -3.700396456347946 14.191806456334572 17.85293884689479 0 0 0
677 875 4 -1.05 -2.670107790139102 16.683504524800338 13.725003235091837 0 0 0
679 52 3 -0.95 1.193838021292534 14.79943380290772 23.342199390802328 0 0 0
680 876 4 -1.05 -4.059118209303788 17.618950655439296 15.797640172065302 0 0 0
683 879 4 -1.05 0.7179871119938246 14.439925872203 20.7080242214901 0 0 0
297 83 6 -0.8476 -4.472354793737365 8.086214154864326 23.055495568068135 0 0 0
1545 398 6 -0.8476 5.906854880574934 2.6345551556653266 23.227500098415145 0 0 0
715 134 6 -0.8476 2.267759370445156 13.767024644569801 13.331044875355367 0 0 0
1544 398 7 0.4238 4.899370879156947 2.6298219910447456 23.294060817928372 0 0 0
697 128 6 -0.8476 -4.634223153269881 18.25057937390529 23.19609378306588 0 0 0
622 120 7 0.4238 3.6291315102658572 10.117742632125337 14.587952619233715 0 0 0
732 34 5 0.425 -5.020641702386939 13.762804077042965 23.32741095700606 0 0 0
1628 426 7 0.4238 3.582782376624545 15.978501552291336 23.154964537661012 0 0 0
721 2 5 0.425 18.7807671442948 0.2305791923096154 23.548076140012387 0 1 0
557 116 7 0.4238 -1.764989989339453 18.080350030534795 12.745846551474987 0 -1 0
717 134 7 0.4238 2.1075512297189083 14.555577451341813 12.666898682246783 0 0 0
1101 250 6 -0.8476 -2.584755428648877 5.642894031369375 23.09205924034106 0 0 0
836 162 7 0.4238 11.453813543267232 6.76230869915555 23.320391247405116 -1 0 0
617 119 6 -0.8476 0.5281162849251274 11.620876876289383 22.78002631553046 0 0 0
552 115 6 -0.8476 7.4771857192602225 2.267940525405213 12.868005545769712 0 0 0
1627 426 7 0.4238 4.52114986576866 17.12271622854371 23.425433620510123 0 0 0
234 133 7 0.4238 -0.0137003397539501 15.311226669604473 12.584101587450544 0 0 0
1100 250 7 0.4238 -1.608701833225363 5.425894275578248 23.184390325896707 0 0 0
738 52 5 0.425 1.785783114777068 13.954980385694402 23.335394116268898 0 0 0
731 32 5 0.425 -2.905046581589132 13.024547417050458 23.470743614081016 0 0 0
1007 219 7 0.4238 14.377722717112208 0.9567729928693831 23.41006312189146 0 1 0
835 162 7 0.4238 12.03224415451596 5.370119938185336 23.51183054002208 -1 0 0
931 194 7 0.4238 -0.5556081141440212 12.646240248666444 23.497050304543485 0 0 0
630 123 7 0.4238 2.3719562083731702 6.286664200347225 12.77935338405569 0 0 0
233 133 7 0.4238 0.16313114554156669 13.808743487159084 12.997837686227022 0 0 0
559 117 7 0.4238 3.062794710114739 3.882724922299397 12.606851007406798 0 0 0
1193 281 7 0.4238 1.5860647867871145 8.33165171324769 22.65740272575294 0 0 0
419 742 2 1.05 -9.07026695842977 14.360429764841479 12.587853301760662 0 0 0
316 89 7 0.4238 -9.034570259986769 17.9895052713397 12.64454617643427 0 -1 0
760 137 7 0.4238 10.145123848037992 7.4871943207450125 29.02111699399671 0 0 0
761 137 7 0.4238 10.917080474173982 6.469388365114079 29.9389858800515 0 0 0
762 137 6 -0.8476 10.683060740021897 6.622695769806628 28.973432518094633 0 0 0
799 150 7 0.4238 9.32194186684101 1.7894994878049373 28.816255185013308 0 0 0
800 150 7 0.4238 9.319895843390727 1.088055000931498 30.230730836951615 0 0 0
801 150 6 -0.8476 8.685549554463865 1.322252843794969 29.442451921678252 0 0 0
1699 450 7 0.4238 5.2935579560930766 6.500830119554516 33.989289676794115 0 0 0
803 151 7 0.4238 2.5648313589987977 0.21613054896613526 27.013465572618447 0 1 0
804 151 6 -0.8476 -10.23316134382499 18.136214990613112 27.44199448044625 0 0 0
1629 426 6 -0.8476 4.352103867943633 16.207476235476864 23.733457555820067 0 0 0
1574 408 7 0.4238 -4.479331699508366 9.064752075910857 28.754836332350287 0 0 0
886 179 7 0.4238 3.4987483211408894 4.603300183117729 25.393201693494568 0 0 0
817 156 7 0.4238 -0.632742367118071 17.11216026496652 25.159966085610414 0 0 0
818 156 7 0.4238 -1.9339643921430099 18.076578336498 25.40551298723499 0 0 0
819 156 6 -0.8476 -1.3902205806586412 17.57648130085264 24.68754574348106 0 0 0
826 159 7 0.4238 2.853958357467457 9.846120864323728 33.528623912526314 0 0 0
827 159 7 0.4238 4.212983481398384 8.971321562364366 33.61570598135575 0 0 0
828 159 6 -0.8476 3.78569112336611 9.827899915727173 33.968223854792754 0 0 0
729 26 5 0.425 0.6341332397956897 6.462950277583319 23.66315477464706 0 0 0
728 22 5 0.425 2.9993468789624127 2.913540343706218 24.038072715474023 0 0 0
1159 270 7 0.4238 14.194196634267463 1.8297753843033533 33.776951964226846 0 0 0
459 101 7 0.4238 2.2504152512908284 0.45153199075651473 25.32680723994571 0 1 0
1725 458 6 -0.8476 13.385206916702733 5.4072052358903155 32.59320593805484 0 0 0
1160 270 7 0.4238 15.32221876868225 3.1403875641226335 33.636308986626645 0 0 0
862 171 7 0.4238 0.2799372952072054 4.6005901760044 27.486646611598026 0 0 0
863 171 7 0.4238 -0.2633872800936174 5.100414478266221 26.066519795770063 1 0 0
864 171 6 -0.8476 0.5039805016000148 4.599922979447868 26.4678185992419 1 1 0
865 172 7 0.4238 -1.8255339236824324 4.8782511274085465 28.645318118443118 0 0 0
866 172 7 0.4238 -2.879067115231726 6.018904602183416 28.94805441287172 0 0 0
867 172 6 -0.8476 -2.7990321047860336 5.010732300432999 28.860706608180955 0 1 0
877 176 7 0.4238 3.4384707514479698 15.1561202854828 29.717317693362023 0 0 0
878 176 7 0.4238 3.089731371518052 13.776020573928896 28.912107496895644 0 0 0
879 176 6 -0.8476 2.790827483515314 14.361065958357356 29.68284545262872 0 0 0
880 177 7 0.4238 10.15941755805421 14.17049664363882 30.564987546719834 -1 0 0
881 177 7 0.4238 -9.587833454729854 15.34269159665509 29.79385488663042 1 0 0
882 177 6 -0.8476 10.749299467026777 14.355301848540133 29.75189777754629 0 0 0
1726 459 7 0.4238 6.445886639826215 2.6176502984196426 31.66379858510295 0 0 0
1302 317 6 -0.8476 -5.845219458031236 11.399937673640693 33.44872338984948 1 0 0
888 179 6 -0.8476 2.7849663575477033 3.9052608923552534 25.194378562858702 0 1 0
901 184 7 0.4238 -8.050162987137627 11.9295016261022 29.195542139826017 0 0 0
902 184 7 0.4238 -8.599683132845852 13.501151379125265 29.365764257419553 1 0 0
903 184 6 -0.8476 -7.776832161039373 12.903133379604787 29.320535234807156 1 0 0
907 186 7 0.4238 3.318874387672836 5.103994572975436 29.478420654235965 0 0 0
908 186 7 0.4238 2.699024202739964 3.6876316834127927 29.901408134877578 1 0 0
909 186 6 -0.8476 3.4527917565218034 4.324479700562875 30.122401149153987 1 0 0
913 188 7 0.4238 2.86775800744494 9.608742742077151 26.4863925995134 0 0 0
914 188 7 0.4238 4.197169043901205 9.245111059138138 25.722658777265725 0 0 0
915 188 6 -0.8476 3.231733150109864 8.961904378942705 25.762434139984062 0 0 0
1723 458 7 0.4238 13.505506218172226 6.024897118103697 33.42084354239388 0 0 0
1904 518 7 0.4238 3.7494482005128678 16.464366928889394 33.16056029200457 0 0 0
946 199 7 0.4238 -8.226553640251955 12.636112410545833 25.483117785410702 0 0 0
814 155 7 0.4238 8.653178612767482 15.409448904716081 26.67519656676736 -1 0 0
944 198 7 0.4238 7.12585937923563 10.104268541815744 25.221571901467716 0 0 0
945 198 6 -0.8476 6.279376515118599 10.483689774216948 24.784662328710866 0 0 0
1474 375 7 0.4238 -0.49904707973396517 9.335154671486428 26.680530650599703 0 0 0
947 199 7 0.4238 11.2302669881028 13.666615040627068 25.434901501613624 0 0 0
948 199 6 -0.8476 11.537297145549683 12.729557022647223 25.075650388584027 0 0 0
976 209 7 0.4238 -0.8779416667579224 7.132473891488904 26.243529842948547 0 0 0
977 209 7 0.4238 -2.2072469734881612 6.373486707624199 26.740541054671585 0 0 0
978 209 6 -0.8476 -1.435458071756126 6.32611102795923 26.092598665406168 0 0 0
982 211 7 0.4238 11.301784423094187 1.7973948817641354 26.299787532191015 0 1 0
983 211 7 0.4238 9.818849141208098 2.243201632806809 26.058869977084697 0 1 0
984 211 6 -0.8476 10.356665385929533 1.4017357187081676 26.277765847904167 0 1 0
997 216 7 0.4238 16.242268500975804 3.7140138746200764 24.466506722033177 -1 0 0
998 216 7 0.4238 15.243652587238039 4.926684009092535 24.73108187921684 0 0 0
999 216 6 -0.8476 16.136145218356024 4.55848073680635 25.0143770479836 0 0 0
1000 217 7 0.4238 9.626843277817551 8.088071209869113 25.045664569956127 0 0 0
1001 217 7 0.4238 8.933831983138388 6.840364532372762 25.68313072111692 0 0 0
1002 217 6 -0.8476 8.944146601066757 7.370884370472611 24.814442991244064 0 0 0
832 161 7 0.4238 -4.57679371975048 13.019384802796896 28.748942789975377 0 0 0
537 110 6 -0.8476 1.6579340067212747 6.837495142508371 24.864827711248576 0 0 0
1577 409 7 0.4238 6.040440626699963 15.567403353761486 26.046706951307712 0 0 0
1150 267 7 0.4238 -6.240974585546523 9.38501946128677 31.012412578859415 0 0 0
1918 523 7 0.4238 -6.131204713806432 14.887296314166786 24.55219223987152 0 0 0
1573 408 7 0.4238 -4.013900895132449 10.56547177499775 28.705440391973234 0 0 0
1027 226 7 0.4238 -11.857893711517523 18.52315785031966 24.654498531424075 0 -1 0
1028 226 7 0.4238 7.489728396601024 17.690167588199888 25.12701710379053 0 -1 0
1029 226 6 -0.8476 7.783746700962476 18.536261584536543 24.65535687601882 0 0 0
1045 232 7 0.4238 0.15578690289721525 14.195206642019974 27.917635365605424 0 -1 0
1046 232 7 0.4238 1.4418140482905621 14.870638293666078 28.638911226192388 0 -1 0
1047 232 6 -0.8476 0.6095532136358285 15.127907870718632 28.109584966917353 0 0 0
1054 235 7 0.4238 8.638328717687209 8.725146876532381 30.37713368741125 0 0 0
1055 235 7 0.4238 8.587047378013295 9.268493427546698 28.829033733719356 0 0 0
1056 235 6 -0.8476 9.12351264465516 8.709182593293551 29.474440296968577 0 0 0
1087 246 7 0.4238 0.6674375744095663 10.2753075883459 33.29927403939261 0 0 0
1088 246 7 0.4238 1.0948627358394278 9.606219735986317 31.938569241471793 0 0 0
1089 246 6 -0.8476 1.2215114191929226 9.514578566404817 32.95850053765356 0 0 0
1093 248 7 0.4238 -1.5449422702041844 11.558524827833601 33.44840560568033 0 0 0
1094 248 7 0.4238 -0.4433634476352407 12.615185119284828 33.83226835000197 0 0 0
1791 480 6 -0.8476 18.90308902732695 0.7180444204761449 32.60308957994384 0 1 0
1244 298 7 0.4238 15.254910817032853 0.7553197605237968 26.93656154439156 0 1 0
1576 409 7 0.4238 4.595414189212806 15.92228380715855 25.546038730644014 0 0 0
1481 377 7 0.4238 10.237118136469704 10.491742243513372 32.58639838346885 0 0 0
1120 257 7 0.4238 6.231071803684024 4.9737134918283195 25.217032264471037 0 0 0
1121 257 7 0.4238 7.760402632835468 4.4466076834435135 25.19571975958804 0 0 0
1122 257 6 -0.8476 6.828264310841899 4.184329245469635 25.433922939003875 0 1 0
1126 259 7 0.4238 7.312863642285311 18.01018138319155 32.12372840782879 0 0 0
1127 259 7 0.4238 8.33651278564304 17.239346111243464 31.01387228846788 0 0 0
1128 259 6 -0.8476 7.584552912647637 17.1006503703115 31.664824610455753 0 0 0
1135 262 7 0.4238 6.879813609482331 1.7995690786462832 29.581910529003157 0 0 0
1136 262 7 0.4238 5.521125037465059 2.682817542325696 29.420853587979465 0 0 0
1137 262 6 -0.8476 5.935633314061178 1.8046492941559265 29.190361644619887 0 0 0
1264 305 7 0.4238 -3.0086207759095602 15.65542618884951 32.96456835856808 0 0 0
887 179 7 0.4238 1.9189202810487567 4.29869598150572 25.539127563125966 0 0 0
217 74 6 -0.8476 12.811574767577111 6.510709111185198 27.34812138312017 0 1 0
1162 271 7 0.4238 13.867336856923037 2.1559068651099693 30.374596352255224 -1 0 0
1163 271 7 0.4238 15.21513302072842 2.0345643825117325 29.73367902404761 -1 0 0
1164 271 6 -0.8476 14.24461453517442 1.8166083460086633 29.52606691018877 -1 0 0
1174 275 7 0.4238 -8.587411139390612 17.42777817852887 29.979449706574123 0 0 0
1175 275 7 0.4238 -9.843515385615836 17.386560030521657 28.953805079343844 1 0 0
1176 275 6 -0.8476 -9.422817167885972 16.908731911680203 29.730754695312804 1 0 0
1605 418 6 -0.8476 9.24852627191845 10.78864192428862 25.406254390961596 0 0 0
1390 347 7 0.4238 -4.6659466280534945 14.114472332077142 31.546606187595987 0 0 0
1096 249 7 0.4238 -5.012391507734689 9.861454579277668 34.080720052731955 0 0 0
969 206 6 -0.8476 -5.813658666190779 17.017135174007276 34.26206263104634 1 0 0
968 206 7 0.4238 -6.311463457696798 16.388640005576594 33.59092782901983 1 0 0
1807 486 7 0.4238 8.143790685077304 4.376637193330984 31.498376247815724 0 0 0
1425 358 6 -0.8476 13.948571664692269 7.174456124165149 34.61346419481228 0 0 0
1841 497 7 0.4238 7.527356906305422 1.475802262707394 33.38583353914515 0 0 0
1612 421 7 0.4238 10.115819298685002 3.489272183605101 24.428954726890357 0 0 0
1216 289 7 0.4238 -2.6447251332090165 10.324892185070055 24.26461069325458 0 0 0
1217 289 7 0.4238 -3.9900649681547304 10.816813826334721 24.901570271511915 1 0 0
1218 289 6 -0.8476 -3.3801251034777375 10.033252803645466 24.89973893827772 1 0 0
1133 261 7 0.4238 -0.269505396337493 6.557090016913223 31.920731778100873 0 0 0
1220 290 7 0.4238 11.896420206813595 9.115774761087396 25.849827460671758 -1 0 0
1221 290 6 -0.8476 11.277661275268862 8.96439165455845 25.065205446301672 -1 0 0
219 74 7 0.4238 11.999047624188332 6.214638848664183 27.884856324422632 0 1 0
1006 219 7 0.4238 15.529096316645388 0.1505886501461476 24.304554424525232 0 1 0
1459 370 7 0.4238 -2.2452802098783433 3.7878230514262885 34.36000009043204 0 0 0
1813 488 7 0.4238 17.72211102681105 1.3326833122465205 25.938906537205913 0 0 0
1762 471 7 0.4238 -3.110603662029764 16.397530190572343 27.054074366261386 0 0 0
1098 249 6 -0.8476 -4.659916152678035 8.976034626260121 34.37742690284157 0 0 0
1252 301 7 0.4238 1.425359560965489 14.895259931308471 31.970158273864097 0 -1 0
1253 301 7 0.4238 0.6206520313842208 16.343128580256508 32.02722217586974 0 -1 0
1254 301 6 -0.8476 1.0423688163673892 15.587561140764713 32.591144836413775 0 0 0
1306 319 7 0.4238 4.785764734144192 16.237828183654518 30.62935881653413 0 -1 0
1307 319 7 0.4238 5.821153381951946 16.751086486302132 31.863162495152928 0 -1 0
1308 319 6 -0.8476 4.921544935496673 16.286204700825387 31.640082218425672 0 -1 0
1309 320 7 0.4238 6.072973437573826 0.189258609655915 25.784891554633898 0 1 0
1310 320 7 0.4238 -7.27721296054566 18.22129963138801 24.69832122423368 1 0 0
1311 320 6 -0.8476 -6.434449698763552 17.97881840089193 25.239765426045963 1 0 0
1312 321 7 0.4238 15.6466869724579 7.300933079572595 27.815596680409133 -1 0 0
1313 321 7 0.4238 14.246372543135218 6.821895176054176 28.51343697526185 0 0 0
1314 321 6 -0.8476 15.207978153551116 7.08484840664545 28.680505564454066 0 0 0
1327 326 7 0.4238 -1.9587890885485777 13.29394879582423 25.340744676802355 0 0 0
1328 326 7 0.4238 -2.737904980607318 14.126085821515776 26.413303258811975 0 0 0
1329 326 6 -0.8476 -2.4596536917906358 13.163371159250351 26.22806692179903 0 0 0
1339 330 7 0.4238 0.9066665118560832 1.9849487757058408 29.457173655942505 0 0 0
1340 330 7 0.4238 1.9987160730122904 1.5645265580771328 30.586031616253397 1 0 0
1341 330 6 -0.8476 1.7457207851789527 2.278361123547935 29.903740856734974 1 1 0
1360 337 7 0.4238 0.18415859974869678 16.77499591718288 28.221340909278485 0 -1 0
1361 337 7 0.4238 0.5791044001259866 18.125114962801916 27.646338608854318 0 -1 0
1362 337 6 -0.8476 0.04546600528814341 17.780230048926562 28.402620861209563 0 0 0
1366 339 7 0.4238 15.70604878186747 5.792491526572288 30.241997941930073 -1 0 0
1367 339 7 0.4238 -4.426076962098481 6.458909376585399 31.772531456409215 1 0 0
1368 339 6 -0.8476 15.759950012074757 5.751234180166326 31.258568087828127 0 0 0
1402 351 7 0.4238 3.482580909513044 10.722850088999966 28.734315355177223 0 0 0
1403 351 7 0.4238 4.710725083807837 10.532491284792567 29.79911907868672 0 0 0
1404 351 6 -0.8476 4.126344305415846 10.049946794965427 29.12681584198841 0 0 0
1405 352 7 0.4238 8.290799079463474 10.308901983011138 26.63650557420618 -1 0 0
1406 352 7 0.4238 8.213016886593103 10.985616788032416 28.105978979661206 0 0 0
1407 352 6 -0.8476 7.776001018539232 10.233216083604521 27.532319273791224 0 0 0
1408 353 7 0.4238 -4.379641724461926 7.245105935707777 25.645527775823954 1 0 0
1409 353 7 0.4238 -3.6677539574146087 8.637048865532726 26.166594888128103 1 0 0
1410 353 6 -0.8476 -4.06406628388334 7.756549623021191 26.46009554578236 1 0 0
1132 261 7 0.4238 -0.4142002128301407 7.5523154084101005 30.625106345897933 0 0 0
950 200 7 0.4238 3.290097650947245 2.0964257864822216 33.06725479244467 0 1 0
1809 486 6 -0.8476 9.06060499081963 4.117847815244536 31.83524199980856 0 1 0
1450 367 7 0.4238 9.863265162388403 6.217589662761945 27.776556586382807 0 0 0
1451 367 7 0.4238 9.497137399709901 4.978826569888566 26.746045982075277 0 0 0
1452 367 6 -0.8476 9.194208328203754 5.892701796679218 27.05506147025242 0 0 0
1465 372 7 0.4238 0.8232025805634091 15.508029357181695 24.812608703029607 0 -1 0
1466 372 7 0.4238 0.95024254310497 15.730149953129756 26.465802820032927 0 -1 0
1467 372 6 -0.8476 0.5682289434804714 16.129502003843367 25.590051917764875 0 0 0
1471 374 7 0.4238 6.077747023522882 1.573807770546363 27.49020539226276 0 0 0
1472 374 7 0.4238 6.476936985160905 2.555933662728253 26.30612687025427 0 0 0
1473 374 6 -0.8476 6.133053353950118 1.6086283276464217 26.48871107773397 0 1 0
1602 417 6 -0.8476 -9.952958793632307 16.3037975875113 34.1289873996014 1 0 0
1475 375 7 0.4238 0.472160776749876 9.22699396324 27.835432047482314 0 0 0
1476 375 6 -0.8476 -0.3978765299270733 8.781020549192196 27.550431102919 0 0 0
1498 383 7 0.4238 9.418195360321079 0.5303936178091618 32.43945629474242 0 1 0
1499 383 7 0.4238 10.544707062768412 1.317835623076268 31.89569616016099 0 1 0
1500 383 6 -0.8476 10.0198063928026 0.5405083597318587 31.62511015267043 0 1 0
1507 386 7 0.4238 12.731290503877496 3.9371376084742535 32.20119117635356 0 0 0
1508 386 7 0.4238 12.521204812744283 2.351484780411308 32.531357399915095 0 0 0
1509 386 6 -0.8476 12.16811883581934 3.1041620531243086 31.91961348044581 0 0 0
1513 388 7 0.4238 5.56431021693818 13.368960284839844 32.693528930547274 0 0 0
1514 388 7 0.4238 4.4127983932645725 14.330654270314797 32.247021228931054 0 0 0
1515 388 6 -0.8476 4.564563332977063 13.383795134337243 32.53333609432133 0 0 0
1516 389 7 0.4238 -3.278796286845156 18.494522224499214 28.340036691630193 0 0 0
1517 389 7 0.4238 -1.9251995773790747 18.167173943533097 27.584737400403487 0 0 0
1518 389 6 -0.8476 -2.872549923840562 17.858736042250424 27.68339708875094 0 0 0
1534 395 7 0.4238 4.130690635080072 12.901138771145106 27.024731684189025 0 0 0
1535 395 7 0.4238 3.773081836805096 14.430943535689487 26.67369865270548 0 0 0
1536 395 6 -0.8476 3.4131571843710393 13.618212389651882 27.205852721897397 0 0 0
1540 397 7 0.4238 0.18372531403033782 14.781062695221339 33.694596100559636 0 -1 0
1541 397 7 0.4238 -1.3069735040618704 14.659648666363509 34.45467139384694 0 -1 0
1542 397 6 -0.8476 -0.3600739575986423 14.298773354083492 34.41328141329115 0 0 0
1701 450 6 -0.8476 4.324937613596344 6.766078206194223 33.71727906650699 0 0 0
1071 240 6 -0.8476 -7.329462599759055 18.182208052112006 30.584899587468993 0 0 0
378 92 7 0.4238 -8.476996467870789 15.492548991469155 25.96230921835753 0 0 0
1245 298 6 -0.8476 14.330932317179139 0.45008818868380807 27.30394770252581 0 1 0
1219 290 7 0.4238 11.805671422776722 8.784000710385069 24.1831152811504 -1 0 0
1095 248 6 -0.8476 -0.5805758028011024 11.59253918215075 33.75921907031695 0 0 0
1552 401 7 0.4238 -6.3902230791007755 13.677614371889794 26.120173709208185 0 0 0
1553 401 7 0.4238 -6.980959683864021 13.027962581470641 27.467649393858256 0 0 0
1554 401 6 -0.8476 -6.7598745633079975 12.815498276484202 26.497777932780636 0 0 0
1555 402 7 0.4238 5.930864783164748 11.869095278706466 27.4776509107699 0 0 0
1556 402 7 0.4238 5.5047040987150355 11.277769521911326 26.001451465718983 0 0 0
1557 402 6 -0.8476 5.138667643169117 11.744744356013323 26.86434979534215 0 0 0
1413 354 6 -0.8476 6.360285518885109 4.331918504541733 30.55941729158108 0 0 0
1243 298 7 0.4238 14.322938833274739 0.7491032660018828 28.283992370517083 0 1 0
1739 463 7 0.4238 -0.8165580204899325 2.9352766112521205 25.7538935857333 1 0 0
1585 412 7 0.4238 12.277715685592938 9.395683485633345 28.056974395433514 0 0 0
1586 412 7 0.4238 13.705485784573424 9.628719701164522 27.172938402767038 0 0 0
1587 412 6 -0.8476 12.834195023665806 9.08379412257732 27.249756343214745 0 0 0
785 145 7 0.4238 7.163575750954701 13.531297070388455 33.9630620028123 0 -1 0
298 83 7 0.4238 -4.258094176014256 8.850988635331293 23.696538829966563 0 0 0
1600 417 7 0.4238 -10.513252727142815 17.114075073439853 34.42463298270213 1 0 0
1606 419 7 0.4238 -6.456116842411167 14.233833398122124 31.793609803985508 1 0 0
1607 419 7 0.4238 -7.059081110134875 12.956698068091654 31.080341915280798 1 0 0
1608 419 6 -0.8476 -6.252025394454179 13.245311553602612 31.589405854652195 1 0 0
1609 420 7 0.4238 4.402319803010557 5.880878999330625 26.1368914725703 0 0 0
1461 370 6 -0.8476 -2.0184430020417574 2.788703465087658 34.288601629497585 0 0 0
1611 420 6 -0.8476 4.562727169234502 5.990460487274631 25.147473193603574 0 0 0
1724 458 7 0.4238 14.219940812284769 5.654040878386475 32.033794578762794 0 0 0
1613 421 7 0.4238 10.518156623028487 4.970066064905474 24.72028422228879 0 0 0
1614 421 6 -0.8476 10.039216823222809 4.174003491533885 25.160134999772485 0 0 0
1134 261 6 -0.8476 0.20797070327898265 6.875670056854334 31.065726828656995 0 1 0
842 164 7 0.4238 8.617668904776213 5.085473215451096 34.29951115924363 0 0 0
1842 497 6 -0.8476 8.188250501700374 0.9445447129579038 33.96832318075302 0 1 0
1648 433 7 0.4238 6.542553172369725 12.105023416343464 30.84462755361588 0 0 0
1649 433 7 0.4238 7.239113503573206 13.584641835627139 31.25624958044713 0 0 0
1650 433 6 -0.8476 7.1496910346365885 12.867138338626278 30.53891842990666 0 0 0
1645 432 7 0.4238 11.38799731927938 3.1891226240712904 30.466130536894998 0 0 0
1604 418 7 0.4238 9.942721738932008 10.0735345636297 25.17215396768025 0 0 0
1301 317 7 0.4238 -6.120645819658624 12.004323731553464 32.6467339956497 1 0 0
1654 435 7 0.4238 -0.9648195420447617 17.998660504062475 31.19411084578972 0 -1 0
1655 435 7 0.4238 0.20123739840508298 17.62116386372971 30.20126940613892 0 -1 0
1656 435 6 -0.8476 -0.056527453553199145 17.54656920186603 31.168811859073816 0 0 0
1660 437 7 0.4238 -3.2468502388424305 8.481091098840208 31.53676381767272 0 0 0
1661 437 7 0.4238 -2.129285358026352 7.643762980119617 32.279194812018034 0 0 0
1662 437 6 -0.8476 -3.099328575760228 7.8620314452224545 32.31360354416786 0 0 0
1666 439 7 0.4238 6.686272628531219 9.17522008226056 27.65846835629955 0 0 0
1667 439 7 0.4238 5.148609367322059 9.018734979529398 28.269956245088032 0 0 0
1668 439 6 -0.8476 5.887317485793916 8.541408195143731 27.74688647702735 0 0 0
1669 440 7 0.4238 4.261396551096789 1.7152540369727285 26.39761931000558 0 1 0
1670 440 7 0.4238 3.012523313698778 2.3637763545517307 25.74269608652848 0 1 0
1671 440 6 -0.8476 3.2817898179748166 1.4881877578378957 26.185740827015078 0 1 0
1672 441 7 0.4238 7.544241964422228 6.014037650200586 28.00250857876819 0 0 0
1673 441 7 0.4238 6.202060146679104 6.829859063995569 28.136109343402726 0 0 0
1674 441 6 -0.8476 6.575376090092057 5.926782916764942 28.38163293032429 0 0 0
1681 444 7 0.4238 13.104647585942855 5.533458315810148 25.694547670959487 0 0 0
1682 444 7 0.4238 12.836127262451127 3.954917334352818 25.544832171458562 0 0 0
1683 444 6 -0.8476 13.065358504219182 4.799777298480848 25.000370053412055 0 0 0
1708 453 7 0.4238 5.197150993310516 10.615331852815217 31.787574515411965 0 0 0
1709 453 7 0.4238 6.58491228905958 9.963926972258426 31.192724168899687 0 0 0
1710 453 6 -0.8476 5.812575447744972 10.564134820739177 30.97216986408176 0 0 0
1714 455 7 0.4238 -0.891091349816123 9.322736040277634 24.356610635250856 0 0 0
1572 407 6 -0.8476 -0.43302452083520426 7.275039348102536 33.76511430608997 0 0 0
1716 455 6 -0.8476 -0.4453526212778453 9.925612833830273 25.05610470731342 0 0 0
1715 455 7 0.4238 0.47433529408638075 10.034632710210188 24.683903046050204 0 0 0
379 92 7 0.4238 -9.878484737836109 16.134161867405673 25.838458042349888 0 0 0
1610 420 7 0.4238 4.582619748921255 6.952612607476145 24.917272107329428 0 0 0
1747 466 7 0.4238 16.2061361156585 3.900104046063671 26.575288693089412 -1 0 0
1748 466 7 0.4238 17.06886408679484 3.7603447222482678 27.941665190737407 0 0 0
1749 466 6 -0.8476 16.289248566949784 3.3421648597864317 27.405428291809635 0 0 0
1391 347 7 0.4238 -3.417966370502945 15.059475988069421 31.035679866276876 0 0 0
1802 484 7 0.4238 6.403745683357668 16.973660702741974 28.982957990656093 -1 0 0
1803 484 6 -0.8476 7.271841264647038 17.275447111780945 28.60226232556164 -1 0 0
1810 487 7 0.4238 8.371157551197573 14.401052411497075 32.625003416631515 0 0 0
1811 487 7 0.4238 7.282122936624805 15.4725245145119 32.56762196599214 0 0 0
1812 487 6 -0.8476 7.319638991343056 14.478571252043752 32.684628996232476 0 0 0
1764 471 6 -0.8476 -3.3754821439145855 15.408864519052873 26.954879268608316 1 0 0
1814 488 7 0.4238 16.423192345939867 1.9160330928802225 26.6132059510774 0 0 0
1815 488 6 -0.8476 16.843776850957102 1.0098946581599408 26.354112621381635 0 1 0
1816 489 7 0.4238 0.18076204378188981 18.605281665326327 33.977202763924446 0 -1 0
1817 489 7 0.4238 0.5953617497530924 18.608500036614988 32.44627250907209 0 -1 0
1818 489 6 -0.8476 12.883678431120016 0.5518196632803554 33.30126826153075 0 1 0
1634 428 7 0.4238 10.947484672278877 9.596174152134797 29.686402538678163 0 0 0
1594 415 7 0.4238 11.121604855179935 8.18369189460064 31.956423422066255 0 0 0
1801 484 7 0.4238 7.411506609226828 16.721502984601766 27.750402781392843 -1 0 0
1837 496 7 0.4238 -0.9176363211140706 1.373705303275777 27.988966627815525 1 1 0
1838 496 7 0.4238 7.863532239472779 18.553292077956414 28.568873801174966 0 0 0
1839 496 6 -0.8476 -0.19586330732599197 0.9007134832720425 28.54657001861707 1 1 0
815 155 7 0.4238 8.212341582110476 15.205621981287443 25.122392388653992 0 0 0
904 185 7 0.4238 1.2330703996909003 11.33131053833324 30.68029024285164 0 0 0
943 198 7 0.4238 6.061602618254789 9.837629990768823 24.019134111321627 0 0 0
1852 501 7 0.4238 5.033148803580076 5.741061638561029 28.211160637531314 0 0 0
1853 501 7 0.4238 3.6213146190720713 6.6371239269041995 28.2652457458078 0 0 0
1854 501 6 -0.8476 4.109458577712896 5.867228051886308 27.76521414791803 0 0 0
1036 229 7 0.4238 18.19139409108449 3.3412616779898134 29.848210072164623 0 0 0
1727 459 7 0.4238 5.424519457756112 1.812232969943803 32.557847133816374 0 0 0
1575 408 6 -0.8476 -4.042116519184524 9.755801928230058 29.30299452022969 0 0 0
1876 509 7 0.4238 9.646099574437907 12.769169318099415 28.97273476456712 0 0 0
1877 509 7 0.4238 8.478052475564033 12.137629100268066 29.84577451123825 0 0 0
1878 509 6 -0.8476 9.054092984912968 11.949567127466024 29.019185352325987 0 0 0
1879 510 7 0.4238 12.568434121962456 2.8963595577901597 27.531064898931554 -1 0 0
1880 510 7 0.4238 13.166548130444239 1.7512953714564123 26.468742777830517 -1 0 0
1881 510 6 -0.8476 12.644263238942806 2.6412570538142885 26.553844189610015 -1 0 0
1894 515 7 0.4238 0.5225084720806216 4.334708837758082 29.449077759224494 0 0 0
1895 515 7 0.4238 0.23842909614373659 5.77810700885673 29.566019824993038 0 0 0
1896 515 6 -0.8476 0.09174402533397193 5.030445812964022 28.88023348542283 0 0 0
1897 516 7 0.4238 1.4123637318283295 11.501758639530827 27.529796600321554 0 0 0
1898 516 7 0.4238 1.6541751671487028 10.487442046587761 28.774250910867906 0 0 0
1899 516 6 -0.8476 1.7745327266715336 10.610486929403853 27.775447714105884 0 0 0
1912 521 7 0.4238 -8.547038441834983 16.20558457035341 33.34235557063888 0 0 0
1913 521 7 0.4238 -7.818055878520709 16.68284844495472 31.98227895213448 0 0 0
1914 521 6 -0.8476 -7.788292688894691 15.955952604797174 32.686301785759014 0 0 0
1857 502 6 -0.8476 1.2918525837142063 2.5325264264638085 33.82041793061673 1 0 0
1919 523 7 0.4238 -6.277509571172253 16.336167894908904 25.272037044458934 0 0 0
1920 523 6 -0.8476 -6.370966228960547 15.324178766022605 25.466562786409387 0 0 0
1921 524 7 0.4238 -1.2743651625914265 8.395493244127147 28.97276803198397 0 0 0
1922 524 7 0.4238 -2.6452401555806757 8.871963534531547 29.759936858569578 0 0 0
1923 524 6 -0.8476 -1.8372339897649346 8.241433773790177 29.821836885560394 0 0 0
1623 424 6 -0.8476 9.879370879304743 13.811843463428792 32.194306694847306 0 0 0
1097 249 7 0.4238 -3.8779552301066147 8.726539438882002 33.736069379542194 0 0 0
698 128 7 0.4238 -4.936794582980724 18.091179136179015 24.157861764951907 0 0 0
1942 531 7 0.4238 3.928507616313138 17.049377537021325 28.85719602806712 0 0 0
1943 531 7 0.4238 4.772687038964626 15.981974097560732 28.182898293246204 0 0 0
1944 531 6 -0.8476 4.513275131113862 16.246860043715255 29.109496264635144 0 0 0
772 141 7 0.4238 2.2697748531476134 13.232401660925605 30.73676595527312 0 0 0
1543 398 7 0.4238 6.386178688274126 3.230279350571796 23.86591043906086 0 0 0
1740 463 6 -0.8476 -1.3306579710928248 2.170043563999675 26.151045180643028 1 0 0
1492 381 7 0.4238 2.7397149875633304 7.579277864640701 30.390042042785684 0 0 0
1412 354 7 0.4238 5.4038172897447145 4.604195069803179 30.683336409513227 0 0 0
1494 381 6 -0.8476 3.1336166793997244 7.521413237508719 29.454825919142575 0 0 0
834 161 6 -0.8476 -4.0604120590067305 12.220847104637565 28.36108632703864 1 0 0
1324 325 7 0.4238 -1.1208111630407744 12.879649904909238 27.44054537761093 0 0 0
1326 325 6 -0.8476 -0.25749641548976804 12.681603819253006 27.931014595788593 0 0 0
1070 240 7 0.4238 5.456552970963225 0.09473050557233832 29.90520258557665 0 1 0
905 185 7 0.4238 -0.2508094020110531 10.872091405902788 30.294660613337072 0 0 0
838 163 7 0.4238 -1.6779572974156283 16.430374111140083 29.85328953661156 0 0 0
1903 518 7 0.4238 2.223512574574488 16.10826310535783 33.62551439027142 0 0 0
1493 381 7 0.4238 3.4006608688073006 8.508142141560649 29.27552289477232 0 0 0
1530 393 6 -0.8476 -3.167016992524313 12.163222455654108 33.300643058983624 0 0 0
1624 425 7 0.4238 10.489190463176056 5.767963841774426 32.00195684568597 0 0 0
1905 518 6 -0.8476 3.1377536568648403 16.38590109167061 34.0029466612661 0 0 0
539 110 7 0.4238 2.0458905974845085 7.580251323465257 25.461719861028083 0 0 0
1626 425 6 -0.8476 11.14644289752867 6.452050705420021 31.635442858940845 0 0 0
1482 377 6 -0.8476 9.689834280382682 11.305134692118388 32.83406870189345 0 0 0
538 110 7 0.4238 1.3433843037472368 6.035371127953409 25.407553718068463 0 0 0
1267 306 7 0.4238 16.082281005925747 4.356336726344375 31.903261335678515 -1 0 0
833 161 7 0.4238 -3.573762485065596 12.487892551597314 27.481166710692534 1 0 0
1635 428 6 -0.8476 11.407830439314226 10.302408914842212 29.137602767912355 0 0 0
1478 376 7 0.4238 16.880205606024788 0.8236786103943767 28.169537183027884 0 0 0
1596 415 6 -0.8476 11.16831489745938 9.20615347697396 31.92549921329152 0 1 0
839 163 7 0.4238 -2.7274869293327266 15.536219441232143 28.987138878112567 0 0 0
1030 227 7 0.4238 8.410945110581977 9.805704752322956 32.527155696770585 0 0 0
1625 425 7 0.4238 12.024582681521153 5.999655069290777 31.95285769951443 0 0 0
1595 415 7 0.4238 12.185690033238046 9.444478290650718 31.910283463306133 0 0 0
1031 227 7 0.4238 7.6013531328387165 8.496050359415007 32.809658534441226 0 0 0
1325 325 7 0.4238 -0.6258747386393056 12.565491648707315 28.87741336929934 0 0 0
1032 227 6 -0.8476 7.79803743838969 9.143579421542466 32.0762424007859 0 0 0
1646 432 7 0.4238 10.190713676929505 3.9672331250775428 29.86234667956921 0 0 0
58 56 7 0.4238 12.922372244264205 3.029672257305692 23.847177417741875 0 0 0
138 65 7 0.4238 7.0596395725493375 11.60717067542177 23.93056095874197 0 0 0
1105 252 7 0.4238 -1.9471986418742855 11.952832718566174 31.04008555265194 0 0 0
808 153 7 0.4238 -4.942877417725589 15.530414838619942 29.471585398948825 0 0 0
840 163 6 -0.8476 -2.285634393711096 15.603969829447246 29.87008733010296 0 0 0
1728 459 6 -0.8476 6.414958132103663 1.9871977617328724 32.45409667325063 0 1 0
1477 376 7 0.4238 17.53599020380254 1.050562874372904 29.67476515091767 -1 0 0
1529 393 7 0.4238 -4.129893414266099 12.141964727817294 33.030493767352965 0 0 0
1790 480 7 0.4238 18.621033555571053 1.5646866669756867 33.14788349182226 0 1 0
1480 377 7 0.4238 9.471645229773467 10.961665555014125 33.77475060785418 0 0 0
458 101 7 0.4238 -9.633639329686325 18.58144376310606 23.751695474822707 0 0 0
809 153 7 0.4238 -6.0552739306127865 14.234624822011476 29.266788196563922 1 0 0
773 141 7 0.4238 2.913631371605701 12.553810062226772 31.99289710329866 0 0 0
1808 486 7 0.4238 8.957733983182981 3.784872284712752 32.76995549368107 0 0 0
774 141 6 -0.8476 2.1170273558059303 12.452921202874766 31.386379097314155 0 0 0
802 151 7 0.4238 1.1978119676589585 0.14699335621306697 27.689987644280684 0 1 0
1161 270 6 -0.8476 14.489181546389554 2.7352809370768103 34.15500644614913 0 0 0
1840 497 7 0.4238 7.779351594219508 0.03720426305223219 33.99259172643986 0 0 0
1268 306 7 0.4238 16.96363088818219 4.480367572421575 33.11015054125894 0 0 0
377 92 6 -0.8476 -9.426739625397667 15.2503116709785 25.748267416741207 0 0 0
218 74 7 0.4238 12.739396150727366 7.516498547176234 27.407860185550764 0 1 0
1789 480 7 0.4238 18.720899138787818 1.0986934250434306 31.64886171980878 0 1 0
1335 328 6 -0.8476 3.2323106626563054 4.452566588228235 32.86398398877287 0 0 0
457 101 6 -0.8476 1.8358587214704356 0.015699340491241637 24.50524300879359 0 1 0
1736 462 7 0.4238 -1.5574248838360576 6.058953776065154 34.06115078605502 0 0 0
906 185 6 -0.8476 0.704254858592143 10.501269929986403 30.392961146209004 0 0 0
1479 376 6 -0.8476 16.85346178841095 0.5275559383026709 29.145000793599394 0 1 0
951 200 6 -0.8476 3.7487853904718893 1.2565475141686107 32.76256097400439 0 1 0
1107 252 6 -0.8476 -1.622182142992453 11.911001007665492 30.08576979820605 0 0 0
810 153 6 -0.8476 -5.085735182095564 14.579584725831307 29.126802028804825 1 0 0
1633 428 7 0.4238 10.712209148087238 11.019066436072727 29.216283353530798 0 0 0
1647 432 6 -0.8476 10.972005607325714 3.4281302467309915 29.556581156567614 0 1 0
1528 393 7 0.4238 -3.0930634230719316 11.88301390673304 34.294647963581596 0 0 0
1106 252 7 0.4238 -2.4468682222054565 12.054349074848806 29.490728975478287 0 0 0
1069 240 7 0.4238 4.4895275785040365 0.29430431763219894 31.18854611829694 0 1 0
1700 450 7 0.4238 3.9621134132286575 5.850123421125894 33.35301492662129 0 0 0
1855 502 7 0.4238 1.195840606789612 3.2719795635498565 34.49707108503287 0 0 0
1763 471 7 0.4238 -4.265738597100117 15.575492102093348 26.540285627447897 1 0 0
816 155 6 -0.8476 7.90911288467261 15.613813720011889 26.03503782417485 0 0 0
1038 229 6 -0.8476 18.117499543816496 2.640151099738835 30.539034813557784 0 0 0
1151 267 7 0.4238 -6.4579256795994 10.004734060774169 32.5115461927811 0 0 0
1037 229 7 0.4238 17.845939248468266 3.0240848571323244 31.43174303267744 0 0 0
1411 354 7 0.4238 6.5314538203537165 4.999173715561795 29.809863837777684 0 0 0
1152 267 6 -0.8476 13.748247119367786 9.622440639528737 31.677393971910487 -1 0 0
1265 305 7 0.4238 -3.756110593988438 16.50833675621066 34.04551636410622 0 0 0
933 194 6 -0.8476 -1.3161473695460308 13.231179616146823 23.865688918516405 0 0 0
1738 463 7 0.4238 -0.8788078247944976 1.399692458774633 25.640383234030168 0 0 0
1392 347 6 -0.8476 -4.064665675247291 14.88315283799871 31.80970614407107 0 0 0
1578 409 6 -0.8476 5.092777820167895 15.711023555491801 26.374504757815625 0 0 0
1856 502 7 0.4238 0.41485894729883116 2.0296162893544456 33.75986386075571 1 0 0
1300 317 7 0.4238 -6.103591689638173 11.996458803104264 34.26164356999507 0 0 0
1737 462 6 -0.8476 -2.2959731316591334 5.407117094686215 34.40931325335345 0 0 0
1269 306 6 -0.8476 16.51457661929674 3.7289899699224245 32.59914939875183 0 0 0
1266 305 6 -0.8476 -2.79555901165091 16.289575420924184 33.76620252818356 0 0 0
1333 328 7 0.4238 2.4667239798075795 3.8217016231726433 32.839318241275215 0 0 0
1099 250 7 0.4238 -3.0357194367101004 5.496198348417715 23.98097211504038 0 0 0
1834 495 7 0.4238 -1.5769396945421017 16.95838917811245 34.602216331834015 0 0 0
1621 424 7 0.4238 10.13928111838529 12.87815606758424 32.50446236704721 -1 0 0
1570 407 7 0.4238 0.09756616755214345 8.102402919743694 33.45960310351506 0 0 0
1334 328 7 0.4238 3.4984393327121794 4.554141510170908 31.896147564747395 0 0 0
949 200 7 0.4238 3.726370843186021 0.6705256318220869 33.61285710126902 0 1 0
1622 424 7 0.4238 10.457355696107491 14.356587685748632 32.80095836431374 0 0 0
843 164 6 -0.8476 9.13916898069113 4.256992286990652 34.57847573756873 0 1 0
1603 418 7 0.4238 9.691126676225867 11.694099129609453 25.3190677494683 0 0 0
1169 273 7 0.4238 -6.620317845939372 14.204232970338564 34.51391933571383 1 0 0
971 207 7 0.4238 5.313925324006528 18.076621955803688 34.51895228316213 0 0 0
1192 281 7 0.4238 2.341647000523882 9.06191662336422 23.8693219243105 0 0 0
1348 333 7 0.4238 2.898733330178989 7.4042605740275995 34.74943772308841 0 0 0
1601 417 7 0.4238 -10.428639657917588 15.623944277483366 34.722693221312106 1 0 0
970 207 7 0.4238 6.891256756790771 18.067824929768285 34.71713606149601 -1 0 0
1003 218 7 0.4238 -1.9108150817734406 16.408198886726204 23.77308960136511 0 0 0
725 14 5 0.425 10.61208001765858 12.563458589250537 23.749667131118215 0 0 0
763 138 7 0.4238 15.185870116147917 1.6322712155454824 40.30766145000326 -1 0 0
764 138 7 0.4238 15.618001372740325 0.798345152842385 38.97163884599365 0 0 0
765 138 6 -0.8476 15.785861662607951 0.9148475563188547 39.9780962170265 0 0 0
766 139 7 0.4238 7.780214148335958 1.6209659811820514 41.02787493596549 0 0 0
767 139 7 0.4238 6.400995678471991 1.2154883360869706 41.76446711356469 0 0 0
768 139 6 -0.8476 6.856998349627428 1.973894308086419 41.280430601391956 0 0 0
1568 406 7 0.4238 0.41375111605493303 9.100302981429376 39.84323854682466 0 0 0
1258 303 7 0.4238 -6.0123949508987415 17.92059605434681 43.527240538703744 0 0 0
1305 318 6 -0.8476 8.530994890332465 4.117653258228096 37.20986026800809 0 0 0
1488 379 6 -0.8476 8.83129009055863 0.4857101161240226 38.13272669501174 0 1 0
1052 234 7 0.4238 -4.20215380204858 7.792979205238276 35.59980249911426 0 0 0
1460 370 7 0.4238 18.654737437908416 2.5007647378015 35.293797981791236 -1 0 0
1772 474 7 0.4238 6.7331880599116865 3.830255464670752 44.35071421410291 0 0 0
776 142 7 0.4238 9.9028865139762 8.634863819982288 38.39471600399888 0 0 0
777 142 6 -0.8476 9.157296744336287 9.265783814966257 38.63944808166572 0 0 0
778 143 7 0.4238 8.551788500117462 11.37537292137514 43.100002312749254 0 0 0
927 192 6 -0.8476 1.6153626718647065 2.607660974397599 37.887625331511565 1 0 0
1143 264 6 -0.8476 -7.419032765613304 16.881204414566533 36.637487946515975 0 0 0
1048 233 7 0.4238 4.8800693205478645 10.537216169995778 35.17372286984428 0 0 0
911 187 7 0.4238 7.102038255501449 7.3855780664611625 35.10533678898247 0 0 0
1363 338 7 0.4238 -2.159658232524304 8.459510139059386 45.88655475979403 0 0 0
790 147 7 0.4238 -4.920803917482946 14.685434986100976 39.84721513056781 0 0 0
791 147 7 0.4238 -6.3369263226542705 15.168972999185069 40.29985755391149 0 0 0
792 147 6 -0.8476 -5.462119110119337 15.522329939530856 39.97429885553417 0 0 0
793 148 7 0.4238 -1.1440177127827542 12.196913776554204 41.672306540805714 0 0 0
794 148 7 0.4238 0.11531831367211029 12.36203585564253 40.76363044516605 0 0 0
795 148 6 -0.8476 -0.45908688100090184 12.90946998334312 41.42129357513076 0 0 0
992 214 7 0.4238 17.320859849110015 1.6984927706515058 36.80288872181299 0 1 0
1049 233 7 0.4238 5.022135087071811 10.972704436645431 36.68170906793098 0 0 0
1679 443 7 0.4238 1.3390126172755676 12.6848771074928 39.13492498288919 0 0 0
1184 278 7 0.4238 5.00580595074397 17.422775553927362 36.94796961261106 0 0 0
1142 264 7 0.4238 -6.713667271960802 16.924530251699988 37.381723280987934 0 0 0
1956 535 6 -0.8476 4.944180491242164 10.171771622039088 40.496386062648924 0 0 0
975 208 6 -0.8476 5.356140402661477 9.754492002797077 43.02480844392982 0 0 0
868 173 7 0.4238 12.812127120376134 10.526248096049777 42.50746066990588 -1 0 0
1784 478 7 0.4238 8.5106869795657 11.840084091700604 35.424895624228974 0 0 0
823 158 7 0.4238 15.326045675145405 5.670666065253396 43.807005121499905 0 0 0
824 158 7 0.4238 16.394062067430394 4.549023350216495 43.713001972520544 0 0 0
825 158 6 -0.8476 15.515123709428774 4.824145314840846 43.3013776922888 0 1 0
1746 465 6 -0.8476 7.378255331845679 16.269601299882382 37.14126046890156 -1 0 0
890 180 7 0.4238 0.6566237758605279 5.426730012034121 36.31486941434999 0 1 0
786 145 6 -0.8476 7.280249695613683 12.965990375284377 34.80599977447947 0 0 0
1846 499 7 0.4238 19.796832447527823 0.36056554371438615 45.063480954982104 0 1 0
1765 472 7 0.4238 12.738696375611886 1.8667050049686291 40.25282325875373 0 0 0
1779 476 6 -0.8476 -7.083502436929364 13.306278527441453 37.72745280367108 0 0 0
1868 506 7 0.4238 10.807010317394466 2.5096345736662053 35.394302098660724 0 1 0
1619 423 7 0.4238 3.9675505240858517 2.7557468437274077 40.51996759355107 0 0 0
1872 507 6 -0.8476 -2.710838568860545 7.202444885401227 41.552699049177384 0 0 0
844 165 7 0.4238 12.323882639226243 4.362957974394741 38.948974945041876 0 0 0
845 165 7 0.4238 13.698381376868545 5.144114616356853 39.38156519082258 0 0 0
846 165 6 -0.8476 13.144128325600937 4.313999604396705 39.541501878841736 0 0 0
856 169 7 0.4238 1.741976888037343 14.695625135235176 38.12070942401156 -1 0 0
857 169 7 0.4238 2.820648531677463 14.595661292780454 39.24582728073837 0 0 0
858 169 6 -0.8476 2.0417948455574315 14.084515672810168 38.85983324139135 0 0 0
859 170 7 0.4238 3.8397676056330834 0.6738328816586084 40.79179425114309 0 0 0
860 170 7 0.4238 2.6495253191671733 0.8668833338795242 41.89178522207441 0 0 0
861 170 6 -0.8476 3.3554519642958693 1.4009821764295236 41.39503300600122 0 1 0
871 174 7 0.4238 0.42608891135164234 1.285419216235396 37.77135196208657 1 1 0
872 174 7 0.4238 -0.31634656606464956 0.6022134285033619 38.998211606667084 1 1 0
873 174 6 -0.8476 -0.27798725372554073 0.5385060803161907 37.97050069897972 1 1 0
1185 278 6 -0.8476 4.309657193318573 17.531036645375114 37.68926021619362 0 0 0
1050 233 6 -0.8476 5.559143234667853 10.93721815717001 35.845268468531046 0 0 0
848 166 7 0.4238 3.8653184060468355 7.537412183292358 43.32823915282127 0 0 0
895 182 7 0.4238 14.502638149273913 7.66856798500088 39.02869939956726 0 0 0
896 182 7 0.4238 13.971701222648901 7.38537531305185 40.57032754730956 0 0 0
1141 264 7 0.4238 -8.281856964434462 16.448221525717702 37.0222772859591 0 0 0
1211 287 7 0.4238 -1.9580985062362941 3.7330336608000505 37.58749778786212 1 0 0
1443 364 6 -0.8476 -8.232093660681826 14.321599505157877 43.49769556727855 0 0 0
1079 243 7 0.4238 -1.2350936453138706 6.654963357265632 44.601860104865054 0 0 0
1424 358 7 0.4238 13.36727900499851 7.634011896596177 35.320352405631866 0 0 0
1819 490 7 0.4238 -0.15047996552268453 9.442614116011047 41.98036447527015 0 0 0
1864 505 7 0.4238 4.128349032414981 3.495175853059581 36.42648877038671 0 0 0
910 187 7 0.4238 6.723631182885484 6.014201386585187 35.74510564969962 0 0 0
991 214 7 0.4238 18.88361628670164 1.416206598494124 37.25379308257004 0 1 0
1836 495 6 -0.8476 -0.8672441009646634 17.521252866574045 35.09311722673893 0 0 0
1416 355 6 -0.8476 2.1380973577208904 9.787749792736387 44.47963702334431 0 0 0
1170 273 6 -0.8476 -6.117500684567362 13.667242454313168 35.16629547322768 1 0 0
1483 378 7 0.4238 -2.494947007268008 12.632820553063283 45.51590626834938 0 0 0
1933 528 7 0.4238 -0.0873359656233288 16.468075273709424 36.17412826045622 0 0 0
1550 400 7 0.4238 2.618798922776948 17.166605848063767 35.263406789226025 0 0 0
1643 431 7 0.4238 -3.2795543340800926 10.262272754721273 40.949820209409054 1 0 0
1823 491 7 0.4238 -5.183408290878056 7.766188497767463 45.570659487948404 1 0 0
1238 296 7 0.4238 -1.5998320705767761 15.506887346093318 39.79711603019301 0 0 0
1491 380 6 -0.8476 -1.1550476165277304 16.333506774673406 44.12589189233787 0 0 0
928 193 7 0.4238 3.208355719663274 10.419727490856394 37.10024930430202 0 0 0
929 193 7 0.4238 3.243915880997047 9.980812723854754 35.5554870900529 0 0 0
930 193 6 -0.8476 2.991855979524058 9.630825900242554 36.498729018029046 0 0 0
937 196 7 0.4238 -9.562072223871612 18.417095602443613 45.145061055850356 0 -1 0
938 196 7 0.4238 -8.269926711001753 17.564634899932525 44.766115770010046 0 -1 0
939 196 6 -0.8476 -9.281712854902723 17.555349893800596 44.71933314731795 0 -1 0
1783 478 7 0.4238 9.933508302804105 11.259421611643235 36.03271775616194 0 0 0
1231 294 7 0.4238 13.363196325889042 4.949735589494905 43.538757842944854 0 1 0
1067 239 7 0.4238 8.35700272088987 8.496940337201487 45.30389350327855 0 0 0
1785 478 6 -0.8476 9.100879110232126 11.015468652462227 35.522679750168344 0 0 0
1414 355 7 0.4238 2.4446849100890344 10.750167361310389 44.50446527483468 0 0 0
1760 470 7 0.4238 -2.5754348297025285 11.815947330813987 43.25828421391633 0 0 0
1521 390 6 -0.8476 3.0390639373559147 12.323631603532583 44.49010795918453 0 0 0
889 180 7 0.4238 2.2281376154315096 5.420989855496719 36.24202720261383 0 1 0
1271 307 7 0.4238 10.010529680084478 6.978728885119802 40.452141362484134 0 0 0
1632 427 6 -0.8476 6.873635568159995 8.262495742413074 45.122918996120056 0 1 0
1229 293 7 0.4238 12.070497774220527 9.569939613942122 36.40581982962422 0 0 0
1867 506 7 0.4238 9.552600910930527 1.4494070177453848 35.075507731338405 0 1 0
964 205 7 0.4238 6.105239174469357 7.009089952303964 37.15043223586468 0 0 0
965 205 7 0.4238 5.3631503781097365 5.580812257706469 37.44816347876659 0 0 0
966 205 6 -0.8476 6.299389500247893 6.046643722758168 37.427057869522024 0 0 0
1304 318 7 0.4238 7.915233933509429 4.8409289282158 37.56235099982248 0 0 0
973 208 7 0.4238 5.898905157013451 10.463873790174334 43.52119098054316 0 0 0
1080 243 6 -0.8476 -1.0550693420167665 6.84385367198365 43.61440150269095 0 0 0
1787 479 7 0.4238 13.908942473277076 9.76855450572903 45.47236819040849 0 0 0
1441 364 7 0.4238 -7.991317073327772 14.667851969777187 44.396684197040706 0 -1 0
993 214 6 -0.8476 18.254782506161852 2.1326020070425136 36.88967680807872 0 1 0
1940 530 7 0.4238 9.70317374417593 4.220028100469293 44.8534791821246 0 0 0
1280 310 7 0.4238 12.113436555230981 7.361311625953089 39.080062798387054 0 0 0
1745 465 7 0.4238 7.691355605981668 17.024452631976004 37.74309628423034 -1 -1 0
988 213 7 0.4238 -11.250134818392239 17.577210433314015 42.13368747765259 0 0 0
989 213 7 0.4238 -10.211015076386563 17.855835492629144 43.24103503317106 0 0 0
990 213 6 -0.8476 -10.523485597482594 18.233585002363583 42.350400150222846 0 0 0
1066 239 7 0.4238 9.600326404851698 8.33336021850437 44.253135192537286 0 0 0
967 206 7 0.4238 -6.254637346156598 17.05530955214297 35.18586864814563 1 0 0
1111 254 7 0.4238 -10.959444617586595 16.8457244053407 44.89892784768701 0 -1 0
994 215 7 0.4238 1.5031209940498989 8.0760177116629 38.37948974257595 0 0 0
995 215 7 0.4238 0.27493658232774437 7.94205814419312 37.323842711958754 0 0 0
996 215 6 -0.8476 0.5476220978191917 8.394630326310583 38.20521980615158 0 0 0
1009 220 7 0.4238 6.423880127163176 16.12471186362844 43.69626680987314 0 0 0
1584 411 6 -0.8476 -3.895413015856315 13.398749642084542 41.40709992191315 0 0 0
1011 220 6 -0.8476 7.063646507710671 15.32466664280139 43.64236094414003 0 0 0
1773 474 6 -0.8476 6.554775798236788 3.993434408129774 45.33788223420424 0 0 0
1469 373 7 0.4238 4.12741940178147 4.212952718470618 38.533960029526845 0 0 0
1935 528 6 -0.8476 0.1829543996273315 15.731104766317086 36.84754702492033 0 0 0
1902 517 6 -0.8476 5.713378062638621 13.196624999456391 43.47440235470087 0 0 0
1239 296 6 -0.8476 -1.7186768739274245 15.143199799426673 38.84350908866727 0 0 0
784 145 7 0.4238 6.386416907098015 12.633204554760658 35.14522847578213 0 -1 0
1033 228 7 0.4238 2.6649640592534594 6.454364410237986 41.34315533088992 0 0 0
1034 228 7 0.4238 3.330892738369136 5.060143753771871 40.74656757586802 0 0 0
1035 228 6 -0.8476 2.720678435906894 5.435153784708144 41.48272414457256 0 0 0
1954 535 7 0.4238 5.6761709642129095 9.545255473519747 40.15914754450199 0 0 0
1743 464 6 -0.8476 10.088474966825572 14.904211623681034 40.32223314409553 -1 0 0
1464 371 6 -0.8476 9.270861799096696 13.961425409805358 45.823095224393235 -1 0 0
1734 461 6 -0.8476 10.179960647402337 4.381302881866519 43.11725964154266 0 1 0
1415 355 7 0.4238 1.4525415845638896 9.65311530186635 43.73941611208797 0 0 0
1659 436 6 -0.8476 7.522622239855069 4.06053281913873 42.90210126963572 0 0 0
771 140 6 -0.8476 -5.33466982926355 11.330788148771452 38.17926757292437 0 0 0
1303 318 7 0.4238 8.12806626966912 3.207243212692927 37.08088481200364 0 0 0
1869 506 6 -0.8476 10.397469429397283 1.6364306128606105 35.6233995246432 0 1 0
1057 236 7 0.4238 10.067460212428617 4.399031817303296 37.691116920622164 0 0 0
1058 236 7 0.4238 11.42411345518291 4.5964188621840325 36.82313194187687 0 0 0
1059 236 6 -0.8476 11.029074736937838 4.748380676732181 37.75637269588857 0 0 0
1782 477 6 -0.8476 11.149316648368517 11.62353520943323 37.11409719792483 0 0 0
1636 429 7 0.4238 10.622235022810093 11.343125824142636 42.50450372131309 0 0 0
1778 476 7 0.4238 -7.47236010398579 14.239406152977283 37.84123930264616 0 0 0
1591 414 7 0.4238 -6.77919562208773 17.965020085752595 39.557196383788636 0 -1 0
847 166 7 0.4238 2.826013453674128 8.316004976264379 44.382605535644736 0 0 0
1010 220 7 0.4238 6.455452688425589 14.507108345623317 43.67812274518308 0 0 0
1687 446 7 0.4238 -2.3767398595274543 3.8447134150716487 45.429722121672135 0 0 0
1735 462 7 0.4238 -2.8152126682921677 5.894029873785126 35.14306185768189 0 0 0
1168 273 7 0.4238 -5.321618639991574 14.243107412101695 35.38475707343523 1 0 0
1075 242 7 0.4238 9.163269430350356 0.6599699247349742 39.746149710989016 0 0 0
1076 242 7 0.4238 10.298121420839403 1.0313462943894312 40.723605157503016 0 0 0
1077 242 6 -0.8476 9.290774426431566 0.7529390567491451 40.76004410390622 0 0 0
1081 244 7 0.4238 0.14922683058604982 3.9692620652147284 43.05560492011206 0 0 0
1082 244 7 0.4238 0.9145898754210002 4.754357291859525 41.86688803784911 0 0 0
1083 244 6 -0.8476 0.002976420801772228 4.542107531636858 42.23453181197604 0 0 0
1664 438 7 0.4238 0.12099305808512954 14.052048774788135 44.33436778361883 0 0 0
1102 251 7 0.4238 14.75724318176102 3.4690321945524247 42.053720735120834 0 1 0
1866 505 6 -0.8476 4.499615482813388 2.827304157623792 35.76990870227317 0 0 0
1771 474 7 0.4238 5.931004119516302 3.2002862469777202 45.56558287001394 0 0 0
1865 505 7 0.4238 4.525879799828071 3.358315844382253 34.924965335045 0 0 0
1232 294 7 0.4238 12.779584958834167 5.305211894101845 45.09150607060386 0 1 0
1349 333 7 0.4238 2.384424769149022 8.07248662241885 36.170160330843586 0 0 0
1103 251 7 0.4238 13.879560514308132 3.520340406956188 40.76328862775203 0 1 0
1104 251 6 -0.8476 14.353941121221315 2.82984416004834 41.36872606399546 0 1 0
1887 512 6 -0.8476 -4.390079020428567 18.03469971084284 42.81705990326414 0 0 0
1759 470 7 0.4238 -1.6982985871524323 10.591885599296578 42.68864922506017 0 0 0
1108 253 7 0.4238 -1.0427150136136678 9.27560500567541 38.11828652800003 0 0 0
1212 287 6 -0.8476 -1.5474968998930925 4.570967520821064 37.949209491056926 1 1 0
926 192 7 0.4238 1.3714734983651353 3.3784654551155193 37.28072994553349 1 0 0
1484 378 7 0.4238 -3.0940951276393514 13.674434885775282 44.465545608625774 0 0 0
897 182 6 -0.8476 13.715902012767868 7.297831697977494 39.580499829516256 0 1 0
1946 532 7 0.4238 6.475940343163008 7.620976417280759 40.338638719226 0 0 0
1678 443 7 0.4238 0.9080619475304559 11.395238617781933 38.164192477729095 0 0 0
1114 255 7 0.4238 6.263421842029843 2.0789227967193504 36.41332998471094 0 0 0
1115 255 7 0.4238 7.494191089553554 1.4863096629413945 35.586913963555375 0 0 0
1116 255 6 -0.8476 7.221744157971332 1.742378204504225 36.51333411502675 0 0 0
1117 256 7 0.4238 4.835725837886394 14.692415181042431 39.17601741666065 0 0 0
1485 378 6 -0.8476 -2.6315451258860065 12.767169933091951 44.524858058582126 0 0 0
1119 256 6 -0.8476 5.420346159075578 14.06675815481946 38.642785226764076 0 0 0
1901 517 7 0.4238 6.4642118738300915 12.512170049132102 43.610906386227505 0 0 0
1658 436 7 0.4238 7.33708287155459 3.3024493103587473 42.238367490583876 0 0 0
1644 431 6 -0.8476 -3.499503753930961 9.381916039619409 40.43302853776673 1 0 0
1939 530 7 0.4238 8.399934485158552 4.470413205698271 45.75842190755702 0 0 0
1156 269 7 0.4238 15.503557524514125 1.6217281534705232 44.760015401514714 0 1 0
1891 514 7 0.4238 1.4257202413005432 15.64570201573843 44.99916588754111 0 0 0
1138 263 7 0.4238 17.924529343034322 3.817361176579802 40.80079026743281 0 0 0
1139 263 7 0.4238 -1.2419221807581267 4.464847085467626 41.044557065509444 1 0 0
1140 263 6 -0.8476 -2.147720334073411 4.549991945985259 40.5763351587842 1 0 0
1442 364 7 0.4238 -7.513556916423078 13.65254406590631 43.261923234075994 0 -1 0
1753 468 7 0.4238 15.236340497706488 7.126557481920132 43.01939578201623 -1 0 0
974 208 7 0.4238 5.219111320190905 10.052403248774699 42.06620704759153 0 0 0
1144 265 7 0.4238 10.025447213407524 15.172066111906979 42.26084200259188 0 0 0
1145 265 7 0.4238 -9.634237698467047 14.880202526495754 43.39391211153328 1 0 0
1146 265 6 -0.8476 10.052269833511044 14.970648298207497 43.24778063208438 0 0 0
1316 322 7 0.4238 8.427449643841255 14.036290634664118 35.24659804771817 0 0 0
1732 461 7 0.4238 11.142064979513531 4.1322727749012875 43.144653428316296 0 0 0
849 166 6 -0.8476 3.3313435407376772 7.439097756168597 44.1832190028331 0 0 0
1733 461 7 0.4238 10.163469724997801 5.098364602158051 42.41095672908316 0 0 0
1157 269 7 0.4238 14.922833028821538 0.832101897055225 43.281863527269884 0 1 0
1158 269 6 -0.8476 15.670833262845107 0.9939805581172203 43.97409986870024 0 1 0
1165 272 7 0.4238 0.8933362090073578 18.421081060920447 41.46947650529027 0 0 0
1166 272 7 0.4238 1.9781436864984716 17.48854802963467 42.29862340329744 0 0 0
1167 272 6 -0.8476 1.4819389767546751 18.360537831290024 42.29427969179025 0 0 0
1172 274 7 0.4238 8.202456875359088 0.2473508920710945 45.78522272868837 0 0 0
1072 241 7 0.4238 -8.045373579774319 18.218783929005944 35.826966188752515 0 -1 0
1068 239 6 -0.8476 9.358316305999734 8.720993483876443 45.145569369186184 0 1 0
1820 490 7 0.4238 -0.9374821221798812 8.393872231848626 43.162957134852576 0 0 0
1358 336 7 0.4238 -0.9335358986916158 16.097771989922514 42.26033081585159 0 0 0
1618 423 7 0.4238 5.429126701794878 3.211382805397225 40.69422026803211 0 0 0
1690 447 7 0.4238 -4.376015597744452 15.119910073145324 45.232927884731005 0 0 0
1263 304 6 -0.8476 7.26476335929148 12.98536772971336 40.32640430366025 0 0 0
1282 311 7 0.4238 13.013578446434707 3.089732860134073 44.96767569403876 0 1 0
1210 287 7 0.4238 -1.8252900973707764 4.686011739031428 38.93486978853967 1 0 0
1770 473 6 -0.8476 5.457233992640764 18.06695694288091 41.415597253253914 0 0 0
1886 512 7 0.4238 -4.032890873293106 18.601284191254486 43.606266362058236 0 0 0
1706 452 7 0.4238 4.162212790981851 3.0721419218102004 44.31240234460588 1 1 0
1947 532 6 -0.8476 6.582963964484416 8.461795468175827 39.76714063754893 0 0 0
1272 307 6 -0.8476 9.528645010304952 6.339625185093948 41.08208226199834 0 0 0
1228 293 7 0.4238 13.449696820080101 9.789214151177507 36.85065177551517 0 0 0
1490 380 7 0.4238 -0.7760145518784617 15.863916265438986 44.94521199723123 0 -1 0
1230 293 6 -0.8476 12.961631974431667 9.102997506992228 36.3758764946 0 0 0
1241 297 7 0.4238 -3.6173941162991112 11.92082928974841 36.65263613468136 0 0 0
1470 373 6 -0.8476 4.11430036083884 4.686979638749704 37.62465147863219 0 0 0
1707 452 6 -0.8476 4.502999193126294 2.1044118360231225 44.28543745149207 1 1 0
1246 299 7 0.4238 10.640766575472163 14.676624229365705 37.19011905090819 -1 0 0
1247 299 7 0.4238 -10.266205624503447 16.155203117149618 37.50611637992416 1 0 0
1248 299 6 -0.8476 -9.515075551557995 15.501368631885903 37.46439519748953 1 0 0
1249 300 7 0.4238 2.393049701457799 8.81053192371179 41.66096027638222 0 0 0
1250 300 7 0.4238 3.946543296763319 8.769223042732268 41.27980225894414 0 0 0
1251 300 6 -0.8476 3.144210810649196 8.14994023407602 41.43208923908207 0 0 0
1642 431 7 0.4238 -3.1908930876952466 8.57426737698919 41.01912692856821 1 0 0
1468 373 7 0.4238 3.3857575179871593 5.3234283779329985 37.88011091289018 0 0 0
1657 436 7 0.4238 8.555915741004695 4.150028788981789 42.9648703587058 0 0 0
1616 422 7 0.4238 -4.661032997242921 18.140282005414452 38.452538587068766 0 0 0
779 143 7 0.4238 8.255656347877045 11.5617564291893 44.59223894843962 0 0 0
1113 254 6 -0.8476 8.727301450584594 17.1073100896979 44.98103455135296 -1 0 0
1761 470 6 -0.8476 -2.4639972898768194 11.235209705345012 42.405178041628986 0 0 0
1110 253 6 -0.8476 -1.930186871143989 9.768520479344817 38.00370362792529 0 0 0
1281 310 6 -0.8476 11.230872564336934 7.354066154088437 38.59766297877774 0 0 0
812 154 7 0.4238 0.5478338302054838 0.012546669732184053 36.60048463005259 1 0 0
1680 443 6 -0.8476 1.240416568322225 11.665637573911715 39.08754365417695 0 0 0
1520 390 7 0.4238 3.0287132926707176 12.439752175848781 45.49199422282038 0 0 0
1273 308 7 0.4238 8.806094809410455 12.269334173239221 39.606028022817746 -1 0 0
1274 308 7 0.4238 10.029816372684511 11.790189828528032 40.40144213959666 0 0 0
1275 308 6 -0.8476 9.736971459005693 11.889347185468916 39.43389073912403 0 0 0
1276 309 7 0.4238 8.97167705403176 1.9258601143067904 45.76490175767837 0 0 0
1277 309 7 0.4238 8.57656452182731 2.1539952967847458 44.232587628689906 0 0 0
1278 309 6 -0.8476 8.789553449505137 1.4285192753803941 44.912694800712345 0 1 0
1620 423 6 -0.8476 4.590679246398392 3.521327201026686 40.242765147500954 0 1 0
972 207 6 -0.8476 6.032141376955895 17.800526329647266 35.18378019231584 0 0 0
1742 464 7 0.4238 9.824083198290317 15.885348340055925 40.3654705529975 -1 0 0
1285 312 7 0.4238 3.1179821434615604 7.766261547444595 39.84552279901909 0 0 0
1286 312 7 0.4238 3.793539307527573 7.790706541201401 38.33592716142409 0 0 0
1287 312 6 -0.8476 3.1060988300740475 7.3769207232501595 38.920027754368256 0 0 0
1297 316 7 0.4238 0.8247708537246976 0.6316369600965415 41.36550241654829 1 1 0
1298 316 7 0.4238 -0.1047671205437103 1.963687933580889 41.2356684547567 1 1 0
1299 316 6 -0.8476 0.20541480644547483 1.1384016498078509 40.73868488897043 1 1 0
1885 512 7 0.4238 -3.762886189637154 18.29281901649685 42.06357551848427 0 0 0
1638 429 6 -0.8476 10.065389071819448 12.088295415365351 42.124826103519304 0 0 0
1270 307 7 0.4238 8.579443592674325 6.28205804996108 40.76198395002673 0 0 0
1848 499 6 -0.8476 19.356747186630553 0.9948980740383506 45.70552175205581 0 1 0
1261 304 7 0.4238 7.1420344692025735 13.058420201201749 41.328566715827805 0 0 0
942 197 6 -0.8476 -4.829934518314636 8.364954395838714 38.278511954939624 1 0 0
1315 322 7 0.4238 8.594177949343026 15.060673449336404 36.532970962305114 0 0 0
1259 303 7 0.4238 -5.7978136818178445 17.65479904631303 45.167184200400726 0 0 0
1317 322 6 -0.8476 9.089413605353968 14.604906761691163 35.78775657649411 0 0 0
1318 323 7 0.4238 3.7299999047480026 5.411676388591994 44.332158517747004 0 0 0
1319 323 7 0.4238 3.0641719873921414 4.76128777654485 43.057263582926 1 0 0
1320 323 6 -0.8476 3.5016946369576596 4.4996953583470285 43.95737207043389 1 0 0
1651 434 7 0.4238 3.340257466415002 11.975683706494575 38.28899319862839 0 0 0
1769 473 7 0.4238 18.016380319816122 0.2660750605183895 41.94672190279035 0 1 0
1665 438 6 -0.8476 0.6868907408039073 13.43647531011451 43.805046426054446 0 0 0
1330 327 7 0.4238 4.1288793960424055 18.151165940832286 44.6322077477045 0 0 0
1331 327 7 0.4238 3.672489179882906 16.74891325635423 45.08531576066897 0 0 0
1332 327 6 -0.8476 4.536636877901531 17.315371304692267 45.04506026872468 0 0 0
1631 427 7 0.4238 6.40946618020438 8.326476261189816 44.21648354936501 0 0 0
1233 294 6 -0.8476 12.823471270393735 4.5884209669398 44.328684166646674 0 1 0
1767 472 6 -0.8476 11.88030604483896 1.4617891318102159 39.96007302234198 0 1 0
1345 332 7 0.4238 -1.5211840619869488 7.271943725257076 36.47647412622304 1 0 0
1346 332 7 0.4238 -0.9067819321922946 5.887114032621535 37.00803251907741 1 0 0
1347 332 6 -0.8476 -0.6558385901705552 6.742546852755224 36.48909525619204 1 0 0
1893 514 6 -0.8476 2.223365717338509 15.944399659581858 45.52489120499997 0 0 0
1822 491 7 0.4238 14.57726468059741 6.549988514568854 45.586112552717424 -1 0 0
1350 333 6 -0.8476 2.2397273370103465 7.29719471005714 35.50999655519622 0 0 0
1351 334 7 0.4238 14.797869106324585 0.7043861412604469 36.430453173749164 0 1 0
1352 334 7 0.4238 14.680238228643395 2.3246948581354223 36.262452952774495 0 1 0
1353 334 6 -0.8476 15.132971079911542 1.599883969617588 36.78756810726445 0 1 0
1354 335 7 0.4238 16.87238934476911 1.9277609075155007 42.653045994924135 -1 0 0
1355 335 7 0.4238 18.26865531387034 2.5965760355808127 43.167867151509675 0 0 0
1356 335 6 -0.8476 17.788989712253635 2.298239161035429 42.30250158133166 0 0 0
1357 336 7 0.4238 -0.7251574111911548 14.78856702202036 41.31940930471966 0 0 0
1284 311 6 -0.8476 12.792717196387036 2.242342513061754 45.500946214016366 0 1 0
1359 336 6 -0.8476 -0.6281953440175962 15.820053682023206 41.33656396561283 0 0 0
1242 297 6 -0.8476 -3.3305345656238923 11.491040862356373 35.785832321692915 0 0 0
1768 473 7 0.4238 4.727780550281574 18.50971869960765 40.83592413189045 -1 0 0
1200 283 6 -0.8476 12.31349503233939 4.157562461062612 35.41860406816876 0 0 0
1630 427 7 0.4238 6.3247147950017935 8.968716994615898 45.63378629976882 0 0 0
1955 535 7 0.4238 4.804303486496004 10.617653145427028 39.58883696741226 0 0 0
775 142 7 0.4238 9.53607432719575 10.2098051989787 38.45727065729886 0 0 0
1387 346 7 0.4238 -6.514275682961371 11.655869318919107 41.899216219077445 0 0 0
1388 346 7 0.4238 -5.720357140379579 13.08522830274015 42.05147994506389 1 0 0
1389 346 6 -0.8476 -6.583135599871322 12.616869867281828 42.23727201608181 1 0 0
1689 446 6 -0.8476 17.686413283512206 3.117602586275785 45.13406431424945 -1 1 0
769 140 7 0.4238 -6.046680069894203 12.100374377555513 38.101039127537 0 0 0
1754 468 7 0.4238 -4.400148634672884 7.052524627381084 41.7226894996419 0 0 0
1393 348 7 0.4238 2.0222481660074894 3.683567932828267 44.349629403766045 0 0 0
1394 348 7 0.4238 1.362969647994531 2.1528056041479524 44.650149343899805 1 0 0
1395 348 6 -0.8476 1.2071995107419953 3.0484674100390374 44.183399187073974 1 1 0
1705 452 7 0.4238 4.153564285023966 1.8081823050608714 43.390573718556304 1 1 0
1653 434 6 -0.8476 4.288800697155206 11.599731137868611 38.21021155938281 0 0 0
1112 254 7 0.4238 8.238879840665758 16.353166903734525 44.46711603224144 -1 -1 0
1755 468 6 -0.8476 15.373307685568479 7.324030031713285 42.045367950763044 -1 0 0
1777 476 7 0.4238 -6.579293662930767 13.334054272678936 36.82735644086042 0 0 0
1744 465 7 0.4238 6.729886304514297 16.60534549925574 36.45011964419947 -1 -1 0
1447 366 7 0.4238 -4.608900021064059 15.917523903324447 43.25894483742189 0 0 0
1448 366 7 0.4238 -3.0140695734862057 16.00467625346134 43.74335137398487 0 0 0
1449 366 6 -0.8476 -3.799769695905361 15.392179140922938 43.57546837973882 0 0 0
1453 368 7 0.4238 -8.086600563159047 14.566039986926613 41.44774621141379 0 0 0
1454 368 7 0.4238 -9.018815078776539 15.008814425713396 40.2383246860287 0 0 0
1455 368 6 -0.8476 -8.076064809843647 15.111772425981266 40.59063184525584 0 0 0
1741 464 7 0.4238 9.317557131024579 14.309415160692176 40.114409083412305 -1 0 0
1486 379 7 0.4238 9.606721287617086 0.4413577734431336 37.5057055700094 0 1 0
1262 304 7 0.4238 6.410603477969693 13.160634690743308 39.78896624918238 0 0 0
1462 371 7 0.4238 9.53535791333091 14.183362904312915 44.858412325038046 -1 0 0
1549 400 7 0.4238 1.6600646609982355 16.762010794484606 36.556068434595595 0 0 0
1551 400 6 -0.8476 2.2210992859713783 17.50481865755232 36.148266115922134 0 0 0
1766 472 7 0.4238 11.751819605746686 1.743602598307502 39.01214798170454 0 0 0
1109 253 7 0.4238 -2.436585734279037 9.700343210599353 38.87236144342447 0 0 0
1213 288 7 0.4238 -0.855843509990436 11.0768475271274 37.227439903962384 0 0 0
1592 414 7 0.4238 -7.628772334053398 17.184810711894322 40.69940282347173 0 -1 0
1214 288 7 0.4238 -0.20009068432404803 11.529547900542912 35.80544961459507 0 0 0
1199 283 7 0.4238 12.37206868043311 5.135690180090286 35.49194847194626 0 0 0
1900 517 7 0.4238 4.813830321074343 12.761125454956806 43.69869273925602 0 0 0
1487 379 7 0.4238 8.09814215341295 0.9305924402666144 37.54038168829517 0 1 0
869 173 7 0.4238 12.16369834807517 10.187175191645021 43.85678724179998 0 0 0
1240 297 7 0.4238 -3.431439745222804 10.497670969457864 35.89834363560043 0 0 0
1519 390 7 0.4238 2.3327734492094923 12.949068441606334 44.069352482060154 0 0 0
1051 234 7 0.4238 -4.115424529979077 7.063965069026171 37.05858175130049 0 0 0
1917 522 6 -0.8476 -3.4508841498126044 13.188260668238199 38.62710726574315 0 0 0
1916 522 7 0.4238 -3.527852940452809 13.014261838022279 39.6393114813219 0 0 0
1915 522 7 0.4238 -2.712525923966299 13.91847324769377 38.638675294286216 0 0 0
1637 429 7 0.4238 10.400888762704874 12.919465467716027 42.60621154484154 0 0 0
1617 422 6 -0.8476 -5.471644314641233 17.51381015634747 38.33652639473606 0 0 0
1279 310 7 0.4238 11.016874329436492 6.432174425311291 38.22458278746639 0 0 0
1615 422 7 0.4238 -5.320239820178888 16.708712465233372 38.97895783228787 0 0 0
1781 477 7 0.4238 10.511694185048658 11.653615990930987 37.92191008446336 0 0 0
1780 477 7 0.4238 12.05793856727391 11.946239659442378 37.46395642588943 0 0 0
1531 394 7 0.4238 3.937145295033004 16.658346539905683 39.09053691859412 0 0 0
1532 394 7 0.4238 4.19852768463435 16.512912687615145 40.63254165900233 0 0 0
1533 394 6 -0.8476 3.9021312775511325 15.949987398729158 39.852510743738215 0 0 0
1546 399 7 0.4238 -5.7401426040652215 9.637953554220923 41.51892275781094 0 0 0
1547 399 7 0.4238 13.77477724017146 9.882039450019665 40.39152852915725 -1 0 0
1548 399 6 -0.8476 -6.634572367584406 10.100873462013675 41.34439477329184 0 0 0
1558 403 7 0.4238 7.271988587325321 17.285760744375718 40.9528030629921 0 0 0
1559 403 7 0.4238 7.783448878609858 15.910718578058292 41.87471512465932 0 0 0
1560 403 6 -0.8476 8.03184390255391 16.70683201442175 41.2978326018656 0 0 0
1937 529 7 0.4238 6.681608408248738 9.62467625106964 35.917703154909674 0 0 0
1489 380 7 0.4238 -0.9260578746343133 17.31761397713799 44.28798569295718 0 -1 0
1563 404 6 -0.8476 6.274885393977176 5.934718443362087 41.20041521391792 0 0 0
770 140 7 0.4238 -4.513257524836616 11.80109471934205 38.58005964415525 0 0 0
1260 303 6 -0.8476 -6.468422576622738 17.63262531729946 44.39267691114621 0 0 0
1565 405 7 0.4238 12.495712428321443 0.14735403659688676 43.447013849439315 0 1 0
1567 406 7 0.4238 0.8750333094406957 10.541337456625772 39.98139319484048 0 0 0
1198 283 7 0.4238 13.155960943321517 3.791093451410562 35.02883422297204 0 0 0
1569 406 6 -0.8476 0.6023463685883471 9.759128054312901 40.61239024502009 0 0 0
1566 405 6 -0.8476 11.904415362224388 0.2319350774514461 44.26178434677329 0 1 0
1074 241 6 -0.8476 3.5913006210771 0.34276069858125385 35.382543362086835 0 0 0
1180 277 7 0.4238 9.866082287474898 10.36524693552776 45.887625835286485 -1 0 0
1593 414 6 -0.8476 -7.477185829082822 18.108299774172327 40.27503478846597 0 0 0
1934 528 7 0.4238 0.15324543430584167 14.93065895418297 36.223810235175385 0 0 0
1824 491 6 -0.8476 15.305921865105644 6.951180694820228 45.008453788635386 0 1 0
1579 410 7 0.4238 -4.446794887190219 16.190727244178444 37.091236549499655 1 0 0
1580 410 7 0.4238 -3.7573437841224075 14.804587044562403 37.12267086325641 1 0 0
1581 410 6 -0.8476 -4.192109657676499 15.443174668532604 36.47512652315987 1 0 0
1582 411 7 0.4238 -3.466184634089146 14.31652079025166 41.61685033519596 0 0 0
1583 411 7 0.4238 -3.3803845824335106 12.713153905210659 41.95572711179697 0 0 0
1237 296 7 0.4238 -0.8772916117396881 15.298428287838108 38.329462754187475 0 0 0
1945 532 7 0.4238 7.552757956890912 8.46445770605309 39.49247101105874 -1 0 0
941 197 7 0.4238 -4.945550404664147 9.261498682662939 37.79397579784693 1 0 0
940 197 7 0.4238 -4.490939472902119 8.769054519250574 39.16173317758539 0 0 0
1118 256 7 0.4238 6.041886280482198 14.633967824568806 38.0995901217596 0 0 0
1564 405 7 0.4238 12.172890100551035 1.1720840230155969 44.616392539273335 0 1 0
1936 529 7 0.4238 8.133185716606876 9.429862268962747 35.971077636852094 0 0 0
1183 278 7 0.4238 3.4223582099078715 17.60336448537323 37.20417999580097 0 0 0
780 143 6 -0.8476 7.75784204382295 11.378222158271228 43.722046406950305 0 0 0
1561 404 7 0.4238 6.742080161701885 5.568219705833093 42.046344999306015 0 0 0
1788 479 6 -0.8476 12.893903566354338 9.817806562566439 45.63507592717876 0 0 0
1078 243 7 0.4238 -0.7500084721311021 5.970389102734928 43.19592366295999 0 0 0
1871 507 7 0.4238 -2.752713185368844 6.4190638398400095 40.916006747179594 0 0 0
1870 507 7 0.4238 -2.086662555668211 7.01785451509493 42.35838968511003 0 0 0
1663 438 7 0.4238 0.08817917034402373 12.977496919854705 43.10709811582988 0 0 0
1938 529 6 -0.8476 7.323110779453634 8.914055691952981 35.63731589556675 0 0 0
870 173 6 -0.8476 11.888250724318443 10.478923849545465 42.92140519364859 0 0 0
1053 234 6 -0.8476 -3.829620832078895 6.993887960178981 36.0854084943935 0 0 0
1821 490 6 -0.8476 -0.6330489782466231 9.348704044973971 42.88641870584518 0 0 0
1562 404 7 0.4238 5.34026147150354 5.549356974568276 41.20430900508104 0 0 0
925 192 7 0.4238 2.150173383416419 3.0254814584936702 38.613995158082574 1 0 0
891 180 6 -0.8476 1.442067512725409 4.7776135168384215 36.30599582487609 0 1 0
1652 434 7 0.4238 4.87166660819509 12.418496099497794 38.34660154027197 0 0 0
1215 288 6 -0.8476 -0.0006050095090610732 11.408465693209314 36.77537373398333 0 0 0
912 187 6 -0.8476 6.984178808479044 6.4204997375995685 34.83175158830644 0 0 0
1688 446 7 0.4238 18.217427244939618 2.2730850391443918 45.34872454469388 -1 0 0
811 154 7 0.4238 1.7946790220434141 0.19498492861775116 35.478143543307866 0 0 0
1835 495 7 0.4238 -1.2629457030767173 18.38311455719714 35.39609189527843 0 0 0
841 164 7 0.4238 8.892489881360822 4.095349170972681 35.557258688451284 0 0 0
1073 241 7 0.4238 4.0406373501752695 1.2477102047022839 35.631459994632216 0 0 0
813 154 6 -0.8476 -11.195265931447466 18.21411734830401 35.77372821469461 1 -1 0
1433 361 7 0.4238 3.5369697889777463 7.245057832107251 45.84573591460605 0 0 0
1941 530 6 -0.8476 9.341623669797588 4.079055021939218 45.81573851030979 0 0 0
1799 483 7 0.4238 16.118399898012843 3.1866305665764965 45.776293782684455 0 0 0
1571 407 7 0.4238 -0.255630050951557 7.153559793077526 34.78042823583493 0 0 0
1423 358 7 0.4238 14.77530217692137 7.693377931798988 34.87740676285305 -1 0 0
757 136 7 0.4238 17.667133207163644 0.6703811805081323 48.02327684009275 0 0 0
758 136 7 0.4238 17.67231640742612 1.918627082561886 49.06279630948074 0 0 0
759 136 6 -0.8476 17.067865079876793 1.1997150723586423 48.67796393997871 0 1 0
1226 292 7 0.4238 6.273892677001922 5.428780584489963 46.33203220481496 1 1 0
782 144 7 0.4238 1.842935937154512 1.80730441306432 46.81014857958496 1 1 0
1677 442 6 -0.8476 11.230559780849513 8.2683533673122 47.33846347504245 0 0 0
535 109 7 0.4238 -5.546750331365556 14.024391516589358 54.346658681796626 0 -1 -1
788 146 7 0.4238 8.512247141808439 15.520750014447897 47.91172151236739 0 0 0
536 109 7 0.4238 -5.761400844820813 14.476561201250822 52.7574669432032 0 -1 -1
805 152 7 0.4238 11.214665508669958 13.165311335630477 52.096878849272564 0 0 0
806 152 7 0.4238 -8.914674666203302 13.756364364289572 50.578305303245585 1 0 0
807 152 6 -0.8476 11.234782021475423 13.045505206660357 51.08314094803309 0 0 0
822 157 6 -0.8476 16.254260539469243 5.046839192853058 54.139936800359315 0 0 0
1364 338 7 0.4238 -2.374867004181369 7.931749167543713 47.42004294135005 1 0 0
660 49 3 -0.95 2.2786665609365597 13.803245734206357 56.08752360166066 0 0 -1
961 204 7 0.4238 -6.810246127018687 15.011292513191739 46.259387909835624 0 -1 0
278 21 3 -0.95 2.0475652111002005 4.145517553149988 56.34353007330447 0 0 -1
1786 479 7 0.4238 12.693840238402753 10.726216048291686 46.03263475521682 0 0 0
1370 340 7 0.4238 11.32330145604208 4.380557287470482 55.88486316012631 0 0 0
851 167 7 0.4238 7.717339635187803 9.059000249946564 55.75832528877313 0 0 0
852 167 6 -0.8476 8.698704129864204 8.852237764075173 55.929901415863235 0 0 0
853 168 7 0.4238 10.286149758392167 14.782295182443539 53.269452130028625 -1 0 0
854 168 7 0.4238 9.998703109795537 14.08713445243723 54.8108685191172 -1 0 0
855 168 6 -0.8476 10.284107264103012 13.930346578399137 53.845534955210255 -1 0 0
518 39 3 -0.95 9.090113192676142 3.963176275949536 56.39527234843206 0 0 -1
1800 483 6 -0.8476 15.454620650063447 2.9897157105581837 46.52212629550946 0 1 0
1776 475 6 -0.8476 -4.860439683975818 9.065862684652025 46.606195341987444 1 0 0
874 175 7 0.4238 5.443701020874143 0.6080982957198311 52.67937855916041 0 1 0
875 175 7 0.4238 6.323736141907568 0.16636044931588284 53.988414587754335 1 1 0
876 175 6 -0.8476 5.9818137629672306 0.9604309905365817 53.442249287143284 1 1 0
830 160 7 0.4238 -6.630069802763421 14.77106800796185 50.47391927469092 1 0 0
898 183 7 0.4238 7.711974528534441 13.56966684362889 46.6995320719854 -1 0 0
1205 285 7 0.4238 1.3030076205120988 12.081930453639563 48.59320435616089 0 0 0
892 181 7 0.4238 3.8226729193830256 9.84051698102775 49.35430053653865 0 0 0
893 181 7 0.4238 5.155560846746403 10.652652194726558 49.794633310659854 0 0 0
894 181 6 -0.8476 4.208168977683434 10.499286370074682 50.061471175182135 0 0 0
916 189 7 0.4238 3.017066913920121 15.641432615305652 48.670703586274215 0 -1 0
917 189 7 0.4238 2.091286103662361 14.259039463381471 48.864140770566436 0 -1 0
918 189 6 -0.8476 2.089135565429516 15.187686754365881 48.44632477061768 0 0 0
934 195 7 0.4238 0.6129903454550577 17.35304390849133 52.27957579259752 0 -1 0
935 195 7 0.4238 1.8712870323925634 17.34640728653925 53.2497657800659 0 -1 0
936 195 6 -0.8476 0.8643671195118187 17.409952984621242 53.25826109443564 0 -1 0
955 202 7 0.4238 3.6467102304699757 2.3407663605552114 51.14409456978848 0 0 0
956 202 7 0.4238 2.2742071593241473 2.2597086361591048 51.999561025613176 0 0 0
957 202 6 -0.8476 3.0257713563491344 1.6880918545580215 51.60274159986464 0 0 0
958 203 7 0.4238 17.10565058002556 0.902938001553692 54.80215410693391 0 0 0
959 203 7 0.4238 4.428414754288945 18.073468259734593 54.307209711089506 0 -1 0
960 203 6 -0.8476 16.92269691134752 0.37601915098726235 53.968244029278274 0 0 0
979 210 7 0.4238 -0.634803753890408 15.744958577781349 47.07644287052655 0 0 0
614 118 6 -0.8476 4.771364093276423 4.186931833885955 56.18685607684506 0 0 -1
1283 311 7 0.4238 13.327236558891563 2.4228012922466493 46.34787117790274 0 1 0
985 212 7 0.4238 -9.472778345368086 16.978183698754695 49.432967634076164 0 0 0
986 212 7 0.4238 10.097392470386772 15.78972939083664 49.48642508315626 0 0 0
987 212 6 -0.8476 -10.437935878703065 16.7730249953363 49.769837662463814 1 0 0
1859 503 7 0.4238 -3.9401574182446764 15.148040282478489 51.71066444286284 0 0 0
1860 503 6 -0.8476 -4.786039514038994 15.021104523349582 51.15739250700053 0 0 0
1014 221 6 -0.8476 2.736494275407546 12.748627720338977 49.66127697496052 0 0 0
1015 222 7 0.4238 13.659562718160759 8.984171816041354 49.14696824095078 0 0 0
1016 222 7 0.4238 -6.797836333760278 10.451036486579447 49.6854362959508 1 0 0
1017 222 6 -0.8476 -6.431140391084647 9.802930249366947 49.00383365462019 1 0 0
1021 224 7 0.4238 0.07602832177900423 2.430160308084563 56.499689292377035 0 0 0
1022 224 7 0.4238 -1.4490134920406088 2.32862385647895 56.03906142038129 1 0 0
1023 224 6 -0.8476 -0.5595284794072649 1.8308464425669941 55.99775403368927 1 0 0
1024 225 7 0.4238 8.530412810529615 10.882307625771215 51.88739520107941 0 0 0
1025 225 7 0.4238 8.761378448212177 12.288769084469257 51.180721998204454 0 0 0
1026 225 6 -0.8476 8.601922366914119 11.310446071793178 50.9549481339821 0 0 0
1039 230 7 0.4238 8.155848181879067 17.67891032239804 51.622003331918 0 0 0
1040 230 7 0.4238 -11.39484549766179 18.13983569978244 50.539557913602636 1 0 0
1041 230 6 -0.8476 -12.082865331203092 18.499745758627014 51.204757701475 1 0 0
1042 231 7 0.4238 -3.162472847273794 14.934943440525855 48.98299312106872 0 0 0
1043 231 7 0.4238 -1.9365456307710596 14.327027105533796 49.632685551344046 0 0 0
1044 231 6 -0.8476 -2.1928889625694907 15.18647749471519 49.1734446440882 0 0 0
1060 237 7 0.4238 12.789048868832426 1.493646981269253 48.45824454413862 0 0 0
1061 237 7 0.4238 11.906006961848247 1.6795348231380987 49.799312437823836 0 0 0
1062 237 6 -0.8476 12.251097378537018 2.2105212110462 48.96445266059748 0 0 0
1676 442 7 0.4238 11.832109375265764 9.07161305443805 47.20051227335371 0 0 0
1829 493 7 0.4238 -0.3526486595654134 12.126279577772161 50.02369774867354 0 0 0
1063 238 7 0.4238 3.5979578285026395 17.275268074304208 52.01979336050826 0 0 0
1684 445 7 0.4238 -7.211239056464825 17.31016205730546 48.93947712993597 0 0 0
754 45 5 0.425 4.75180292914094 10.745805232131982 55.43732345813404 0 0 -1
756 51 5 0.425 0.9843200073379249 16.71336807537456 55.37144108017782 0 0 -1
1434 361 6 -0.8476 3.500720009864841 6.686953953919012 46.698777592894224 0 0 0
797 149 7 0.4238 -1.6471609907718399 18.46409761876029 47.66154005141948 0 0 0
1086 245 6 -0.8476 4.395239304569515 16.291684003917158 48.970215636658196 0 0 0
1129 260 7 0.4238 11.296745194838836 7.570898776764649 54.66863481949297 0 0 0
1130 260 7 0.4238 9.720881780931649 7.938392731564112 55.065646705576015 0 0 0
1131 260 6 -0.8476 10.32450173201413 7.404140149216096 54.41834734400633 0 0 0
1147 266 7 0.4238 7.621505727091191 5.463410328096593 54.22184949453973 0 0 0
1148 266 7 0.4238 9.014590076398342 6.05007233488843 54.10219431748059 0 0 0
1149 266 6 -0.8476 8.57098403680225 5.163042671008144 54.00803771920362 0 0 0
1153 268 7 0.4238 7.252619679940046 11.497075485570795 49.81553954114179 -1 0 0
1686 445 6 -0.8476 -7.845268050440107 16.941380116811686 48.238334545716235 1 0 0
1155 268 6 -0.8476 6.724362720437726 11.303764295310389 48.97682143298098 0 0 0
1177 276 7 0.4238 13.767759488557287 5.083508219688271 52.22506536910178 0 0 0
1178 276 7 0.4238 14.014801356489762 6.539047507616182 52.71898354315601 0 0 0
1179 276 6 -0.8476 14.522194287775397 5.751417974149832 52.329741655321605 0 0 0
1186 279 7 0.4238 -5.665928673470371 12.448013788810755 51.225532583455845 0 0 0
1187 279 7 0.4238 -7.273516796297935 12.345918586774067 50.934028453096815 0 0 0
1188 279 6 -0.8476 -6.438668888413439 11.809248844601003 51.02909825896264 0 0 0
1189 280 7 0.4238 9.667772661643088 4.146272915308028 53.24476894278527 0 0 0
1190 280 7 0.4238 9.75111761670045 2.886622555140495 52.33672963801587 0 0 0
1191 280 6 -0.8476 10.14843602120771 3.258902065897688 53.18728929381224 0 0 0
1195 282 7 0.4238 13.177176158241208 1.9230290016248364 55.63267948785841 0 0 0
1196 282 7 0.4238 14.407625445835262 2.4906789915144754 56.25283097109282 0 0 0
1197 282 6 -0.8476 13.807429748671783 1.6927008771641028 56.374778299480255 0 0 0
1201 284 7 0.4238 0.4944231577811107 1.7469529697099293 52.767163713889964 0 0 0
1202 284 7 0.4238 -0.25897295824921895 3.184960820556966 52.45275897680639 0 0 0
1203 284 6 -0.8476 0.5385103921580409 2.7561196372735552 52.891726726560606 0 0 0
883 178 7 0.4238 11.005704644676793 12.018153137026449 49.82161264221674 0 0 0
1181 277 7 0.4238 10.335991395347037 11.523411495675768 47.00644203698494 0 0 0
1804 485 7 0.4238 5.394858755936011 17.79857694578825 46.36343810302854 0 0 0
1207 286 7 0.4238 7.630319584089819 16.917124110465277 53.30924690866549 -1 -1 0
1208 286 7 0.4238 8.498668064208122 15.924289286120652 52.53016388669125 0 -1 0
1209 286 6 -0.8476 7.5136301426654235 16.135585852626726 52.6556392624179 0 0 0
1222 291 7 0.4238 2.28359929244955 11.227425827686979 54.75568404514201 0 0 0
1223 291 7 0.4238 2.7732622592219727 12.78751655014203 54.84164530318182 0 0 0
1224 291 6 -0.8476 2.8449747907140894 11.905135748582635 54.2586648042929 0 0 0
1225 292 7 0.4238 6.9119931119358835 6.930269027636504 46.17175751084452 1 1 0
1589 413 7 0.4238 5.767396023429088 0.3665513854958945 46.62329204889048 0 1 0
1227 292 6 -0.8476 6.493626518003023 6.278420450180697 46.84268096369665 1 1 0
821 157 7 0.4238 16.447923996268983 4.1479294159850335 53.65520814843995 0 0 0
1889 513 7 0.4238 0.9489021029607304 16.168239847360706 49.980443483940086 0 0 0
952 201 7 0.4238 10.550255083835527 0.7452793344441049 51.83052456333484 0 0 0
1234 295 7 0.4238 -3.9720691919151068 12.848358438276275 53.03571961229464 0 0 0
1235 295 7 0.4238 -2.5338449910847185 13.0049802846257 52.275648929964035 0 0 0
1236 295 6 -0.8476 -3.24528730503106 12.361882264521025 52.518139528800255 0 0 0
56 55 7 0.4238 3.2975097690461235 16.725845682142246 55.761405581406855 0 -1 -1
1256 302 7 0.4238 12.795013033568267 0.03718612012690497 46.42021244884206 0 1 0
1257 302 6 -0.8476 0.6773351987389918 18.366815337511937 47.386256267790266 0 0 0
1173 274 6 -0.8476 -4.413172357149636 17.984360988824374 46.09675505009496 0 -1 0
919 190 7 0.4238 14.943251196590237 0.23325233907175213 50.406696125574186 0 1 0
1373 341 7 0.4238 6.001507887122243 6.654676871664656 54.93481151684323 0 0 0
1399 350 7 0.4238 9.652369341366708 14.39340619834844 47.49957989931488 0 0 0
180 13 3 -0.95 9.284098165474868 14.245944891997306 56.44119240697118 0 0 -1
1890 513 6 -0.8476 0.5136568114554071 16.97742147278273 50.40467824722172 0 0 0
1171 274 7 0.4238 -4.014819748088057 17.78594700840854 47.03004940219931 0 -1 0
1289 313 7 0.4238 17.016191262233527 1.979149837699404 52.88749493016581 0 0 0
1290 313 6 -0.8476 16.895941146593604 2.95647040544863 52.66818852046263 0 1 0
1291 314 7 0.4238 6.692115542550567 5.131463868774669 49.20979568011202 0 0 0
1292 314 7 0.4238 7.955482349735343 4.579776537554873 50.14189645134207 0 0 0
1293 314 6 -0.8476 6.958636149438304 4.481778554857342 49.91484314307229 0 0 0
1294 315 7 0.4238 15.820011797960007 3.034463836609933 51.08991258697851 -1 0 0
1295 315 7 0.4238 15.122650471409553 2.436581262627716 49.80820189263811 0 0 0
1296 315 6 -0.8476 15.522364928631385 3.299108764499379 50.17683927935103 0 0 0
1321 324 7 0.4238 4.859784204792259 10.819671957255666 46.53528392002507 0 0 0
1322 324 7 0.4238 5.994694805701115 10.46873217107191 47.51765106307029 0 0 0
1323 324 6 -0.8476 5.407116344631733 10.01017103453428 46.81916658010531 0 0 0
1336 329 7 0.4238 11.813842003829365 7.581253795853324 48.877464875860696 -1 0 0
1337 329 7 0.4238 13.041603705038929 6.5190093799831015 49.32856967040386 0 0 0
1338 329 6 -0.8476 12.576460484042896 7.392755194639824 49.52989597429949 0 0 0
1342 331 7 0.4238 -1.6595544574695145 15.813400889583507 51.95275480587169 0 -1 0
1343 331 7 0.4238 -2.258448683690634 15.543376568326769 53.525808187639285 0 -1 0
1344 331 6 -0.8476 -2.2528769187008635 15.230282435525984 52.537907478619864 0 0 0
295 82 7 0.4238 -11.662023085157825 18.54657497875641 54.420418223818764 0 -1 -1
1456 369 7 0.4238 0.09719249380453417 10.451393016249561 54.98014212239191 0 0 0
954 201 6 -0.8476 10.499144191528346 1.1435024312361448 50.93137532400437 0 1 0
500 37 3 -0.95 10.307453625072693 1.3072484184570297 56.06131225385365 0 0 -1
1925 525 7 0.4238 -8.09102080865268 13.036898801354793 46.91812463485032 0 0 0
1711 454 7 0.4238 6.511649722959436 1.8356932930972476 55.33712865870079 0 0 0
1375 342 7 0.4238 6.34056880910384 14.714943344161293 55.66495899308489 0 0 0
1376 342 7 0.4238 6.1045507762315125 13.544230034084237 54.61594575728109 0 0 0
1377 342 6 -0.8476 5.578740216676695 14.231581334786558 55.17782820861801 0 0 0
1378 343 7 0.4238 2.2282586466230634 11.985289238689523 52.790652970801 0 0 0
1379 343 7 0.4238 0.6764524930054948 12.259533736102739 52.389860863202365 1 0 0
1380 343 6 -0.8476 1.6046492887915398 12.244551603850313 52.00496772600793 1 0 0
1381 344 7 0.4238 -3.375227504650575 9.31348751511411 54.45900736725036 0 0 0
1382 344 7 0.4238 -4.4165444365799145 9.59084151186795 53.30259076101539 0 0 0
1383 344 6 -0.8476 -3.560312138659821 9.082414830581758 53.495869321812265 0 0 0
1396 349 7 0.4238 5.421447614364357 16.099777316234988 52.58292807505023 0 0 0
1397 349 7 0.4238 4.487421287335 14.948002695194534 51.91610763243192 0 0 0
1398 349 6 -0.8476 4.522457364908205 15.946425987681417 52.12095295225232 0 0 0
340 25 3 -0.95 -0.8820300977480672 7.70280715523349 56.27593212811508 0 0 -1
921 190 6 -0.8476 14.752441767333709 0.6352554504115668 49.49072543611013 0 1 0
1371 340 6 -0.8476 12.227321366751786 4.423286046202918 56.325045743226134 0 0 0
1873 508 7 0.4238 12.223070245520923 7.0647140532358925 46.55032405115801 0 0 0
885 178 6 -0.8476 10.53035544874436 11.68061996224489 48.996199243867174 0 0 0
1843 498 7 0.4238 10.697178486188863 2.716548248007211 48.39204978640499 0 0 0
1288 313 7 0.4238 17.782836645887052 3.3394204691944145 52.344496877212876 0 0 0
1756 469 7 0.4238 15.795705228165563 6.239543159893625 50.740469016271625 -1 0 0
1422 357 6 -0.8476 -8.112180204564252 16.473127616268275 54.365215109261925 0 0 0
1426 359 7 0.4238 -5.036556508607841 10.872076320998628 48.95113329749664 0 0 0
1427 359 7 0.4238 -3.803800414326717 11.289638632271787 49.76489696022841 1 0 0
1428 359 6 -0.8476 -4.186874272964736 11.433409519688158 48.843238645942634 1 0 0
1429 360 7 0.4238 10.35244923054611 0.5705398352840706 54.38822892625545 0 0 0
1430 360 7 0.4238 -0.9742728496778855 17.946569960304743 53.92369626934268 0 -1 0
1431 360 6 -0.8476 -1.8521419026209753 18.430182864725605 53.72619046343341 0 0 0
1432 361 7 0.4238 4.421028163330928 6.248230498160543 46.68858905818719 0 0 0
796 149 7 0.4238 -2.1598667856604212 17.279991639296686 48.65624144988307 0 0 0
1125 258 6 -0.8476 4.269344872188501 12.442162492476758 46.83986865982931 0 0 0
1435 362 7 0.4238 2.831848361157664 7.235713700155264 51.26557900306281 0 0 0
1436 362 7 0.4238 2.5259689317633414 8.270291140670045 50.06672188031209 0 0 0
1437 362 6 -0.8476 2.099108633286139 7.784313993724195 50.84719929882346 0 0 0
820 157 7 0.4238 15.647598957477143 5.527583231910106 53.446914739834924 0 0 0
1439 363 7 0.4238 -0.25542344783541004 5.850857297285962 54.218452945516816 0 0 0
1440 363 6 -0.8476 0.6516550681645593 5.429769073860353 54.25932078417236 0 0 0
1123 258 7 0.4238 3.8767039412797755 12.98415092209993 47.57172679953812 0 0 0
1457 369 7 0.4238 0.6067242109002374 9.129404233931124 55.74662129991768 0 0 0
1084 245 7 0.4238 4.533113243633731 16.655088102752845 49.939987161918296 0 0 0
1444 365 7 0.4238 4.376697234773415 2.5032531565387472 47.9195154211051 0 0 0
1445 365 7 0.4238 5.096487207657623 3.7221969949206852 48.80131954860742 0 0 0
1446 365 6 -0.8476 4.229488940353254 3.4127667869158484 48.31571385357748 0 1 0
1420 357 7 0.4238 -8.800647088558808 17.179772374637423 54.18710577817748 0 0 0
1091 247 7 0.4238 1.3070667373767033 3.2962824563278073 47.829386158451555 0 0 0
1524 391 6 -0.8476 3.042045120186754 8.81751744521389 48.488533325252625 0 0 0
1590 413 6 -0.8476 4.796810256429794 0.6179817509904857 46.722139187472 0 1 0
1386 345 6 -0.8476 8.018885001010249 1.172414180047738 49.42036876663188 0 0 0
953 201 7 0.4238 9.68460552519812 0.7249366994194238 50.55525772807307 0 0 0
1020 223 6 -0.8476 1.3142721657606822 4.702030243993434 47.022118134244394 1 1 0
962 204 7 0.4238 -7.766851062105138 15.538623653115875 47.47366263328971 0 -1 0
1796 482 7 0.4238 -1.735161213949705 14.624742319918848 55.61891908929739 0 0 0
1495 382 7 0.4238 -0.6277889471030879 1.502196638030832 50.55058754140531 0 0 0
1496 382 7 0.4238 0.12688666429452325 2.2166337156638662 49.29849181491379 1 0 0
1497 382 6 -0.8476 -0.7952630947584993 2.147213341209649 49.76587785538184 1 1 0
1501 384 7 0.4238 12.976423596267988 1.9383226726583116 53.636911789886746 -1 0 0
1502 384 7 0.4238 11.603736103087574 2.7984610666734056 53.87314018485817 0 0 0
1503 384 6 -0.8476 12.60792868357847 2.715263320692904 54.14309942843829 0 0 0
1504 385 7 0.4238 -0.9708667279988062 5.0568386641463725 51.51977782914316 0 0 0
1505 385 7 0.4238 -1.1783960424457598 3.6315487148307586 50.61941978401026 0 0 0
1506 385 6 -0.8476 -1.288154723702224 4.088626704809269 51.537018145302625 0 0 0
1510 387 7 0.4238 4.189560865825716 11.91020930186213 53.31477340946313 0 0 0
1511 387 7 0.4238 4.492222390739868 11.512924131323205 51.726426495743766 0 0 0
1512 387 6 -0.8476 4.89963714830011 11.887123633854088 52.56825656937058 0 0 0
850 167 7 0.4238 8.8869346803385 8.924275695118155 56.92532688543092 -1 0 0
1085 245 7 0.4238 4.920017690315096 16.962883727604044 48.440144224364424 0 0 0
899 183 7 0.4238 6.695780120053785 14.554402298511365 47.3138110503456 0 0 0
534 109 6 -0.8476 -5.842515488743834 13.718236079309438 53.4388991871903 0 -1 -1
214 73 6 -0.8476 6.719166375882328 11.614243906546948 54.61294517010453 0 0 -1
1525 392 7 0.4238 -4.271453812641553 18.59906696443361 55.505600865151514 0 -1 0
1537 396 7 0.4238 6.112594141882599 3.5578593756767556 51.033277018818936 0 0 0
1538 396 7 0.4238 5.789180228858867 2.838312836571206 52.40919222122981 0 0 0
1539 396 6 -0.8476 5.3395876151638495 3.21610333341871 51.593617944491584 0 0 0
1795 482 7 0.4238 -0.17519713098910125 14.53685995315654 55.86786924735158 0 0 0
678 51 3 -0.95 0.9356622674666599 16.066303950184707 56.15942330950083 0 0 -1
1417 356 7 0.4238 -1.2898958058770653 12.25826155881843 47.51746765400752 0 0 0
1182 277 6 -0.8476 9.799221967631796 11.343618287323316 46.15346408340405 0 0 0
798 149 6 -0.8476 -2.473515857134352 17.95847056416376 47.96426519593258 0 0 0
1374 341 6 -0.8476 5.839856390306545 5.8777594891402885 54.29845358209225 0 0 0
1204 285 7 0.4238 0.4697108448858896 10.77346526706379 48.17679896976271 0 0 0
1064 238 7 0.4238 16.02708467343541 0.0656537387021167 52.83871517219198 0 1 0
1685 445 7 0.4238 -7.937251183941033 17.74225071039681 47.60429790577084 1 0 0
1639 430 7 0.4238 4.371170482069351 5.984166272130656 50.843005395242706 0 0 0
1640 430 7 0.4238 4.106765544151925 5.062161081230876 52.211875089977 0 0 0
1641 430 6 -0.8476 3.854716134594703 5.928440376261927 51.71787959059417 0 0 0
742 9 5 0.425 12.134682235381412 11.013534336721593 56.05385617933761 0 0 -1
1845 498 6 -0.8476 9.702520224465605 2.839057021951198 48.19872740114153 0 1 0
751 37 5 0.425 9.992683514085773 2.3056240069427183 55.97060035014302 0 0 -1
1693 448 7 0.4238 -3.0693120200321844 6.500953377369913 51.27793415788852 0 0 0
1018 223 7 0.4238 1.1279558678370531 5.1771889425597735 47.90186242268578 0 0 0
1695 448 6 -0.8476 -2.4305645768871567 6.791059454079359 52.02910957820455 0 0 0
1696 449 7 0.4238 -3.6902015794350036 7.254897752148319 49.39597058573566 0 0 0
1697 449 7 0.4238 -3.174909451786492 8.776048880944762 49.39476748196612 0 0 0
1698 449 6 -0.8476 -3.3623751427173163 8.013497032930566 48.74112079532432 0 0 0
1702 451 7 0.4238 4.0139491453526395 0.07061932668014465 51.4360137898593 0 1 0
1703 451 7 0.4238 -6.868175082863981 17.697704929157002 51.28377616431392 0 0 0
1704 451 6 -0.8476 -7.763625098619625 17.829222171241206 51.808093149074665 0 0 0
615 118 7 0.4238 4.956675225978547 4.758571821488784 55.360795005820535 0 0 -1
1844 498 7 0.4238 9.54176106032246 3.182940954392606 47.22909696333135 0 0 0
454 100 6 -0.8476 -8.080692755252372 12.640239359970842 54.90072020324025 0 0 -1
1717 456 7 0.4238 7.24285176960328 9.035232817715306 51.32155259012275 0 0 0
1718 456 7 0.4238 7.045253455757812 7.5316999493565815 51.090175045626744 0 0 0
1719 456 6 -0.8476 7.3544292213643 8.15075563750794 51.82174517429258 0 0 0
1720 457 7 0.4238 0.766506408629989 6.798271536216003 49.94297390167963 0 0 0
1721 457 7 0.4238 -0.8178983352376624 6.650017766801079 49.86064696827218 0 0 0
1722 457 6 -0.8476 0.03127942982985909 6.147356611526114 49.623697576134795 0 0 0
1729 460 7 0.4238 -1.6675251007315104 9.652637174180109 50.96972918008158 0 0 0
1730 460 7 0.4238 -2.9657638100988906 10.40157334641081 51.50097196795903 0 0 0
1731 460 6 -0.8476 -2.5698791915779053 10.041613326392747 50.64880328016701 0 0 0
1750 467 7 0.4238 2.6648603820072423 7.883949694617592 54.718257557210094 0 0 0
1751 467 7 0.4238 1.803086346866734 6.556640173435487 54.881528359134116 0 0 0
1752 467 6 -0.8476 2.476420675719338 7.148773162778496 55.39092170599928 0 0 0
1458 369 6 -0.8476 0.9274048151141933 10.044414652119103 55.44304230434894 0 0 0
1757 469 7 0.4238 16.210752841910153 5.072670921704498 49.906707159155985 -1 0 0
1758 469 6 -0.8476 -4.107321952803755 5.97191614118421 50.16294073082406 0 0 0
1691 447 7 0.4238 -4.617622060828224 16.19868512434804 46.39038187438596 1 0 0
1805 485 7 0.4238 6.670208542601195 17.181765549015417 47.195043968517076 0 0 0
1806 485 6 -0.8476 5.922867568062259 17.930141133440827 47.23042725258088 0 0 0
1792 481 7 0.4238 -4.964798056056123 16.842294847427972 50.712074738040634 0 -1 0
1793 481 7 0.4238 -4.883721496412562 18.326556030379958 50.046024496126165 0 -1 0
1794 481 6 -0.8476 -5.5594820673264715 17.550442281941862 50.287578512562106 0 0 0
375 91 7 0.4238 -2.18211269381178 6.364982854107479 53.706417742714905 0 0 -1
1385 345 7 0.4238 8.653089508545152 1.680403719337224 48.74887667428451 0 0 0
1797 482 6 -0.8476 -1.0159730865273529 13.964815222097448 55.809796935852056 0 0 0
1798 483 7 0.4238 15.82065680998401 2.395875223976702 47.269167370080396 -1 0 0
753 43 5 0.425 5.481373379731617 8.522633621863116 56.30816977610833 0 0 -1
696 127 7 0.4238 -3.719798013079193 14.945192143537712 55.85859376867298 0 0 -1
787 146 7 0.4238 8.073687961916914 16.54066468131788 46.63380937581716 0 0 0
980 210 7 0.4238 -1.428211178271982 14.356711791061725 46.856478592984246 0 0 0
789 146 6 -0.8476 7.738379596830186 15.999312599978191 47.427877063549836 0 0 0
1825 492 7 0.4238 -0.9142354642581055 12.480859027376686 54.39929536547891 0 0 0
1826 492 7 0.4238 -1.6816069418381179 11.723017899651627 53.09558664905292 0 0 0
1827 492 6 -0.8476 -0.8571592818717414 11.757081558797518 53.68037161068411 0 0 0
1828 493 7 0.4238 -1.8915241828187774 11.719904301214434 50.43085886645214 0 0 0
1124 258 7 0.4238 5.258081887017365 12.661573119055586 46.770553121801626 0 0 0
1419 356 6 -0.8476 -2.1993887063388513 12.660341125639238 47.29403873232793 1 0 0
1831 494 7 0.4238 0.16255718065388708 10.12753668743012 52.06212308015493 1 0 0
1832 494 7 0.4238 0.8175751670616336 8.886397769027388 51.154391752464015 1 0 0
1833 494 6 -0.8476 -0.0674326083435312 9.323348199393891 51.49093060156495 1 0 0
829 160 7 0.4238 -7.155781479845055 14.166487878485546 49.154115909113855 0 0 0
455 100 7 0.4238 -7.389794432172075 12.964555139754118 54.229774940556986 0 0 -1
1523 391 7 0.4238 3.1990912148177024 7.982858719741005 47.91993701935541 0 0 0
1849 500 7 0.4238 2.6762412513690794 0.7512327469360143 53.03879833720964 0 0 0
1850 500 7 0.4238 2.4963259468175707 0.6530286482501395 54.649522346398165 0 0 0
1851 500 6 -0.8476 2.218786120212907 0.2518529363729875 53.784235087627295 0 1 0
1861 504 7 0.4238 13.78511356371649 8.727375247900097 53.388472340700375 -1 0 0
1862 504 7 0.4238 13.468097144564481 7.921477043948881 54.77461010861312 0 0 0
1863 504 6 -0.8476 13.447463376793397 7.8439177757973 53.77291518048527 0 0 0
1924 525 7 0.4238 11.863351725072867 12.09922429687979 47.989326329894304 -1 0 0
920 190 7 0.4238 15.726654800887346 0.760679931280661 49.19681094603327 0 1 0
215 73 7 0.4238 7.615947035147364 11.290718199734764 54.2581818626354 0 0 -1
1882 511 7 0.4238 9.877591249751866 3.545310313261789 49.83921482603728 0 0 0
1883 511 7 0.4238 10.407358180124113 4.5416576148061365 51.10748130215695 0 0 0
1884 511 6 -0.8476 9.622559401963143 4.196640592638002 50.5756191758839 0 0 0
1906 519 7 0.4238 8.027293333522667 9.24855462896698 52.906434353674705 0 0 0
1907 519 7 0.4238 9.351014893826392 9.654994862765658 53.64163733035363 0 0 0
1908 519 6 -0.8476 8.575386937707368 10.062723069781953 53.14418000146037 0 0 0
1909 520 7 0.4238 0.06286036663554848 8.712274490408598 46.906488146116864 0 0 0
884 178 7 0.4238 9.73216156380828 11.2438982597127 49.441949179086265 0 0 0
1875 508 6 -0.8476 12.853590852647176 6.30937512724435 46.31455006749383 0 1 0
1372 341 7 0.4238 5.787326539856222 6.321831590867363 53.377277051067516 0 0 0
1522 391 7 0.4238 2.3290888259096016 9.273220945020446 47.93219925451474 0 0 0
616 118 7 0.4238 3.841825491313481 4.4512194936156515 56.53768907789935 0 0 -1
1929 526 6 -0.8476 13.266219458078448 4.553232731489748 48.922890747038515 0 1 0
900 183 6 -0.8476 6.81958531187649 13.552572181764088 47.18326680655823 0 0 0
1012 221 7 0.4238 2.3054428070447432 12.714718585563485 50.60090130063883 0 0 0
1930 527 7 0.4238 10.92445948796994 6.480590241464558 52.515094791306176 -1 0 0
1931 527 7 0.4238 11.608437326899294 6.599509909945981 51.03861034992754 -1 0 0
1932 527 6 -0.8476 11.353188593972757 5.931573540798408 51.766471449805685 -1 0 0
1948 533 7 0.4238 -10.155930023360671 16.332591985544077 51.56876699153049 0 -1 0
1949 533 7 0.4238 -10.34303881444764 17.213875103554507 52.97214140133536 0 -1 0
1950 533 6 -0.8476 -10.462395246253585 16.28560520280128 52.52547112230278 0 0 0
1951 534 7 0.4238 6.1237246940753245 7.086690819334022 48.3003558878019 0 0 0
1952 534 7 0.4238 4.873944646637254 8.04494476598123 48.81684695947129 0 0 0
1953 534 6 -0.8476 5.643221145771815 7.447894219566223 49.1026715595748 0 0 0
923 191 7 0.4238 -4.517897046171242 14.292807837542 47.58879846265869 1 0 0
744 15 5 0.425 7.6330940053515235 16.897565778477418 55.57175339175172 0 0 -1
831 160 6 -0.8476 -7.452138524961348 14.367476268436441 50.09093384557934 1 0 0
750 33 5 0.425 -7.243179297288471 16.04863445691632 55.56073851474857 0 0 -1
922 191 7 0.4238 -4.44979179368285 13.153283570566257 48.68827072564261 1 0 0
296 82 7 0.4238 19.944518305947682 0.3384238866491199 55.12153854154453 -1 0 -1
598 45 3 -0.95 4.81678197490276 10.089360354071706 56.208737275041834 0 0 -1
1421 357 7 0.4238 -7.865978722033968 16.254326100767987 53.39814181748187 0 0 0
55 55 7 0.4238 4.446313878965904 15.809249608741034 55.21493050954811 0 -1 -1
376 91 7 0.4238 -2.9288230003708633 5.578026119104682 54.810723658045326 0 0 -1
456 100 7 0.4238 11.78092311048716 13.193361773429073 54.74644132576295 -1 0 -1
1774 475 7 0.4238 -4.392472509157668 8.521281560101354 47.347692257442965 1 0 0
1928 526 7 0.4238 12.745828711442439 3.6545748414232633 49.06613072278538 0 0 0
1154 268 7 0.4238 6.892362412409198 12.014121841734722 48.29046903171202 0 0 0
1013 221 7 0.4238 3.3926960190988926 11.943833492404703 49.7212911831087 0 0 0
1255 302 7 0.4238 1.578426323210193 17.907809721570494 47.37633294764502 0 0 0
358 27 3 -0.95 -2.6733662112264 9.911161745810885 56.22677996726702 0 0 -1
1438 363 7 0.4238 0.7065944387579951 4.673566220399845 53.588395626144354 0 0 0
739 1 5 0.425 16.626947162450584 2.356197603030142 56.62351148026711 0 0 -1
1065 238 6 -0.8476 3.2666827337279574 18.259736771617636 52.06962876132068 0 0 0
1401 350 6 -0.8476 9.817285768490583 14.496723715423522 48.519979850110445 0 0 0
741 7 5 0.425 12.835350898344256 8.928716393662455 56.62088079881642 0 0 -1
1927 526 7 0.4238 14.198524150894468 4.251879122744384 49.13651999135151 0 0 0
1926 525 6 -0.8476 12.454590656383914 12.060453946307943 47.14865967185718 -1 0 0
294 82 6 -0.8476 8.135837280330163 18.12211735529239 54.66236507823688 -1 -1 -1
38 3 3 -0.95 15.438214962294344 3.887010872347612 56.515869536480636 0 0 -1
924 191 6 -0.8476 -4.536584951005975 14.186333561904389 48.60672883672236 1 0 0
135 64 7 0.4238 -6.043600801221489 10.551258863592642 52.17172200453537 1 0 -1
1384 345 7 0.4238 7.809568576089945 1.8693618702295025 50.11862359074883 0 0 0
740 3 5 0.425 15.761764367111594 4.44013446832803 55.67021571621273 0 0 -1
1092 247 6 -0.8476 1.344290367934894 2.4594877231812284 48.42489043893053 0 0 0
752 39 5 0.425 8.955334119059657 4.403921994581623 55.477956483240675 0 0 -1
1597 416 7 0.4238 -1.5866219830172754 5.377499512288744 46.81641439721256 1 1 0
438 33 3 -0.95 -6.689187449307042 15.834740772295785 56.4364557079134 0 0 -1
1911 520 6 -0.8476 0.8557016352518029 9.332310353432613 47.0902188705285 0 0 0
1858 503 7 0.4238 -4.4554408958159675 14.607221748187277 50.29329534973688 0 0 0
1712 454 7 0.4238 6.8294210154222466 2.1564122680941407 56.968178248243774 0 0 0
216 73 7 0.4238 6.127566821330816 11.761793860741763 53.8420997905599 0 0 -1
1090 247 7 0.4238 2.0740553963305057 2.5918809795379945 49.08178937179625 0 0 0
1830 493 6 -0.8476 -1.144213104033043 12.36045828975861 50.6143934518107 0 0 0
747 25 5 0.425 -1.4107619375469036 6.984062028542403 55.71197529084851 0 0 -1
1874 508 7 0.4238 12.841272538324422 5.817992604646943 47.2131423671709 0 0 0
1775 475 7 0.4238 -5.522126570458344 9.599960562719604 47.151161160411974 1 0 0
1206 285 6 -0.8476 0.397693636605801 11.764984815897567 48.356233140020265 0 0 0
1365 338 6 -0.8476 -1.730677788597401 7.902110942718358 46.60722841325328 1 1 0
54 55 6 -0.8476 3.9891749781858454 16.69634467408473 55.05020348622951 0 -1 -1
134 64 6 -0.8476 -5.942051283363765 10.08119119186941 53.0592134597201 1 0 -1
746 21 5 0.425 1.7067202266410109 4.693189312368461 55.560299358678435 0 0 -1
1888 513 7 0.4238 0.8366620956347103 17.878580785847138 50.09815746901789 0 0 0
695 127 7 0.4238 -3.624419914736845 16.529791465788534 55.21232422587611 0 0 -1
694 127 6 -0.8476 -3.1160025168475944 15.65689387043539 55.46926080748939 0 0 -1
136 64 7 0.4238 -6.511363055096337 10.579665120387686 53.715039483186175 1 0 -1
374 91 6 -0.8476 -2.019664573194693 5.956698385975242 54.611299658600814 0 0 -1
1418 356 7 0.4238 -2.750867190733799 11.862571107745241 47.64791149815159 1 0 0
198 15 3 -0.95 7.48449497390276 16.155230706237038 56.30911522645285 0 0 -1
755 49 5 0.425 1.724060452564341 14.663465975901891 56.00153099634771 0 0 -1
20 1 3 -0.95 17.317232030080945 1.6198246536276626 56.42981893373228 0 0 -1
1713 454 6 -0.8476 6.823389028233849 1.4774709356069886 56.22244881659281 0 0 0
748 27 5 0.425 -2.071428435053161 9.07558310378955 56.106421231752115 0 0 -1
580 43 3 -0.95 6.018692509463704 7.6218524411049255 56.32810282056192 0 0 -1
1526 392 7 0.4238 -3.438889572043045 18.246997421355033 54.20093282931957 0 -1 0
745 19 5 0.425 2.704074647146509 2.4820135035914177 56.30376321280836 0 0 -1
420 31 3 -0.95 -4.991501927685649 13.933508623996303 56.26198663864344 0 0 -1
100 7 3 -0.95 13.238987237609452 7.959752777933973 56.64446864663625 0 0 -1
749 31 5 0.425 -5.683532013312375 14.714915771480722 56.41838108960772 0 0 -1
1527 392 6 -0.8476 -4.301383515972001 17.970366368516586 54.71807942969543 0 -1 0
260 19 3 -0.95 3.1037701342997908 1.508641999617627 56.2632597149279 0 0 -1
118 9 3 -0.95 12.063300579627107 10.252789752229338 56.727634216368294 0 0 -1
1400 350 7 0.4238 9.918150434737008 13.60683233571147 48.946902113782784 0 0 0
743 13 5 0.425 8.501842856959215 14.946428178920582 56.46969409478806 0 0 -1
1598 416 7 0.4238 -0.1823472949985348 4.998704532562665 46.11453092407053 1 1 0
1910 520 7 0.4238 1.122585436057403 9.532750088475943 46.137267863577776 0 0 0
1369 340 7 0.4238 12.894815409959316 4.448988771332119 55.5802332045572 0 0 0
1694 448 7 0.4238 -2.9053548409450016 7.561932180989539 52.47830851551805 0 0 0
1599 416 6 -0.8476 -1.199908417242332 5.043278979263476 45.963125771996474 1 1 0
1675 442 7 0.4238 10.524246366377975 8.483865193219586 46.63143398971551 0 0 0
1892 514 7 0.4238 2.0832941363529662 15.60693039572001 46.46899062600276 0 0 0
963 204 6 -0.8476 -7.630860737441022 14.786154232519868 46.77234550392862 0 0 0
981 210 6 -0.8476 -0.9460145973352416 15.082916021063179 46.35202544208181 0 0 0
1019 223 7 0.4238 1.9197688367000028 5.292605303526987 46.47983988734148 1 0 0
1847 499 7 0.4238 18.88896884033622 0.3716834037594111 46.34416705797096 0 1 0
1588 413 7 0.4238 4.440532041002064 1.2211289592534516 45.966571410560164 0 1 0
781 144 7 0.4238 0.9306936545001169 0.7750336994120146 46.063017841671275 1 1 0
1692 447 6 -0.8476 -4.804763050429008 15.220878374030395 46.1412203785008 1 0 0
1463 371 7 0.4238 9.465855033021386 12.956385221533095 45.936998487676014 -1 0 0
783 144 6 -0.8476 1.8221309155104801 1.2695002874073504 45.93510134012043 1 1 0

Velocities

1 -0.006109523627054391 -0.0007199738808478427 -0.004936857557258779
4 -0.004676922746837478 -0.0027970577888845488 -0.00015615370295001774
6 -0.004094276181653835 8.330058302745945e-05 -0.00016058766818685541
7 -0.0029391684762527723 -0.002917410676718503 -0.0007284272986830722
10 -0.0038144663305342695 -0.002541355190012295 0.004635170412787156
11 0.0014503776836931766 0.0002931608044003279 -0.003548590281138217
14 0.0014869504001844766 -0.004784509282830076 -0.002036813200110344
15 -0.0026118544653227476 0.0003608945372942833 -0.001428493772695752
18 0.004124354921562137 0.0038804603455189304 0.0037215833340575656
392 0.00014375340117970883 0.003253662901469561 -0.002241579923961432
640 -0.041379738631240975 0.007976041627113777 -0.025631948959524836
23 -0.001394905621731794 0.0014508095796638787 0.004656308239138322
344 0.0003938762657255736 -0.006504780619499226 6.678886303383413e-05
27 -0.0024111626910106243 -0.006163547735001724 0.0026858085504931624
28 -0.006380636625514918 -0.0006207298123280333 -0.0019571050714281358
31 0.0025623992569161415 -0.006968560707816501 0.009725687727278519
32 -0.01015492158132439 -0.0006556214437342776 0.004628154014833154
35 -0.002768387839640087 0.001254786075738008 -0.0007754065302858944
36 -0.005304455825983717 0.006078890640024082 -0.007171309121568686
637 0.04030904990203117 0.007880225278940677 0.011049422160921647
41 0.004194034814652157 0.0033495315279785144 0.00525745971486645
42 0.0010762599569425879 0.002265099854005674 0.003931606923829572
45 -0.0012491525800524337 -0.002810112422262385 -0.002150563455953522
46 -0.008230786699430056 0.0006642595081257758 -0.0014409867321874344
49 0.0031362375959463912 -0.002150336321110457 -0.005781503538422593
52 0.00046139116988815044 0.0008444904326386745 -0.0029282208819524673
53 0.03006781641053378 0.005078396903539167 -0.012179976963467435
707 -0.01656711188430341 -0.003212130477158478 -0.017830983588593464
481 0.0022681346050403314 -0.0006200410462295136 0.002033316766891144
708 0.007822486579923226 0.003179291470203783 -0.003415633436031041
63 -0.007618071039761078 0.0037289593128621372 0.011616586205359452
64 0.015181857443884696 0.021458039195401055 0.011299212973442474
65 -0.0003538825934482971 0.0035296144389363095 -0.007933590349985625
66 -0.0021177872544381107 -0.0066978818203759834 -0.0006480747810078363
67 0.0050118501195833935 -0.0336566126970136 0.013943307648447064
68 -0.011883980799394072 -0.016384582053990134 -0.01009338648254667
72 0.005124242937651144 -0.001657768062003611 0.006179536804583581
24 0.0007463967041500782 -0.004176847105290758 -0.0019101382820355603
153 0.003477078357027555 0.017701366441458505 -0.004384102429285988
703 0.0010048271349226917 0.005903465846490561 -0.005740176627557798
380 -0.011464610193801515 0.003663428233859894 -0.0019035291559969239
80 0.03814055425030415 0.011037792231973903 -0.011053288901251413
81 0.0008347002424813697 -0.0002182077090245653 -0.00019441331068360406
84 -0.0028859533606671877 -0.0032667934304446834 0.0013976960878442958
86 -0.0022524407537014117 -0.006493331823311484 -0.0004998010095904849
87 0.003940316914552983 0.0015261942527740483 -0.0011051431995273133
90 0.005321259699223322 -0.0021617363430492106 0.0011192423522226483
91 -0.0009669450524393447 -0.000692861360998615 0.002935070427978949
94 -0.0023024396335246944 0.0023292908936323443 0.0013191098115609885
95 -0.0006620469261674664 -0.0016237637067191143 -0.0032681553498470745
98 0.005849443214418048 0.001118376334807311 -0.002166364931183994
487 0.004363767647729755 -0.0028632942181630997 -0.006476600758043795
584 -0.0015532176595384715 0.002383606207186311 -0.001985015626286618
103 0.005359094267389777 -0.006011634739413811 0.00028088561930629486
396 0.009985755030104182 -0.012178706139227266 -0.002917749408749486
107 0.0049956601761101315 -0.0008861541094485335 -0.0021051330295825048
108 0.006411583079355641 -0.0020437224208861016 0.004290571641225574
111 0.0010905765256443711 -0.004008964589540742 -0.0020193455052966817
112 -0.002500694531216676 0.001853736801027098 0.003286657748482739
115 -0.00021008962357465513 -0.002745847700330144 0.001821513133074587
116 0.0032463275256531306 0.002274211524088323 -0.0009753364921655207
671 -0.0008066649227516011 0.0016729418182848698 0.0018177203296927409
121 -0.007939787700462081 0.003565174556279722 -0.0006412816081841912
122 -0.004510034789789049 0.0053898800608161756 -0.003008382835772314
125 0.003199366846124704 -0.004191601740020563 -0.0068297690655436324
126 0.0004711325753616386 0.0038847507958508806 0.005592341977183713
129 0.004391717823427006 0.0011569085552707956 -0.002006857583255355
132 0.0025860551625536132 -0.002226762496046836 0.00426812327430743
133 0.002159868589841093 0.020572160473873585 0.0011599842664886683
706 -0.006457434043814977 -7.534535442347657e-05 0.0020341378067368675
339 0.0009764299354951364 -0.0015600907473978143 -0.0007051653284028185
629 -0.003372463097970722 0.003606018976028819 0.0018036434735148497
143 0.0062828856729418405 0.001195599057713029 -0.0018336143601094493
144 0.006069660961851612 -0.0322926934422346 -0.020821005125830606
145 0.00794576334763387 -0.007994956793490517 0.024265869788071433
146 -0.00220663673231278 -0.003268990160485449 0.00289704346351296
147 0.022031470495390722 0.01352338868899562 -0.01574288784633834
148 0.00017318679740528758 -0.011760206215829348 0.00730981342677868
152 0.002615778281240418 0.0007433262526246833 -0.00600295380888941
312 0.00010083858550410406 0.0006675606626416142 -0.006835386321600479
676 -0.011192986308924036 -0.0006703476053781463 0.009027591372291418
399 -0.014361574110203277 -0.0005821169032531821 0.002456970375718915
561 -0.0014075356842338086 0.0038079498329612774 0.0013474597944129235
160 -0.007447740086751894 -0.020204196854571005 -0.0038384536085072697
161 0.004251086636185292 0.003002777404439025 -0.0016557570521352712
164 -0.002355909065970937 0.00021386243089130356 0.0037427852172181794
166 0.004478026202403476 -0.0014963207585675605 -0.003291567086338249
167 -0.00500076663483534 -0.008142301440889944 -0.002268972734094719
170 -0.004056834175269799 0.00037371489699039573 -0.0020232111152649478
171 -0.0011321768492074944 -0.0007935679995985599 0.0011374295980990281
174 -0.00030943306431983485 -0.0025300372000062535 0.00117287701013077
175 -0.0008304224265706561 0.0016485543764832007 -8.937598784882296e-05
178 -0.0037438922155088733 -0.001108637085129866 -0.002449397974216882
318 0.0021819600977373912 -0.0004943121165114254 -0.004197278358292415
395 0.002338074335049732 0.00041313814560727414 0.0031423137371693064
183 0.00829287285059504 -0.006840152479719771 0.0013324827347826389
158 -0.007046111404494633 0.0004882294553723326 0.0008787073387896659
187 0.0025550347036059568 0.004040404011711043 -0.007291184976396728
188 0.005431395199980827 -0.010281655011429434 -0.0066177551148961945
191 -0.0003530015307629213 -0.0014343640329440817 0.0009319569733369057
192 0.0023703729967449925 -9.127787421269185e-05 0.0035498018928667202
195 -0.007574339506079098 -0.0016338109661366337 -0.007740454856479426
196 -0.00026717244780218925 0.002903936964402572 0.0018975200731362366
157 0.007360642742078219 -0.011477085100330098 0.004740243679468941
201 0.005931714543029991 -0.009891119125951026 0.0084216395677157
202 0.0030784524864544928 0.0022609472716841198 0.01045208727392446
205 -0.008684006073240973 0.0067181395562491905 0.0022670172341759274
206 -0.0016968475677533554 0.0028673287415496044 -0.0052727133281073365
209 -0.0007357636554846054 0.0006093265556317547 -0.003869037394645773
212 -0.0017041096667198784 0.0026595649668152135 0.0065637571755177105
213 0.005900737265028484 -0.015998548172618636 -0.002989782975633411
264 4.296379229842892e-05 0.010473420997550772 0.0011905748691058821
689 -0.004180084506159716 -0.0013544410520281683 0.003485095668287266
654 0.001141619672635889 0.004151139029696134 -0.0025633256106054594
223 0.0015767584187223315 -0.00014852985707731125 -0.002617744960023793
224 0.01160706320769226 0.004554996429754624 0.000383849875840818
225 -0.0038522178809354754 -0.008994536148211689 -0.03264456191777656
226 -0.0009875160808549 -0.005155340547480104 0.0024887257795977555
227 0.00637745103082319 -0.0070828378387279576 -0.0027488864075033313
228 0.007873774491255377 0.007615147255598343 0.003889903401595445
668 0.003786258876769245 -0.005365839697406578 -0.010325818410806036
556 -0.021195364992023524 -0.0005869248254245791 -0.010690890787621673
664 -0.008059705039978252 -0.002229471699516726 -0.0012406200295964006
705 0.003735883331978593 0.011564521432397711 -0.008219116832816545
720 0.007032598748074871 0.0032031531312772697 -0.020731992577951427
240 -0.02853697053699461 -0.009716705111209 0.022273703841862953
241 -0.0016676813971917713 0.0016841420136210785 -0.0015434124670437289
244 -0.0019204320771860689 -0.0002456977484030352 -0.006365897653498795
246 -0.003318909226113058 0.005707663921493576 0.0009697132946257718
247 0.00033585447422710085 0.002814852718540261 0.005035951534557461
250 -0.0028067701328732936 0.0020244755737416444 -0.0018483277838993314
251 0.005486212845629695 -0.001423601749381851 -7.485313124451556e-05
254 -0.004358171097950299 0.0015779547768599838 0.0023959678210863046
255 0.0035766506422414456 6.86587725577221e-05 -0.0003900604785690621
258 0.005021903220211277 -0.0008649292042508342 -0.0014950200658826885
19 0.0008691661932339787 0.002223340458851772 -0.0009122812430211695
672 0.0005583724991799337 -0.0005438854756403779 -0.0031187910022922173
263 0.005138960695909376 0.002180911801563636 0.006532681119814926
154 0.004454705931489489 -0.004076698649514153 0.004065136803854157
267 -0.0028077072239382174 0.0006820625106881606 0.0010635342631416264
268 -0.0001570861694861786 0.004596441660917847 -0.00024289180114007598
271 -0.0018163520130318924 -0.004816931766774791 0.0030469558061523945
272 -0.002994701082587496 0.0005125623952086927 -0.0008140131486188276
275 0.0029486941255961498 0.0022790521034816444 0.00031512412095250047
276 -0.0024649071651903216 0.0052568222127949565 -0.0004288152868083219
236 0.009690872280197823 -0.018590748603287136 0.028919509015043292
281 0.006841875951498254 -0.0002544636239068728 0.003395919017491526
282 -0.0044767141925366166 0.000558279004535185 0.00013106458984163516
285 0.0037393781282396466 -0.005371862156647033 0.006118435915061587
286 0.0003667981781411421 0.0002739301814899366 -0.000650626126402905
289 -0.0009559141909982362 0.004416447139083135 0.0046243064811870875
292 0.0074087835610013135 -0.004460988810925031 0.0009339546246246299
293 -0.02734002747627225 0.0019148280227789928 -0.02183901824444212
75 0.005414394308252279 0.0029865445711771393 -0.007524809089352095
686 0.00034040766518302464 -0.002532029998039367 -0.0003422258301484646
78 -0.006807898432801654 0.0037583987044065145 0.0032105336308918186
303 0.0014062022815604135 0.0035141221881069594 -0.006359113444617222
304 -0.006611537515106072 0.013333085445268199 -0.028352819447276592
305 0.008313451618040703 0.013398434641760536 0.00889728511410634
306 -0.005718682658644465 -0.002620438747236054 -0.0023279833406916845
307 -0.022975026693695878 0.008165025129490787 -0.01744916126184304
308 -0.007496307664939979 -0.011611961268073706 0.020779223439304502
475 -0.005228901475199074 0.00328121588499466 -0.0012935155103292893
314 0.005052625701594136 -0.00618308153656629 0.010575564679832655
667 0.00122102768946735 0.002675850792067974 0.006568464804817369
626 0.007124653600497547 -0.006779677938056298 0.006225103755669739
381 -0.008033421611236376 0.045034667302445854 0.008908626638369723
320 -0.015280896195847514 -0.01825423174585659 -0.013191948972776148
321 -0.004964581002409485 -0.000587474025356098 -0.0026290332434050698
324 -0.0014806763078945714 0.007064330299659509 -0.007570869616652292
326 -0.002120313301270229 0.0014565983469658403 -0.006713657619482157
327 -0.0020803544043617255 0.001970440383273523 0.00021261830669450985
330 -0.0014820388129127909 -0.0010216663144278625 -0.0019794899188227055
331 -0.001097637326330775 -0.0031412491278775888 -0.0036016506432326153
334 0.003312885319271438 0.0016480799960090463 -0.002270956924865357
335 -0.004215136377776103 -0.0015658513012647242 -0.002092834506522048
338 -0.0008381609489155361 0.0004164681357528135 0.004345060688894436
259 0.0008234011760661637 -0.00026701132525981083 -0.0013734847265987127
658 -0.0006705827245521764 4.604409090002752e-05 -0.0017243451184855189
343 0.006853557945795628 -0.0018840500317945238 -0.001822946282483088
315 -0.0027605004572625264 -0.004190768391623672 -0.004265579028103524
347 -0.0056068840128792015 0.004379228647633824 0.0030310201324854477
348 0.008701546145481328 0.004050411344542024 0.0013373454686805254
351 -0.0019850511805658633 0.0009092030142710182 -0.0036131091777454826
352 -0.0046037619541896245 0.0007676688213457631 0.0017580847056117097
355 -0.0003254641024821117 0.00046818192060354405 -0.0037354975772666533
356 0.0011736325632509112 -0.0022426082324996347 0.0025790739205528127
477 0.009914519419222832 -0.0050545940292819995 -0.006967444980148971
361 -0.001460948961802279 -0.003651331119441701 -0.0019883430836809385
362 -0.0037367770554889916 -0.004591880089699601 -0.0010471242713981416
365 0.008410227804522568 0.00483441472693759 -0.004692870799992081
366 -0.0026656531589452424 -0.0030803586457057203 0.001644812996101055
369 -0.002990854318751648 -0.0008372312063658168 0.006309743864925724
372 0.004331201952839839 -0.008532242067652551 -0.0027999377754814943
373 0.0036510770182651645 0.004760405739269165 0.006135802416037366
651 0.00333951544756606 0.00136006852653534 -0.0012518419161650397
681 -0.0009478580802689098 -0.0032104621358526974 0.0009601844854960033
718 -0.009287608346041858 0.007830535311502188 0.0017130910790354784
383 -0.004140709038033126 -0.0010170366899741237 0.0024125669694650613
384 0.019467594910908766 -0.001173927323243169 0.005032572810754811
385 0.0207157653205232 -0.013907914792327957 -0.02446821185914033
386 -0.011032707401456907 -0.005997346996136491 0.005533437209163013
387 -0.009398080235550775 0.002929533988841239 0.021387251371650068
388 -0.006587887339474129 0.026429748354185836 -0.027421438852535836
634 0.003122579430154847 -0.007823365027668549 -0.03761826185030763
394 0.012001849131964937 0.018533777740628973 -0.005373409294047283
398 0.002538031300377553 -0.0017033152210304196 -0.0005780496584429944
675 -0.0006870848667223492 0.009457839041460648 0.0037659602348380553
627 0.01116998556126328 0.007275391590146718 -0.010804953060481366
424 -0.00019992571174428316 -0.0040611764312087385 -0.0019242841170181964
401 0.0007687895196283236 -0.0003762214386458385 -0.003165611614217496
404 0.006184408577851404 0.0031694557484423084 -0.0025763804449659457
406 0.002537886555921093 0.00559826744269311 0.004962478142565374
407 0.00529969657961984 0.006889099275369123 -0.003188747606210642
410 0.0036321573731866786 -0.002198150607280426 -0.0016973124441182574
411 0.002749773875869726 0.0017589589166182315 -0.0022047566028933806
414 -0.0038328769686092733 -0.0010535342124569306 -0.0028413477309169183
415 0.0025593899382549646 -0.0006749872993369744 -0.0014235031755635385
418 0.0022621017773006196 -0.0016451121161605228 -0.004491797257019081
155 -2.3603268985482984e-05 -0.0045680007355558315 0.0024481043461923864
73 0.009904711761512365 -0.00994690458938536 0.0018917824696301894
423 0.00013452393243918747 0.006309695642126452 0.002346742414079354
646 -0.0008141032999801765 -0.0013939327171464018 0.0058001132108155
427 0.0027401033701091116 -0.0014076639649724082 -0.0014135020294007076
428 -0.00012004881443779398 -0.008453762990506503 0.001145155590074866
431 -0.00189844193468585 -0.0014565037942049091 0.001389895627649451
432 0.0004369985274326219 0.0008411003234928164 0.003428933799969503
435 -0.005683764942597321 -0.0005192355373048205 -0.0072240988835417215
436 -0.0018964157498783957 0.005150242680825414 0.0052212993962860565
685 0.009666421975974107 -0.005623098280813552 0.0041991908740259525
441 0.0018376141950246902 0.006700342311423688 0.0011702413586488127
442 -0.00945184397085169 -0.0016975594539695702 0.004386763262314918
445 0.001344287824080064 0.0029370657833439986 0.004376182593754522
446 0.006048839158940736 -0.003161192434549262 0.005748254410247351
449 -0.004335221017277211 0.0052523163835180575 -0.01136739507369259
452 -0.0036844844436456086 0.00010480452717082154 0.00302315026446905
453 0.0013561235816035905 0.0071491731971249665 0.006929389337153488
184 0.0017300723790766397 -0.0019433207740519804 0.0032829761938911093
693 -0.009359192082946551 -0.014132494688177876 -0.0024162569721714123
659 -0.006077090854282709 -0.0008680742308988748 -0.0035345388375863335
463 0.007190494952704794 -0.007517353799122516 0.0047727880898273635
464 0.0020878083504906704 -0.0004920762020886761 0.014497922193604167
465 -0.003568158716727442 -0.02762044925851346 -0.015035175136644154
466 -0.0029569790144485957 -0.005533350709304027 -0.0008785329303523774
467 -0.013026453359041497 0.010725617305243098 -0.018205626335493226
468 -0.030680186732237602 0.008857991276995339 -0.013394611439842333
99 0.002540283832667588 -0.00025522294290407474 0.0007330838763212004
478 0.0019982266192435966 0.005268744509316676 -0.001377965682623087
692 -0.010279811481894188 -0.004208185816017876 4.38254044913858e-05
238 -0.0002760036194968474 0.0005380431586246264 0.000322588736834262
393 -0.008213566587528675 0.014243808735891438 0.004767796100705251
480 0.014250456921441732 -0.024605240988085864 0.01235233000486653
641 -0.0020100828462154903 -0.00010215686189212198 -0.003778494632065132
484 -0.007221950181283788 0.0014317568651702 0.001026708943555032
486 -0.0019034419597399512 -0.0005529006874637221 0.0011202345540699348
631 -0.017503700712382615 0.01846427275911118 -0.018712191020894543
490 0.000723855012947183 -0.0025522022442245325 -0.0008947748352441209
491 -0.008388553165106453 0.005099423782121619 0.006019650306523617
494 -0.004946299271870502 0.0010163314378565024 4.1531984016241834e-05
495 0.0016348709072582202 -0.0003876458238846434 -0.0007949981276324697
498 0.0017617695860449134 -0.002065262211224363 6.2225091351585e-05
104 0.001594241516346065 -0.006470497419684083 -0.0025488726474904373
628 0.015222429802831413 -0.007736186702563388 -0.0157568497115337
503 0.0003364723317424171 -0.0029702560054503608 0.003499899935005447
644 0.004847440115186219 0.0019954048736656104 -0.0012749800817635209
507 -0.002069693553728027 0.007370062827728782 -0.0003802053711104733
508 -0.002850236279243946 -0.0013696060838475636 0.005184182428660464
511 0.0014765702339364353 -0.00290461049416556 -0.00440580818151225
512 0.002813524860093579 0.005367061497400755 -0.005132768860996051
515 0.008807623555859321 0.0018402406334364237 -0.002831582204820697
516 -0.002388623073644076 -0.0017296102045685734 0.0026488690843799356
682 0.00034260401771743737 0.0010693424033671745 -0.0016231401900897082
521 -0.0006808718509193677 -0.004096200686041347 -0.0058518029766950926
522 -0.0028688970550088035 -0.006763430178908814 -0.008545893361839531
525 -0.0022866944118319797 0.0016254804242170045 0.004814732080834465
526 -0.004972464499420281 -0.00022062032115668638 0.004333769857625102
529 -0.0003243803453279642 -0.0003704890121707111 0.005771295758263804
532 -0.00011104954370807285 0.0008523246413474846 0.008318125579983668
533 0.0036017952999548627 0.01768495248675557 0.01685031072550335
655 -0.0037644640453666054 -0.000314950267858981 0.001501656096977222
579 -0.0019277007113953372 0.005247256131763747 0.0019285813689398459
663 0.007046520603269702 0.0022988695713258727 -0.004848226104761775
543 0.0004505204655510841 -0.0036479710531193846 -0.004962708283320198
544 0.003067978633754295 0.027542816869810825 0.007241484104207916
545 -0.005347144675282328 0.004217474850505015 0.0112555342799848
546 0.00511028281239328 0.005538322082408805 0.003212732587087524
547 -0.00842100368482105 0.02701444307292245 -0.0015667567370242703
548 0.006221226318214702 0.01672552806891583 0.025637827811503748
558 0.003501191710573002 -0.0030503884851221384 -0.0008869403494109516
554 0.004241461978993712 -0.009322970789322791 -0.016237871379037826
650 0.003970312602257793 0.004417848484829465 -0.0020597845637251233
632 -0.00570799743919414 0.0016939156652698959 -0.0068210515912271
313 0.029322196288511453 -7.599711738389743e-05 0.00919953988080499
560 0.0110954891712628 0.007318454093433551 -0.006356649093446047
553 -0.003887360660173993 0.02624136429755454 0.027061782530494915
564 -0.004709970975896833 0.0005922084488511055 -0.00113378308285014
566 0.00016472965780046234 0.002153714799053359 0.001450905584878252
567 -0.00025818285340898034 -0.001030754906786727 0.0021835188229756644
570 -0.0019175197863228848 0.003074428518244264 0.0028320217604738854
571 -0.0015105651149634014 -0.0006133590967260791 0.002329144842121106
574 -0.0023600948923641336 -0.0009286740503560687 0.0039268218543740425
575 0.002850461250133123 -0.0023861209019853014 0.004141164763807034
578 0.0020710873544235856 0.0011088750966998945 -0.0006805134503102291
79 -0.014840828840867576 -0.01783607439403013 -0.020546383885209477
235 -0.007226206020882587 -0.003468812208075887 0.004959735416572563
583 0.0043313409259865595 -0.0009984455488864883 -9.26568914718572e-05
317 -0.03645751352008401 -0.023377714236226154 -0.01133943774675609
587 0.0028588560075054887 -0.0009873840406935239 0.0020549170819345237
588 -0.000170035398002534 0.005303161671199876 -0.0007956086635526169
591 0.004221811758500376 -0.004098396383363323 0.004912225364099971
592 -2.7427123845609525e-05 0.0022913418613117013 0.0027503935859571134
595 0.0080157471640212 -0.0007801233510181322 0.0068107524376422824
596 0.004265472924355078 0.002556535016711061 0.0027500391639961267
704 -0.01325353168055106 0.005007221871747654 -0.01562769012024698
601 0.003159769230719461 0.004477156689377296 -0.00368063760897817
602 -0.006801526173029818 -0.0002829486185427534 0.00788662837236389
605 0.0029954767066187873 0.0028287148246093695 0.0024596790765529114
606 7.424997357673023e-05 -0.0010501391537135875 -0.0018586531628743599
609 0.0008259653953576024 -0.003522921134707635 -0.007084321708746303
612 -0.00042354263176771546 0.004025450597252674 0.002718440464863904
613 -0.016823971983586126 -0.008739921238055236 0.004708629716222015
647 0.0019941542276975875 -0.007174031722956766 0.004094478848571215
156 -0.008204163460473897 0.007402957181708363 0.009457670714527647
179 -0.002752069816141067 0.0026520069122174666 -0.0009181218544337521
623 0.001278584792091497 0.0020271667310308274 0.0008600031522418718
624 0.012918555009000946 -0.002373334689187097 -0.020576034603644298
625 -0.002456691145623925 -0.011538564013293343 0.009459017272480174
638 0.0032840490442125597 0.003516639083540466 -0.007981136374618529
397 0.007939359575955611 -0.012256037397587296 -0.00012573842566979818
712 0.004164963305483375 -0.0005089389749246095 0.0036888050244873525
499 -0.0012014463057281423 -0.0014327711483849467 -0.00043327374591370236
237 -0.0019305155158533414 0.007462155217071297 -0.015887684535714607
504 -0.004339847986814527 0.0007115743740358234 0.002839851326796013
382 -0.014355594001385115 0.0029754794156822166 0.019386182936707245
473 0.0192535678587208 0.01301356991053124 -0.0073781461010178
555 -0.00454171147316616 0.003294587721236058 -0.0012084770471809548
76 -0.0015053365355785096 0.02764617229821822 0.0010800752970111793
2 -0.0018851686714635976 -0.003101485897718917 0.0001217720511079496
3 0.0012229732549267943 -0.0006583417283607247 -0.00017351044977702027
5 -0.0015142875306704583 -0.00022634118288723584 0.0023887039160161772
8 -0.0003973849041464815 -0.0042777116756049765 0.003956406175891882
9 0.0036523538034244117 -0.0016981440574658072 -0.0023829743776229775
12 0.0024985940803539724 -0.0035013226040717573 8.815201118281015e-05
13 0.0019557146976956247 0.0002933561191453989 0.0018003700937519347
16 0.0033916963704289887 -0.0020756558782313037 0.0006942849065246775
17 -0.004722227597659791 0.002723162088612047 -0.0017473301793346338
21 -0.001093156978187757 0.008115647030080506 0.006924570357397938
22 -0.0025115683405206217 0.0025841981722251584 -0.005963077757880693
25 -0.00552020693428358 0.0008247116859477025 -0.006548251123874934
26 -0.0034333963929537325 0.00011357741102836975 -0.00332208442146698
29 -0.004362580321792199 -0.0013677102605174137 0.0033137677212566126
30 0.002696278830111401 -0.0012220205050297087 -0.0004899912735512435
33 0.007975907973238784 -0.0006231964744246968 -0.0006948664028028891
34 0.007071227037270154 0.002068596887355432 0.00837824366101285
37 -0.006683485223370372 -0.006316148548867071 -7.169936240359706e-05
39 -0.00470402624529474 -0.0005448926579833547 -1.650380276598677e-05
40 -0.0006003353283850641 -0.0019047649792910005 -0.0014571798933049483
43 -0.0014800832874372553 0.00466266706689008 0.011090852385319512
44 -0.0002409723523315256 0.0025591734419146838 -0.001127749953712402
47 -0.006922548822824553 -0.005559393363577162 0.001062020398982168
48 0.0009653397229187367 0.0013321068731278285 -0.007020875686789525
50 -0.005848002427212542 -0.005600435036874346 0.0026193345275076097
51 -0.0022506038880635744 0.006577160306227198 -0.006200877465327393
687 0.003282653349123118 0.002426158862953233 -0.003116819755585118
691 -0.014676608325474058 0.004337093521660269 -0.0033862668503712224
700 0.0050897640778105255 -0.0012687548098761227 0.0006171726115596951
60 -0.00018879747544434878 -0.0035130283265888706 -0.003514582536065094
61 -0.000921846698518736 0.011397905685321515 -0.018408313087383665
62 -0.010225944889988276 -0.005207975479587444 0.014039833414062449
69 -0.0036668320618942593 -0.0031171879927462827 -0.0004832338245110617
70 -0.002302199516396497 -0.005442810669891436 0.0001689415381626685
71 0.013224863738866409 -0.010197956441929333 -0.00031848049941419235
719 0.009763198021197605 -0.013901992087903428 -0.027534008503215517
713 -0.023216514411925373 -0.01015577781878279 0.0072683640225474945
639 0.013786413775636986 -0.015510269216427857 -0.02866055965099878
82 -0.001592902943309267 0.000779589355107691 0.00401226338156277
83 0.0006053289510790365 0.0009952629571939034 0.0033222071104600363
85 -0.002754922244170749 0.0016686038977389043 -0.0018135025680540563
88 -0.004982608655593884 -0.00137146834224471 -0.0027074177012747806
89 -0.0030911198144143973 -0.0014341737763073007 -0.004026661280004091
92 0.004589674584279762 0.0006110159888728598 0.004199192688045649
93 0.00010049062190141617 0.0009661388283988167 -0.00020633461094339618
96 0.002136215727883652 0.0022375795821410983 0.0021179798855899172
97 0.0014529608920585044 -0.003431844606457687 -0.0032548656160820933
101 -0.008215883100041529 -0.0004114727790881011 0.0004970796482768766
102 0.00172397208373531 -0.0031526133642669667 -0.0017173811120301996
105 -0.005388108231665792 -0.001368732174555049 0.0030604563892074068
106 0.00029764878043432916 0.00861515948797022 -0.002661264936430289
109 -0.0031641191858612586 -0.002549118145174048 -0.00356839398118738
110 0.007608584361360282 0.00555930428791582 -0.0021038257975263723
113 -0.001054729561928695 -0.0004825252876933786 0.005622404403348157
114 -0.0007704086107367263 -0.0008057236810452782 -0.0087546690523588
117 -0.003618746929084496 -0.005562533770453038 0.0024987072278946005
119 0.000896263650410627 -0.003211126762343259 -0.0016945383123321768
120 -0.0032984717110284877 0.0023188443890134374 0.000741163136561278
123 0.005584467574854223 0.009412409874333286 -0.0022855544768130625
124 -0.007004936164074592 0.0005503580654709076 -0.0007866458130875887
127 0.0033084395931684786 0.0036085062772072112 -0.0028143070734580234
128 0.002766265663723189 0.0018229594562258458 -0.0027575249858054524
130 0.005198999916280602 -0.005938171075200146 -0.000673322168980406
131 -0.0003497096467717758 0.009778876464234308 -0.02235632061805883
232 -0.0019758349400228747 -0.00651570584263349 0.0034152705361761918
390 0.0009695457428332427 0.009388724513984174 -0.00040475263837536524
690 0.0003224496970441001 -0.0022207755028837927 0.006837437931383405
140 0.002152930035219573 -0.0009892210754302122 -0.0009842263669382807
141 -0.012877018098229298 -0.01800769576382027 -0.009273020664430429
142 0.014078001490929791 0.007444080782683031 -0.014167642281521066
149 0.0037737484747012626 -0.0020030039351612125 -0.005115613826710572
150 0.012171137664787843 -0.011944625138359819 -0.015754857987202203
137 -0.0006450055083051038 -0.001601501531116122 -0.005571452444912228
476 0.014866085770262277 -0.0071135382060295025 -0.010886680295164826
724 0.008530220784825614 0.008319517484700351 0.008353375210476651
701 -0.019904539484381402 0.007508798930653768 0.006484999382406446
162 -0.006183813675966055 -0.002544877119352422 0.001296606742910727
163 0.003463408647989498 -0.006645657149201071 -0.006233481236647862
165 -0.001103287816952304 -0.0007162376311629062 0.007768066245176237
168 0.0030648676158291544 0.0019482698640538353 -0.004890664062181983
169 -0.0011977568270377518 -0.0031759853159800317 0.001811582938846916
172 0.0009213749307055609 0.0017936051802759938 -0.0036981112010438526
173 0.0036182296258417857 -0.00192197982148599 0.0014551016247730392
176 3.9845507517110046e-05 -0.003446382025584697 0.004160296688434696
177 0.002729947762036472 0.0014273991100819375 -0.0030242336680567747
181 0.003308772144409593 0.0018852778394490885 0.0040174988878418335
182 0.0005462211930405388 0.005109600038555756 0.0064892228144142455
185 -0.008035410590353276 0.004124847807302589 -0.0014766495902131555
186 -0.0031460003622417196 0.0034371907094561944 -0.002849016697091841
189 0.0031823738200132375 0.0027435950279814025 -0.0015664981402447025
190 0.0011942714864030702 -0.0013033686273977389 -0.0017417498515953302
193 0.0037982195049507447 0.0005108043951282232 -0.0111239076088495
194 0.004735355313453814 0.0024462721007563336 -0.00029028586068033304
197 0.0026658520454265616 -0.004017385102324529 -0.003749657341495574
199 -0.0010770845200621048 -0.004432283602512386 0.0021180940843541214
200 -0.0031011532795929804 -4.538989727095735e-05 9.150096237041405e-05
203 0.007608639887898431 0.004320814719360739 -0.00023573295224865056
204 0.00625603393409385 0.008086776564287574 -0.008491329240668068
207 0.0014871016004293135 -0.0034270445661416854 -0.0011246650659298696
208 0.007816321891424094 -0.005490809259835711 0.002884125993668765
210 0.0022723564409322947 0.0033911161733685626 -0.0006033100194157198
211 0.01306082707514527 0.02985873201652205 0.0006323120963479563
77 0.026741864249147724 0.01952071200372002 -0.007578726464354048
714 -0.00022673046081279812 -0.00372335370190318 0.011649726631868935
59 -0.006620117714344013 0.0061320960562432315 -0.03207052571520186
220 -0.005906785247227408 0.006310438562656506 0.001760524312103399
221 -0.0011302173709060997 0.0324926926971963 0.0018449953757879983
222 -0.024473408000983878 -0.004466850948923653 0.007425390481285593
229 0.0005273101126976941 -0.0021437424390995646 -0.003918442876760554
230 0.0023279055225949945 0.007592267585968374 0.01502487935860494
231 0.023643768257837046 -0.005226243247143376 0.001159527841947855
736 -0.019093630690975933 0.007144622479814575 0.03230592578782543
633 0.007377551325914612 0.0063850639984618365 -0.002881375106741361
1008 0.0050887011071537765 0.007309881408483457 -0.00018562441961709707
242 0.003251219326154343 -0.003739471521940892 0.000308618672399675
243 7.591680374837144e-05 0.0014700229298106517 -0.000325154329521156
245 0.0069504465446324 -0.003923316192477405 0.000500022124867419
248 -0.00032506731682980226 -0.0012325383152446295 -0.0033249023599829204
249 0.000855923439259457 0.0005039858063843083 0.0005698148832854197
252 0.00036155975878346413 0.0013008488209008445 0.0006868983327744428
253 -0.0025966083006115984 -0.002230721349782549 -0.0006726575921010019
256 0.0027121875640174734 -0.0006201319800331862 -0.0030810401571174494
257 0.0014025026444114957 0.0019638188996238125 0.0008850165147728184
261 0.0007415558659911059 0.001107929451204625 -0.005803202768415762
262 0.005629513355316716 0.003771496490946051 -0.0011066151718400192
265 0.00026625143513254735 0.006027397258518369 -0.0051379332610656785
266 -0.00440301374389957 0.0006013590840149161 -0.001237314323013924
269 -0.0005334924846035644 0.0018447596849779984 0.00903417044610858
270 0.00392563954099856 -0.002715055553491814 0.0006032768737301251
273 -0.002614933592961576 0.0038124375748901144 9.594004450304157e-05
274 0.0033786487127225014 0.004246288673465811 0.002285759249568273
277 0.0009588373885719963 -0.004917697461479836 -0.00498339400632654
279 -0.009481077885865033 0.0034614342794979545 0.01172130997554214
280 -0.0015476429186975092 0.0012639662624700696 0.00014612982228054958
283 -0.0026751624011911814 -0.0030679704948044302 0.009235577392922115
284 -0.0012303192729544974 -0.004636897764686602 -0.0007854186150049731
287 -0.0009459356298029905 -0.004463306186752936 0.003030837388376105
288 0.007544072352572568 0.006192718177555048 0.004711538122781528
290 -0.0017997088801325759 0.0019199529275383458 0.003253979228761365
291 -0.031045110827872268 -0.016934274905858998 0.0020622424420529153
471 0.009830351218661791 0.0017864061686356507 -0.0034975514782281387
359 0.007323129992793318 0.0022190908318998896 -0.0005334878471377687
684 0.003766141641268039 0.0035317531157958246 0.005797313226232418
300 0.002002327557134041 -0.001888212580813651 0.004137280643894437
301 0.0053993378030743056 0.0063894491532909565 -0.008875383452888269
302 -0.006389358845251473 0.007786465210020855 -0.005734802077448048
309 -0.00041277449129851736 -0.004028822724219869 -0.005704063897746782
310 0.006156101892553669 -0.017385256446848116 0.002443515636558166
159 -0.01817786071590659 -0.01842763327583254 0.013413741038102618
311 -0.004004569352790181 -0.0036696019225169324 -0.022624113898103256
727 0.009638930582133824 0.005210186216327941 -0.018442876671616953
722 0.0034503555493315403 0.022583227951591556 -0.009762654947282139
322 0.0032541845835327566 0.0017887596621863015 -0.0004851722215430044
323 -0.0004152729586150303 0.0013921130920382973 -0.0033164092619091053
325 -0.00026139835305544315 0.006462972603253301 -0.0029766090294446146
328 -0.0008737298825971778 0.005758804269956939 0.0019254982452194343
329 -0.002880264146534484 0.009060941395644832 0.002339647753376812
332 0.0019219851185210105 0.0003316211949787029 0.000754301415356231
333 0.0016744374199026359 -0.0034672159285210388 0.002423902043881399
336 0.006125676179753027 -0.0022595550522280005 0.0015615179609669635
337 -0.0013120381525834656 0.00280131223349144 -0.003900609223181089
341 0.0018650934989778046 -0.00035386406829372334 -0.0024227139927525884
342 0.0031190153266419055 -0.0005919955923849905 -0.0024494236552449126
345 0.0001335127641687106 0.004915792743855001 -0.0035306947994845268
346 0.0025869276698836136 -0.005182392815724845 -0.0028490318132601347
349 -0.004813290904035975 0.0005902058980673566 -0.006113715493764576
350 0.0024704053242683 -0.0009296950712332166 -0.004047566199905686
353 0.003088117781470475 0.000889602399342321 0.0006135399503828331
354 0.0011982760845849435 0.0010029275058518518 0.0014742145243189066
357 -0.0012146788016334825 -0.0024651803491133454 -0.003210764614821224
319 -0.02092717965919102 0.0004867979323530067 0.006685749544054542
360 0.007468058451634018 -0.005416602105138487 -0.0003918294748973481
363 0.0021554634127004505 0.005205666645046561 -0.002483160911562988
364 0.004206183745444946 -0.002886041810774712 0.003179267361965043
367 -0.002365522433780762 -0.0034006784205594135 0.0006611982646830861
368 0.0022805938674337 0.0006255877772736695 -0.007438997383599114
370 -0.0007685530291370386 0.0008795699627834489 0.009052133008387172
371 -0.013853521274736446 -0.011965702541974684 -0.010085664476030685
735 0.0076431252811067505 0.024478792390320143 0.0027871270182954202
151 0.028489557034633503 0.016125522963869095 -0.005286945576195139
479 0.002255097441438023 0.0031412842062146797 -0.004279494575613522
1194 -0.0012714386327391891 -0.001317310873183712 0.002058902521286781
699 -0.013602665247288084 0.0027790298930188756 0.009706846446694329
474 -0.018891773384881197 0.016769991955815442 0.009550343904372772
389 0.00691640494819485 0.006190795452865739 0.006066308973771119
57 0.0014764647294598832 0.0018717000141716042 0.002808242571746755
391 0.010630264412296126 0.003213949105356708 -0.021981298637897342
734 -0.04658262061611217 -0.011924374609608041 0.013142757950067934
299 -0.005116616272539699 -0.02162141739006774 0.016772829566553533
709 0.0013769112942219439 0.0030072115970318997 -0.007324910211889067
402 -0.003407506134447935 -0.004793226404202189 -0.0010893681078127544
403 -0.0001637074436256188 -0.0008272235100424679 0.0009775404317584149
405 -0.0018716849988115196 -0.0011931462121959288 -0.0024135999516027543
408 -0.0017540659164336178 0.00393284694094056 -0.003477431145767787
409 -0.0005150923311244446 0.0022181333295567987 0.0024551466283933327
412 -0.0006164526069134807 0.00042472513166200013 -0.0011269362830195898
413 -0.0015609820632294371 -0.00451192631774758 0.002384793975023301
416 0.001975592187874016 -0.0007584323615498787 -0.00027410273559682556
417 -0.0016411470145265812 0.0038183293107237407 -0.0019486148537214726
421 0.006185753403647203 0.0020928229960667424 0.00034410597430921966
422 0.006830006016725619 0.003769703280841932 -0.0019294535930152142
425 0.004025091457210717 0.0013242521012955233 -0.00692184113844784
426 -0.0005255618186834247 0.005047450814878801 0.0008608405119496114
429 0.00532410505213776 -0.0040250441062633325 -0.0007726004462293777
430 -0.0014518548927638648 0.004515549382837002 0.0035218955989166113
433 -0.0022730453985554317 0.0008069333522593868 0.0007450224441064515
434 -0.005571465450809963 -0.0005823447907449269 -0.004881671053438781
437 0.00023910748006693338 -0.0017447196387811203 0.0063162561909416125
139 0.0021486495904282205 0.00035939756605624356 -0.019861726696522208
440 -0.003065511236080186 0.0006247435311029725 0.0013580096604067548
443 -0.0022894710932417125 -0.0060403133301523025 0.005176135052784715
444 -0.0009408952193366925 0.011906491078298281 0.00019801759962064368
447 0.0012303998041854794 0.005927137640212307 0.003833621420990834
448 0.006078758188968993 0.0012476383053066059 0.0009081969600201354
450 0.004962926414950279 0.0023160834975160314 -0.0020847097538763946
451 0.016160177091938815 0.003628384509958773 0.01232407303703039
716 0.020513863224099458 0.018627903516202086 -0.009038598996390156
400 -0.01312416178811633 -0.01422165521508925 -0.00448960667434677
635 0.006101768943003933 0.0068898553671925405 -0.0011107759676982417
460 -0.0034395705426659385 -0.001101288858374164 -0.004856335965093587
461 -0.00874870813620298 -0.007904656168218678 -0.0024021778730204902
462 0.0014139637601254266 -0.01807747321848378 -0.012301799062316498
469 -0.0032372936306055184 -0.0003301831765448716 -0.0004991266724434382
470 0.014775969401313746 0.01470362712830042 -0.024046216080724214
711 -0.02072563886886322 0.02200601385226398 -0.025161519159171156
1005 -0.0031296663715595606 0.002449232635991297 0.010211020540211247
726 0.018427799949133586 -0.0040683780145203295 0.01828636618392204
837 0.0032929171613833193 0.0004532955524302159 0.00019707527047119222
482 0.0033454097131264725 0.0027580408689843123 0.001497128542803821
483 -0.005961645424424998 0.003809486745392762 -0.0015106046220043463
485 0.0031956891898390883 -0.0009899909842390967 0.0008531083254150024
488 -0.0038405072111274917 -0.00014566113571673874 -7.998922875342711e-05
489 -0.00021351582435383878 -0.0053173487200358005 0.00025304060979594524
492 0.001673044248318645 0.004378799997446496 0.00013689893946837697
493 0.003467973726207492 -0.000696456717966138 0.004011570339653293
496 -0.002539498296065289 0.007130241079883965 -0.005279865597439834
497 0.0015599500424452004 -0.0011244718170873489 -0.006031736992892253
501 -0.002035157868020233 0.004995868071649295 0.004595702683373145
502 -0.004322463579728325 0.0011986788341487298 -0.0009217669384299277
505 -0.008917517267085411 0.006362240078561881 0.00032291883370582074
506 -0.0067117084224490335 -0.0019157838492955632 0.004287271293046687
509 -0.00497501861935712 -0.004386579090188669 0.0022546160449658185
510 -0.004145329367497143 -0.00014802975249241516 -0.006091752221043883
513 -0.000651224910081072 -0.009880460375859256 0.0013911061418488677
514 0.002428779386739741 0.00036750479818958924 0.00021384507949554393
517 0.0002074573653634623 -0.002730015856890864 -0.007850760378520292
519 -0.006987604172312786 -0.0064771127306545405 -0.008196707893288635
520 0.0018531370306111884 0.0016559147808573706 0.00466375753503136
523 0.0027633474128810325 0.00376965866046492 0.005131033805954746
524 0.0012102700278507827 9.153406449867938e-05 0.0025000789534248323
527 0.0009536715868993048 0.0036604783223794035 0.0002166216069968636
528 -0.00268787190918434 0.007001891304932103 -0.004234941745409803
530 -0.003849440593219942 0.0007492357193998629 0.003068466053988261
531 0.01004724490582707 -0.001974527367802739 -0.009403104940121254
723 0.005894171974317099 -0.01558613748214066 -0.007119458208887202
439 -0.0014676980096891515 -0.00010835705516906939 -0.00853055251824947
239 -0.0007694894855579414 -0.0118743115601183 0.0008797005255563516
540 0.0035109984445054155 0.0013055134100245695 -0.000737298414581796
541 -0.019580640555191597 0.003549483889386559 -0.0026592710610469777
542 0.025903802971256745 0.00776569508901217 0.019523325368014082
549 -0.003675566850321755 -0.0016416028304376857 -0.00330577351686902
550 -0.0007846152206602475 -0.016651719475862692 -0.006279468517470779
618 0.0029655451982624763 0.008638047064313852 -0.016636739299938193
74 0.0016927933663206994 -0.012496873050198492 0.0012718330529331947
737 -0.014214598037373962 -0.015667743268628364 0.020965739591464826
688 0.0006140309735121395 -0.006798357043309426 0.0018616128802528518
562 -0.0012024234612860105 0.0045146580137869685 0.004438982401245852
563 0.0001756742638650022 -0.005521761174674375 -0.002853341581763098
565 0.005826381029820154 0.0042522617265231665 0.004505458923914701
568 -0.0033694731542398795 -0.0013144115743824207 -0.0012363402356243857
569 0.0014285851387761954 0.002067091746763794 -0.001862026003256243
572 -0.0008481985307588219 -0.0015316137342358445 -0.0030786539423984754
573 0.002093929554546824 0.003034571215397884 -0.001840152829698147
576 0.002491661284188258 -0.0014145990257579952 -0.002179264390489571
577 -0.0022957328958163967 0.001963797799761888 4.5812252819057425e-05
581 0.0021585924115677044 0.004867146599875756 0.010106420985919611
582 0.00229309253323594 -0.0020901176381631402 0.00035478002619851993
585 0.007790538229857057 0.003937753383384849 -0.001689320724673825
586 0.0110653656116581 0.00165376377763143 -0.0016222358697023874
589 0.0051199862689167795 0.0017072903129786133 -0.00019144046413606503
590 0.0035320617877578485 -0.000630811547753461 0.009223324147343106
593 -0.003948921167215178 -0.0029260216304300432 -0.0004217085673763044
594 0.0015599728137348776 0.0010273187399861769 -0.0005839207999444438
597 -0.006506682519759375 -0.004309062571512114 0.0012811399798728321
599 0.009435422650378718 -0.0034558555461836685 0.0019116992903221307
600 -0.0003324003263658077 -0.0023235634404240885 -0.004884951697445932
603 -0.003057079237794528 -0.006273936480678211 0.01242420711531088
604 0.004112777462426736 0.00042075705185283394 -1.69871199093787e-06
607 -0.0004662591182248643 0.002785181869366678 -0.0036513248224076243
608 0.0027958394859114123 -0.004225620922332322 -0.0051115353965739165
610 0.004196735288969456 -0.0017511546853258401 -0.005499366079713
611 -0.010377734838981321 -0.007336352058160226 0.01095928361671436
551 -0.01083147193536289 -0.018301909576712145 0.01779412295805223
636 -0.008100813927160435 0.005065141173184106 -0.007920742377163484
702 0.015332879800677995 -0.02658940804677477 0.01454096986888779
620 -0.0013944699827841448 0.0003245985597335714 0.001885118873632663
621 0.008573093956317722 -0.020637447093680393 0.00035700827789474435
730 0.00024263652406562684 -0.011567990403376412 0.008251805440837668
932 0.018556095948260812 0.012423026937363513 0.01758574541308681
733 -0.00891767313751986 -0.00024179231512473322 -0.005648988609898358
1004 -0.011540863031501872 0.008887879860676066 0.01750883892146311
619 -0.0072983331832902785 -0.005496327512139581 -0.00625660777649203
472 -0.0024070533461905182 -0.00968363555833843 0.0011074083010498238
710 0.0028662874880430226 0.009925060530230092 0.01491777747438522
642 -0.0009424134323989607 -0.003444549255417426 0.0036251653590412924
643 0.003267316294896697 -0.0009699406511234983 -0.0021134274519000354
645 0.0024414994477352783 0.001179950052647009 4.1221125546574056e-05
648 0.0028700146516901465 -0.001115803535320014 -0.0004410548558554968
649 -0.004570211255319501 0.0003268151707755573 -0.0046094104121683875
652 -0.001085252919403348 0.0008439023440921408 0.005305529729865667
653 0.0017852659479473682 0.0010764138295283711 0.00021308466840330034
656 0.006222529497537539 -0.003336199093080676 0.0031959756679695067
657 0.0010829638360044963 -0.003732302926225268 0.0003145157055600101
661 -0.007408491336400566 0.0030459429359061814 0.005187674743386798
662 -0.00671544012162633 -8.941377727550994e-05 -0.0022458828276263115
665 -0.002459558601330436 -0.0013197249568128466 -0.0005637841890730593
666 -0.0016966665654107773 -0.0004215547227762296 -0.004828795601880642
669 0.003496568385054395 0.0028795546181470673 0.0014362736473105659
670 -0.003461467639837135 -0.0016276838703992464 -0.006037432921151877
673 -0.0036127504450296118 -0.002687765154648626 -0.0032493215562260837
674 -0.0056440753234657534 -0.00034120104526534216 0.004878637534709792
677 -0.0004193447030021749 0.007692064566726252 -0.0026671872131534577
679 0.002444048290866173 -0.0014280092480406907 0.0012612879955869315
680 -0.004735637688542506 0.002091914076981334 0.0022380065492317875
683 -0.0034897468404580688 0.0029829961060175865 -0.004576389130475393
297 -0.0012900699150455949 -0.0008816436392755055 0.00226916380820909
1545 0.002894004560081758 0.0011925692964584952 7.059195611321746e-05
715 -0.010930257728070004 -0.0034110732350624406 0.001444784761472916
1544 0.007169185331534432 -0.0200902531825956 0.014481305519315209
697 0.007389306222455414 0.0037522148385605355 0.0037690460222648005
622 -0.01340698060060884 0.022571913782416086 -0.005863521506105581
732 0.0021281557568246737 0.015067043905427383 0.007028340994946292
1628 0.002459335022435759 0.0025679781000231255 -0.0028957004047497513
721 -0.0028094215537658846 -0.00856570272997162 0.012698558832866103
557 -0.018260944263889748 -0.00501174245256215 0.0018639036214578417
717 -0.01845047551117861 -0.004147119308229658 0.014995784093534801
1101 -0.004260595534224862 0.00038793276700903236 -0.0002799009251031304
836 0.010789591925917807 -0.0156614597574929 0.005149054418673675
617 -0.0024077196689864036 0.002259417449238458 -0.006507026342808546
552 0.0008131609460526218 0.006365113349037394 -0.0016955101859469442
1627 0.017268830402485013 0.010728968179233564 0.019812093808358404
234 0.01013292355104065 -0.010360414536197958 -0.018464787830867985
1100 -0.006489164709562575 0.011810659488476658 -0.016359306097600942
738 -0.012976447229349642 0.004950746820189809 -0.003169488795706185
731 -0.022772748876800884 0.016222583516163434 0.018923284530407983
1007 0.014913691751229296 0.018908922020959278 0.01625316598601883
835 0.005946040688395918 -0.004635177001783476 0.006410739398651994
931 -0.033005244890037956 -0.0051166192356740465 -0.001676104113897642
630 -0.0035758089297900117 0.00041258857351684505 -0.006661827494473496
233 -0.0077052051314311625 0.01851538508743422 0.007465144704528143
559 0.0039254071642167414 -0.0199266817698805 -0.028282683815396087
1193 0.05239567920672209 0.0017056924036116222 -0.024182645161075756
419 0.0028252179953737306 0.0038246766308188867 0.003252838782020881
316 -0.03683334153310915 -0.0025593668729532587 -0.002420301396985372
760 0.00026266539869254993 -0.006368091656921928 0.009171114643336935
761 -0.003219604053325618 -0.0042969224083326246 0.005089866642836115
762 -0.0007655204712336899 -0.0013116214548605043 -0.006360634347705819
799 -0.0019357420388969539 -0.005359487329246243 0.004273764468506649
800 -8.947168269838429e-05 0.0017193598542832307 0.007490334451382145
801 0.0032794219953981582 -0.00144459212593545 0.003464301715790694
1699 -0.009016934333264316 -0.01855725904085707 0.00356325525969123
803 -0.009712358988465487 -0.01024930766114491 -0.018475856866056104
804 0.003993340560775304 -0.0017447217329688838 0.007073349675980872
1629 -0.0026115105720498433 -0.001317801816409822 0.0003272950062396817
1574 0.017820087893147644 -0.005013828391292267 -0.003768668580679882
886 -0.008317997058488782 -0.004408797553334655 0.0011769445487412615
817 -0.002976381239435446 -0.012116673450525568 0.014972799886492706
818 -0.004204274817787497 -0.002844133631478758 -0.006649799496593199
819 0.007375093842053607 0.0038730264017251335 0.0010632895903374218
826 0.0018680660789099019 -0.005694054777246582 -0.003947777305790068
827 -0.0023046738507399634 -0.01647167998480379 -0.009157700513710645
828 0.007089202572429341 -0.0036665774377327453 0.003098334592569933
729 0.0022431383877709516 -0.008347005061799822 -0.02497473011138212
728 0.017406570680192218 -0.009990479996948342 0.00866242463998307
1159 -0.03504841157676866 -0.007335934637598077 -0.00281846138609101
459 -0.004810561307116632 0.021418750600211266 -0.03044050908559804
1725 -0.011014832778289825 0.0042301815712737605 -0.003882701020263082
1160 -0.008486911199069249 0.048332866889214524 0.026537370860329805
862 -0.0014978250701919345 -0.010216669476220897 -0.0011765667483424756
863 0.001088708013516886 0.0010822923117872728 -0.01180261935897693
864 0.0008864056068785857 0.0033841930575549475 0.0004406680444857945
865 -0.001456854848203512 0.0216450630213396 -0.011927091412866823
866 -0.023268303643199397 0.021608096463466384 -0.024860712293307625
867 -0.0011205090686335552 0.005051908010626271 0.00047311419608858093
877 -0.0014753964123725848 0.0005046832480520479 0.013446092680178039
878 -0.013583487676340954 -0.010949880671803445 -0.003817232752907614
879 -0.0023854722824686067 -0.0002551584432657701 -0.0026281694634451395
880 -0.007928256573262368 -0.007746007714900139 -0.003758841820719206
881 0.0033500469544561705 0.00484220517521835 -0.015885898839053673
882 0.00479340775194868 0.0059323126641389 1.6978273423959396e-06
1726 0.005153924738325366 -0.005450252441378468 -0.00015549986427364616
1302 -0.001067796532258617 -0.0005639957315206126 0.0007896390524687844
888 -0.001523268861415599 0.0004298355211951541 0.006785768301018979
901 0.007138452511682102 -0.001018959690036777 -0.012701922630091865
902 0.016657307610370774 0.012644992587942447 0.021539488542071654
903 -0.0018130247956155761 -0.0007402923768717102 0.006842083699670427
907 0.019083396882835824 4.040153643005529e-05 -0.012790588308089573
908 -0.007429567462260323 0.021064681929449026 0.009646613994543932
909 0.004107323202556763 0.001889812226218321 -0.0035996420273557875
913 -0.011252260890018236 0.010286289382813769 -0.011862498628737634
914 -0.014724532718774247 -0.010368027750480527 0.010218640814134702
915 0.0014062000140642938 -0.0030731499212238106 -0.0014433982150826553
1723 0.00213871822675274 0.006501503848688415 0.01632054044560974
1904 0.007100096224147712 -0.015458313227131553 0.010117971863651435
946 0.00805952866399703 -0.007925165218553343 0.014727654088077571
814 -0.02474116523716966 0.013362296572234287 0.006974035312871627
944 -0.006250881769973102 -0.01975726278677592 -0.015422016579099937
945 -0.003852785370460611 -0.004547904960712001 -0.007333306893298238
1474 0.01005610167179387 0.010622050725089238 0.009015023433103059
947 0.009221914222036325 0.00874632261506216 -0.018958554533092538
948 0.003560987669488203 0.0063622853028876426 0.006419920126780332
976 0.012143148441109218 -0.006185659910883005 0.019326299076105564
977 -0.0002473113791760644 -0.002665215853618367 -0.014361277797059032
978 0.002925819215303868 -0.0022957172375537085 -0.0068191188478356314
982 0.01560994383847317 -0.0028170849657798594 0.014738073795644804
983 0.016400033894272623 0.018922843721670635 -0.014188558539343919
984 -0.0031593205981918417 0.00021471072867422066 -0.0010565462920777938
997 -0.018574023892122465 -0.008035970579626132 0.008358825980764973
998 0.008282512295411241 0.017893330375940167 0.020655876762434456
999 -0.005121883634218352 0.0011391790395492785 -0.004271139101590538
1000 0.022199778075934925 -0.020472981017056056 0.014465460118281464
1001 -0.015921456740121836 0.0013294967184274654 -0.001418355260525527
1002 0.0052900904509910664 0.003050996821676944 0.0030100602564952558
832 -0.016647360965859028 0.005887895866651933 0.0011846901944600856
537 0.004802512588459798 -0.004738357485254776 -0.00015592150002231172
1577 -0.013090415397738258 -0.014617867030224316 -0.010663758854543943
1150 0.02316571409034333 0.01356044544470044 0.000852128275883258
1918 -0.018644729649434023 -0.02292790000549413 -0.00107445254128447
1573 -0.009280467905183295 0.0048659342315471605 0.001733389737685339
1027 -0.001965750375606053 -0.010146685833924998 0.006132324241782227
1028 0.00124254100281669 0.0050542680947005285 0.010163167905616633
1029 0.006409078880433003 0.00018537661705358543 -0.005546395479861549
1045 -0.011558478099895542 -0.007899427591347982 0.013934578037915766
1046 0.013478006838051244 0.01893278542300468 -0.027460550403335234
1047 -0.0022531958716641384 -0.006988944806248252 0.00547266819807334
1054 0.020193825762478336 -0.011415099357929122 -0.006303384170928049
1055 0.023322994679910867 -0.0004324521224978425 -0.018189901817920844
1056 0.0021763723166760003 -0.0033662359784866662 -0.003908058013183265
1087 0.022024519639945617 0.024341640593404767 -0.014508410795090092
1088 -0.028340562409411737 -0.012343364365496773 -0.012091423100618408
1089 -0.003747561798458926 0.011319593677095454 0.0022728441164880397
1093 0.004294210780446519 -0.006634858843991025 -0.008589635617614944
1094 0.0023345075343538546 -0.01186793881820708 0.005858989301894056
1791 -0.002759134156960887 -0.003020793267282432 0.0003584920369123553
1244 -0.007047884179572445 -0.0013168617449204958 -0.04269809063058508
1576 0.020929954694559102 -0.00624769322644874 -0.006518588552919294
1481 0.007316082365073167 -0.002133090049854441 -0.004660807049282962
1120 -0.02430957556814844 -0.005304793837797586 -0.005576909827866953
1121 -0.010493561646434441 0.01065118647746297 0.011285128731202593
1122 -0.001999995816387941 0.007999840522906441 0.004102995599172984
1126 0.0008495890340352513 0.029503430375808905 -0.01337352708505511
1127 0.0027275027546610335 0.015943519533235695 -0.001665131150780926
1128 -0.004716520180012917 -0.0025427636825435117 -0.0008571341973432936
1135 -0.012031897191682728 0.00896057340312027 0.02914206457224279
1136 0.012522162292672938 0.013635594968435055 -0.031001674085374756
1137 0.007929999463245869 -0.004525941220091097 0.0016385261043645666
1264 0.006901068801460947 0.0011399211170967664 -0.002457329157118639
887 -0.00260269991926449 -0.003809715669447446 -0.01814786901360471
217 0.002101851308371913 -0.0025098853858142476 0.005232264666275025
1162 0.004375954882079935 -0.0038955880031093268 0.010774809286288834
1163 -0.010352472850759617 0.003517907101474258 -0.0016107653088279694
1164 0.006399779902519896 -0.009729311060000807 0.001973697544684392
1174 -0.006286521633433784 -0.0002969621960511996 -0.004134803781216395
1175 0.0057584449294373315 -0.01218018249152711 -0.01457354870392511
1176 -0.0038099551068276824 -0.0021919314144603404 0.0004122611675456548
1605 0.0005453331551273223 0.004188104223456372 7.127480678670417e-05
1390 -0.003354984245169685 0.0075020441556154505 0.0038872625133049466
1096 -0.006646612024741287 -0.006884016939002405 0.023732979649108855
969 0.005617139358714409 0.005768183004514454 0.0013265554680541732
968 -0.01771465484187378 0.006031091032946756 0.01767414540412849
1807 -0.005630262515471207 -0.01267678841259834 -0.01154386808227044
1425 0.004600175499186534 -0.0038598885670254675 -0.0018764179626067968
1841 0.008915714289354172 0.012969103657646263 0.011188430125321953
1612 -0.003170695687045964 -0.011531150712340645 -0.015544119341451482
1216 -0.010746489829035658 -0.011905447065088986 -0.005088586402771394
1217 0.007808874468864646 0.012489057570954667 -0.02153889526010586
1218 0.0020356016846572343 0.005401018296579241 -0.0026497432300530703
1133 -0.0007623107176851147 -0.02114974182099691 -0.009014599721357621
1220 0.004564428665238518 -0.01903041393892162 -0.005952541629859737
1221 0.0009244976194473747 -0.0042988822622737595 0.00228898938204337
219 0.008877638618607438 0.0034539326258680014 -0.005870027584582902
1006 0.01755940865205001 -0.0018873830199885439 -0.016390049439173666
1459 -0.0009508855040202486 -0.014198248280229708 -0.023028198965296287
1813 -0.011917132876700163 0.0122057627787829 -0.006124641396105764
1762 -0.012357399768347663 -0.006283503457852022 -0.03316992251945824
1098 0.0009836864260049367 -0.006610208688307902 -0.010592546769462747
1252 0.007984304089786046 -0.0006951525229932276 -0.017962773838546317
1253 -0.004739321397519898 0.004794409571714965 -0.01708329777394536
1254 -0.0023282949890438645 0.0006628211947126397 0.0032598590568257016
1306 -0.006391800414115238 -0.0163619334291665 0.0059190080844105635
1307 0.001884382992812742 -0.007009207515930753 -0.003261869047043345
1308 -0.00045803059030439093 0.0019063659815652053 -0.004657945217264471
1309 -0.02190428250069396 -0.021100658560295565 -0.0031077159171508714
1310 -2.3984190720138476e-05 -0.010453965813537509 -0.0158419596847524
1311 -0.0016426002143944897 0.0058144184494359485 -0.0057499722469921315
1312 -0.0032776737606052277 0.006836871831484804 -0.012157294637223825
1313 -0.0025995140245225683 0.0030684787291005555 0.016112892201529005
1314 -0.0016213743299696836 -0.0032117685592490766 -0.0058336016639122384
1327 -0.021532826628681178 0.006844343851796747 0.008980438400654779
1328 -0.020521811297531143 -0.017539179462705532 0.02277327185811576
1329 -8.73979654489098e-05 -0.0008390850701887052 0.0004915990097662916
1339 -0.002470986318420987 -0.03147756966952095 0.00419884101022909
1340 -0.009446752321919105 0.009656371880346478 0.013064263022607976
1341 -0.0063806828164399915 -0.0017419352621315018 -0.0007536739785088326
1360 -0.005524845227695016 0.006053267969052991 -0.0003916713938896262
1361 0.010563678858027021 -0.000342381261829897 0.01924057239193383
1362 -0.002449270658855904 0.0043453521878405975 0.003724470374885528
1366 0.018544569385982135 -0.002860010081811943 -0.004656538147924213
1367 -0.020290887585739235 -0.0022797435614793212 0.0029212833661940384
1368 -0.004501808024040741 0.0034868765936672424 0.002115719608264505
1402 -0.017640021514429016 0.0004990281818170987 0.03347642626069524
1403 0.0013831745264735657 0.0054324357992904726 -0.020888888054931415
1404 0.0009973630420848135 0.001453178184092767 0.005385260353701265
1405 0.00513336564992548 -0.01026092959455217 0.020128676885580947
1406 0.03981617296635101 -0.005797974235904132 -0.03072391671058181
1407 0.009302624950582617 0.005608123052370632 0.003554413487324021
1408 -0.005473011175340642 0.0004665471069328988 0.009718614555088082
1409 0.00810229251561603 -0.008279464512421132 -0.021646160299836462
1410 0.008022040227577892 -0.004023835803005826 -0.008050688589668538
1132 0.014433157586234717 0.028634400851704846 0.0071689148457097646
950 -0.020437527400625908 -0.003234681026923965 -0.025486798526658486
1809 -0.002752805588094711 -0.006989969843792938 -0.006350049538752022
1450 0.0020167429116544305 -0.004278116676988602 0.007157780669065331
1451 -0.02295099932469764 0.0077309055828902115 0.006674200369581737
1452 -0.0009235865598786617 -0.0017605509201327248 -0.004834654478856827
1465 -0.003242355349969213 -0.022670836191142966 0.01107573997277558
1466 -0.006537764851256121 0.00790153755345838 0.0038765015589063024
1467 -8.542300418018594e-05 -0.0056791801405467815 -0.003688976088423281
1471 -0.0014764220551434924 0.008149248111816054 0.0013588727732991533
1472 0.0013531557052241826 -0.0008143409563496518 -0.02266815557935776
1473 0.001914569292951438 -0.006238171965051192 0.0033441633533317205
1602 -0.0006661700199424045 0.004306655561717652 0.0032447609267039594
1475 -0.0023865255249195818 -0.0010286852609754946 -0.012352383061378869
1476 -0.002679580411174447 -0.0016059128136435 0.0044572274404965076
1498 -0.003789558909245512 -0.0028422243698847435 -0.020427349741567385
1499 -0.005747833395694292 0.010203855162157221 0.016812433005010553
1500 -0.0008027034524433127 0.0026157444027038197 0.0012350829007099589
1507 -0.004985824966813683 -0.01010224927956845 0.015411381966373486
1508 -0.033951470751521155 -0.028248500920065502 -0.019298800789230346
1509 0.0014392057614558361 0.0004755103453813339 0.0013117827546433973
1513 0.0014170425727340831 0.012052214032122349 -0.004887867245214766
1514 0.006164453141434998 -0.004776329615779166 -0.004302436704519231
1515 -0.00031388895546468286 0.0026837956816118365 0.005989871809937402
1516 0.006865394433935123 -0.005700107917462529 0.0021502048687303955
1517 -0.003803180774533219 0.002975797885437383 0.0010542084682727533
1518 0.004576573831440706 -0.0026444021101876772 0.006110634941655926
1534 0.01615752337266712 0.010196232859711558 0.0034703893952717202
1535 -0.005223229779508917 -0.01374707632330416 -0.025312582107051444
1536 0.005268455016075461 0.004495313655961185 -0.004545001206902214
1540 0.016448590941087794 -0.005534359905738814 -0.0007113876317198296
1541 0.0036146806649032573 0.011711968139466412 0.0020702357262908895
1542 -0.0006380966545171937 0.00036542444535551293 -0.0011770575799113264
1701 -3.993150208377829e-05 -0.006223456952497658 -0.00214968172408368
1071 -0.009133873539612312 -0.007066379924949509 0.002886649157714756
378 -0.02456471314225205 0.00024351679323387243 -0.01777952620967148
1245 0.008949192843047224 0.002517786682531226 -0.0024671884995781123
1219 -0.008943845011236472 0.022256360082453647 -0.02048462420414216
1095 0.0012588793911177108 -0.006624031956379293 -0.0031472971280981765
1552 0.018787047668571026 -0.006202270788809112 0.02644554282181772
1553 -0.00757714486030099 0.0028205770557212816 -0.007280606812239116
1554 0.004434173241230207 -0.00026282144666806646 0.008764803805157633
1555 0.0024873590298401175 -0.024572632857738353 0.010743280255986759
1556 0.015770925457160127 0.02808387104483131 -0.017572795281466463
1557 -9.178203207854838e-05 -0.00021115457823642819 -0.003416731757272444
1413 -0.002508719538948595 -0.0008104261316411012 0.006715524896486512
1243 0.0025406798058559207 0.0035102630243608133 -0.0019766214225112396
1739 0.012661135348526259 0.005985011479170425 0.02631165703458113
1585 -0.016508856735146318 -0.0012885164636049246 -0.013011126667890192
1586 0.012003347140586563 -0.015019754205938195 0.01673188734416263
1587 0.0018057421683461675 0.002113787903318027 -0.008050056371524094
785 0.007827746308921421 -0.010428727127470148 -0.00327608196970411
298 0.006287697323419965 0.016957360834085985 -0.007817782380613683
1600 -0.00685799281059248 0.0052668886494445 0.005079549288011317
1606 0.02270529613130779 0.020945801718407233 -0.029180164155524116
1607 -0.01215527457008385 0.007468705991446052 0.015534238486341523
1608 0.0017513916980412417 -0.001552857091267011 -0.0033826807346172055
1609 -0.02614153522547937 0.010352161351465897 0.000957792644432309
1461 -0.0018300567984417039 -0.005428640371464848 -0.0023106368809122087
1611 -0.0008383847159828508 -0.00013188096103962255 0.007187305376472513
1724 -0.005706025776234536 -0.011237819158930728 0.013869126065250018
1613 0.005094937513618147 -0.015485928584900343 0.0022478706446196093
1614 0.0005273854601096621 -0.001296682391658741 -0.00140179371350809
1134 0.0013930578299920116 0.0030903002129802713 0.012458023619973717
842 0.005245690605571923 0.00961052572097186 0.0062900406839267444
1842 0.0016597561846779726 0.0037980160504491444 0.0064005412681890144
1648 0.006882939967120114 -0.019662645202630013 -0.006897628326561198
1649 -0.009386764913631093 -0.0063713919627072 0.0034433686205321136
1650 0.006833775173709139 -0.0012214290567376987 -0.0026007318527838607
1645 -0.010684423287304389 -0.0011969515274930984 0.010017846995605366
1604 0.005235266233994408 -0.011564446757251622 -0.0024178022722622003
1301 -0.009337246456747174 -0.006417523209190178 0.02400247862661271
1654 0.008108735511330279 0.0008669249456987724 0.009087028427279351
1655 -0.011681597924286781 -0.012567235238286964 -0.011962273818590214
1656 -0.0018313784856225225 0.0023112433473764455 -0.006568915971443944
1660 0.03120685990664096 -0.000785066499532796 -0.008770998024598702
1661 -0.007207603239571678 -0.0033651627077411752 0.017768570083310578
1662 -0.0004571759555066882 -0.005970658478373729 -0.0029374632426107787
1666 0.0060031629358475135 -0.00826961293098585 -0.0229712832321079
1667 0.002714796492350539 -0.007478516344656332 0.007178422978270106
1668 -0.0020065087844714333 0.00038656291710716817 -0.00532524679994827
1669 -0.007500619072506487 -0.002986358204489342 -0.026696484717458453
1670 -0.019090506104493588 0.011636711151440384 -0.009200122545955437
1671 -0.00490848790702971 0.006251725280894809 -0.003643963452330696
1672 0.0008577639480427823 0.000685845141492398 0.001838131265144473
1673 -0.010348175387519663 -0.010004280865392266 -0.005368222751918727
1674 -0.0014326613572981962 -0.002833537503921146 -0.0009433886215345349
1681 -0.011565093514682897 0.014984674350449447 -0.006564310391486551
1682 0.001908078360995133 -0.0078028499599636265 -0.00731244786593536
1683 -0.006399403415654851 0.002977308609955744 -0.005937495197699155
1708 -0.016127869935180866 -0.013265284564021587 -0.013817090678185217
1709 0.006482664178071182 -0.004416776453141747 0.024161502321256002
1710 0.004977626938361609 -0.002819446586129793 -0.001178542774955057
1714 0.021019939925306107 -0.018839806043228945 0.009023856355362217
1572 -0.002714319728044002 0.005979309801647583 0.003991062388421872
1716 -0.0036499727737080703 -0.0017317884581648005 -0.003063466054470977
1715 -0.008948068499729863 0.026401371331070567 0.0071200770479211755
379 -0.018494850982941773 0.0020123679766256195 0.019320467922678455
1610 0.006763212276117163 0.0028287012529332896 0.010188307774625168
1747 -0.00013358374307269295 0.009608900556978314 0.007575209032245079
1748 -0.005478066649022689 0.003367395393031949 -0.026037457096305002
1749 0.005850949476832264 0.0038575464900814163 -0.0018089687901480709
1391 0.007439125910477405 0.014371071905193745 -0.00978149239558179
1802 0.005376281615981495 -0.008711297228317254 -0.004834452032866025
1803 0.0013736478757753615 -0.006414148416744683 0.0006628367536601168
1810 0.01797691896901555 0.005964836784038803 0.019913361150169902
1811 0.006829371855854049 0.007101787758145848 0.010372794770002634
1812 -0.0004850274631300716 -0.001945165495816072 0.008649977564019504
1764 0.00045028123410867095 -0.004227744987495448 -0.0034237360844774235
1814 -0.014729903516720233 0.0019525049285251891 0.014499974673010138
1815 -0.003643040199540608 0.008047341767562392 -0.005346629157065252
1816 0.01765481433237417 -0.010572728807317019 0.008052343149488737
1817 -0.0018287314530213857 -0.012069003897519031 0.009564205297065698
1818 0.006315902825275192 0.002411223002051938 -0.0004237568949265601
1634 0.010840652352794152 0.013457770285239447 0.01761395190366787
1594 0.0363730976878533 0.005732532559418606 0.021662831255489068
1801 0.01927259251221531 0.014115311645962912 -0.020367266520134934
1837 0.02752952266740174 0.0012552476799205683 0.003941844649634708
1838 -0.00122813025701689 -0.009637950644614663 0.002924711996133025
1839 -0.003469707329855624 -0.003391265220504056 0.003935574737718905
815 0.005060916123424718 -0.0073739939039956055 0.004987317182527523
904 -0.0007669137653051588 -0.006488633752977118 0.013697968984424984
943 0.010305519404390083 -0.009271239103332319 0.008393880764673699
1852 -0.0003370855966107916 0.004562187919907695 0.021371305695204852
1853 -0.015170095496078258 -0.007629230538071293 -0.01771788732022789
1854 0.005020265423283083 0.005716607023191764 0.0015309722850625975
1036 0.010800726936174398 0.0047573788837328105 -0.0019750934434369987
1727 0.009929108190966882 -0.011115250546988665 0.015314424153435757
1575 0.001693418118615165 -0.0038822874348183444 -0.00012822166631955908
1876 -0.014580964672123583 -0.0010630642673346506 -0.0020500752817246342
1877 0.003920922495208877 0.001149024033733002 -0.002802237534739408
1878 -0.0003686224156117638 -6.058414967367761e-05 -0.007193828171574643
1879 0.005497449599535759 -0.03218668199379405 0.013525766432936756
1880 -0.003822323436217259 -0.007944910690419029 0.0057325375808489325
1881 -0.0014343849248567716 -0.001135438830117701 0.0010208341999230239
1894 0.01964244992115614 0.010812750474748134 0.018755467060366744
1895 -0.0038731930110473866 -0.013818839996648267 0.0006554051193665405
1896 5.18246318640605e-06 -0.003578909087440711 -0.0038875281797500928
1897 -0.0071971775850632495 -0.0050287126415977535 -0.016776069266142595
1898 0.014107064555032432 -0.00838197585707964 0.017200149384396356
1899 0.0002499009058874088 -0.0031876592807728713 0.004068176304727087
1912 -0.007273665569388353 0.01461827993378718 -0.003981409799657906
1913 -0.007138782386176897 -2.173505553732799e-05 0.00635391758636288
1914 -0.005033907437793662 -0.002324731800839287 -0.0016331219081604676
1857 -0.0033629936069956585 -0.002563138476654976 0.003052368982435178
1919 0.023516309498482973 -0.005418319776688548 0.0162870100945481
1920 0.0016388501875706308 0.00465585426891019 -0.003677106399488495
1921 0.017036094776243682 0.008237422353335522 0.003637947100813292
1922 0.006407450086363927 -0.003040674549450446 -0.0244522297545868
1923 -0.002596747904704767 -6.715664105636597e-05 0.0003506186709191236
1623 -0.008044212838337107 0.0017300246378398549 -0.008799493437296312
1097 -0.01584678947615715 0.006705279647351947 -0.023299619362751454
698 -0.0006904081389354682 0.0017328893141767394 -0.01017312296981683
1942 -0.0139017207007265 -0.009172482029802942 -0.0034497373078638035
1943 -0.0024618270780528994 -0.007222526384450495 -0.011648757345233603
1944 -0.00457343777382131 -0.004127642421313499 0.00019082566694143328
772 -0.012824272406855916 0.0072772144853837295 -0.012186470754893933
1543 0.004131858941245895 -0.01786889137424454 0.012661528225201195
1740 -0.0012102610303619055 -0.00597352638783927 0.00014203728060711818
1492 0.00855335356486031 -0.007429922217973693 -0.0069367151458993095
1412 -0.010212694348293827 -0.008370744448437642 -0.02747678756348902
1494 0.0056032768964615134 0.001883639657917846 0.0021538391507329863
834 0.004529039455798262 -8.393650181355659e-05 0.0029103252085767115
1324 0.005461742700277357 0.027841553013145497 -0.01286859658095371
1326 -0.008776241879482321 -0.009694874609278759 0.0038562039030426674
1070 0.012833126085585128 -0.014686423871635755 -0.006477132802798443
905 -0.004046243017970226 0.013823410769254472 -0.015100673187001305
838 0.017070776926363912 -0.00872273997954854 0.03145836302187173
1903 -0.017579798150554833 0.005479746166465689 0.0013820204398849202
1493 0.009965997122365795 0.001054161708711918 0.00012279157004839813
1530 0.003978128286074908 0.0038958916232108252 0.005600724962068315
1624 -0.007040324702257392 0.013301779941276671 -0.015275754134642997
1905 0.000710878900293615 -0.0010323918227814401 0.0015777249991151781
539 0.013240935447668143 0.00865388375529912 -0.021189202364963796
1626 -0.0005426083551675537 0.00609881259635411 -0.008452181734338078
1482 -0.0019097260500633587 -0.001430609043540575 0.0079158425348083
538 0.006401631428245717 -0.01133441074285376 -0.018318993319379584
1267 -0.009982494399342207 0.010609711367416886 0.030100012323051446
833 -0.005863483219532838 -0.00046714241814320196 0.0001103056386646865
1635 -0.004986872863995002 0.002143971091009463 -0.0042796025237291984
1478 -0.017051123202209542 -0.02302987123759534 0.0029679682490866815
1596 -0.009067956175841416 0.0029164698345706453 -0.00665080403608413
839 -0.007868032509795692 0.028849034505668773 0.011011433933727896
1030 -0.01208384522009238 0.024437773739582693 0.002992180224248911
1625 -0.006705900033154171 -0.008047110674246656 -0.000952658481942965
1595 -0.011154405784672387 0.027629913514772918 -0.01667647979136262
1031 0.002789312785744101 -0.0012658733047658927 0.010692881491050653
1325 0.003234775090897534 0.0012838891294491522 0.0027778965049947407
1032 0.0011842707331474907 -0.004014120389348438 0.0029149219396617295
1646 -0.01090449909315325 -0.012687369797240269 0.005615268219991006
58 -0.012604703004482956 0.013211890052283582 -0.014789070765023244
138 0.02521622023080518 0.011335641283624048 0.021515332751888647
1105 0.004948066106220923 0.006433945088961779 0.006037477645456182
808 0.00458255301316361 0.00460712118756209 0.02492156341496467
840 -0.005748209113020853 0.0062911551025899475 0.006423083093676845
1728 -0.0037043971898798648 -0.0004722426494342864 -0.004771670475383853
1477 0.012232526918140273 0.01734034822819109 -0.04292765281902923
1529 -0.0003061858752316969 0.007823638724794989 0.01116235234188466
1790 0.01647910498611196 -0.00482173800883366 0.0035965928801040084
1480 -0.012724958034546725 0.014581148729041036 -0.0027622956657866854
458 -0.017461160058781598 -0.02389209111276493 0.012281425611699441
809 0.014899988242503152 -0.012149552961713146 -0.016076778213269173
773 -0.008942833925589902 0.01154768994001264 0.012492274091811037
1808 -0.005709397310001905 -0.019076128892732153 -0.003546350052791241
774 -0.00011182979897424491 0.0040949052133424785 0.0037569374415427088
802 0.007898577103721792 0.009845357860656134 -0.029572569456798307
1161 0.006609379167412782 -0.0006997523205205922 0.0017621531586110289
1840 0.0060235204827971504 0.0033952304866082528 -0.009896953134468043
1268 0.010378303689066533 0.0007194500471180769 -0.003485598114705339
377 -0.00797505383635741 -0.001494726021102859 0.007193472548416062
218 0.02094051129491272 0.007104780693599281 -0.017179904965735647
1789 0.026020047865418994 -0.003805617372242639 -0.013196879125028661
1335 -0.007269548683126099 -0.002287929902320734 0.005332560397461962
457 -0.0007499572938376714 0.0023794433037520996 0.00233047787185285
1736 0.013264285893112229 -0.008192895680460199 -0.0007296212454451992
906 -0.0012328200331250406 -0.0013135674463195456 0.0027582999534208957
1479 -0.004423757613003244 -0.001615006519977602 -5.001036454547578e-05
951 -0.000981354671827315 -0.0006021550898387112 0.007521997233021938
1107 0.0003377541437353155 0.0024638501681691796 0.0032298017906760334
810 -0.0029813620203590564 0.006170413219346699 0.005545544818083917
1633 -0.0022856783969677115 -0.010555718464923546 -0.0247864960602541
1647 0.0012359330825078149 0.002857607964507166 0.006675651919561393
1528 0.012949927062735145 -0.03699949405742236 0.007083250537932446
1106 -0.003262726433490416 0.022206423923637773 0.0012443451914508725
1069 0.020731425243170957 0.0037439314461416265 0.01715236089776168
1700 -0.014031577325738129 -0.00046589071252186806 0.003923890881807563
1855 0.005391518534416122 -0.019772299308900645 0.02009251776270492
1763 0.02178807475254795 0.0015622919333105245 -0.011202105484139557
816 0.003625901219793433 -0.0005057951219931483 -0.006742380619503689
1038 -0.003373028015716379 0.004424213529523531 -0.00440084260348087
1151 -0.00013295660886413862 -0.001653004516470092 -2.219712449405782e-05
1037 0.004552005662323907 0.00014175347958813355 -0.011752696734748
1411 -0.015711427304734658 0.008723376173808459 0.0070398982039516
1152 0.005011555010749 0.0031007708875712752 -0.003019975339554502
1265 0.00667730698742151 0.0021850857611060556 -0.015431833431166445
933 -0.004519588722916434 0.000783704376936038 -0.0025520290424282097
1738 0.02745684270847986 -0.0009700476914690128 0.028395745428628393
1392 -0.0023105351161877103 0.007283260675642261 -0.002851639376090136
1578 0.00045251878586261614 0.0006865454518650269 -0.003977082971076921
1856 -0.024791225709498904 0.023237103725183523 -0.0164673781142917
1300 -0.017063176707112573 -0.018081350573279267 0.00037549333795966803
1737 -0.0005570712326082401 0.003106379649490727 -0.004299463249353125
1269 -0.005875036035748835 -0.003456595172768169 0.002163111786472451
1266 0.004404911356735874 -0.008265370944234487 -0.003979354564576929
1333 -0.015085417908287022 -0.006685162124012571 -0.01897577784100695
1099 0.004076022223546638 -0.009425373192564177 -7.075774143820577e-05
1834 0.015676023200924802 -0.012499778355687016 0.007749207819270503
1621 -0.004460662512105062 -0.016009748922469796 -0.007635732239415651
1570 -0.01303522491829064 0.024076455018217483 0.0054916937057778005
1334 -0.04507506565288379 -0.030021510076165166 -0.006116638330279259
949 -0.013302482522003367 0.013151977879254147 -0.0018038916830459431
1622 -0.006710874068027315 -0.005740985489907589 0.011557516722144875
843 -0.0006763381568219697 -0.006269498899152624 -0.000922440174919633
1603 -0.00493497258391753 0.003723440545183955 0.0031850641606066465
1169 -0.0006577964980997455 -0.012272726992213752 -0.011448667774983642
971 0.005195526798123531 -0.01692073814460923 0.03394195206700989
1192 0.00468702621851353 -0.014384543385868845 -0.01847665491208868
1348 -0.003405388629074028 0.002537338019658547 0.010101710521980306
1601 0.0020535151193802454 -0.01506618870995945 -0.013941591381972995
970 -0.0009909981959323447 -0.017269089479465448 0.0034695868648031577
1003 0.020579427459781422 -0.005256038878843258 0.02355391930770815
725 0.008388476635814894 -0.02868112460239785 -0.011341816356405967
763 0.006369201169755652 0.017053769824528532 0.013809527111630963
764 -0.0010954253737391463 -0.021299393477838376 0.009118825778093973
765 0.001147622683568653 -0.00042510498768514395 -0.0018514083435582508
766 -0.006038434747617563 0.005891281550130766 0.0036402564183917086
767 -0.004955111308943474 0.005550254213227632 -0.00303992749718798
768 -0.0005184210238589947 0.00040422075915086847 -0.00017160346588313423
1568 -0.030057137669653615 3.608434106944451e-05 -0.004358124498532487
1258 -0.010494114589749788 -0.013195715440726312 0.0021294078075654727
1305 -0.004758299548628692 -0.0008172012333680325 0.006809618712032914
1488 -0.0031441789453383255 -0.005473496689086617 -0.0006498489809540244
1052 -0.053543297094212766 -0.01196892079447953 0.007687213096181002
1460 0.0033032124137743948 -0.007445525015816578 0.004220346541764039
1772 -0.0006118456628335994 0.012700472213302427 0.009316884938696725
776 -0.004466479105443027 -0.017936558621641317 -0.015177240043522777
777 0.0023062450303669704 0.002097623567321812 -0.0040172184124124075
778 -0.0057028799907790795 -0.012779221934935778 -0.00838991234215005
927 -0.00809828921317644 -0.00327134689976962 0.0019330222762858548
1143 -0.0006264475077398682 0.0028531841867718167 0.0031688898062391968
1048 -0.0048897730855100695 0.004572068331354976 -0.0010456978383861257
911 -0.015606178870670468 -0.007623660796062559 -0.0027173886571400453
1363 -0.012285761813868212 -0.004232130284016116 0.0019632825567161404
790 0.009209513029843597 0.014478979304975305 0.02067199425655384
791 0.005871940716881933 -0.0077321028575605645 -0.018582794137292656
792 -0.004100285763010387 0.0003186703128598259 -0.0039033153249926384
793 0.015763456064000307 0.0021175950748166766 -0.023889195063173812
794 0.0015917343234695426 -0.01907354887154887 0.0006277904252349351
795 -0.0032982496830200234 -0.0016576885507740369 0.0031062640813823016
992 0.017619521265328817 -0.0049915142948064655 -0.038184205382943814
1049 -0.008875814842726539 0.016254355822233644 -0.0076590404807294395
1679 0.046577054127373986 -0.0014529434181490412 -0.00217946906402751
1184 0.010056233110108719 0.014596513216887246 0.0002008465926598794
1142 -0.012704896064217838 -0.022948705281006173 -0.002674318081571336
1956 0.001122176713690083 -0.002315117857824804 0.003934400313529832
975 -0.00541302799100243 -0.0081454420606503 -0.009070885009531288
868 0.02625385442705494 -0.0012465763461395089 0.035593333213564504
1784 0.00917917292847162 0.014300620780601955 -0.01876035978584608
823 -0.013518169794305986 -0.023370115272138035 0.002846964875818571
824 -0.01787243933689769 -0.008068933958714717 0.025100213700865428
825 -0.007001038147162857 -0.000660315201505122 -0.003946234537084333
1746 -0.003391920801324844 0.00305755111732065 -0.003175159585979303
890 -0.0009983640589246265 -0.008566290856237687 -0.008197503004178038
786 0.004851652018570183 0.002827839249404427 0.0013806300154790034
1846 0.019752786124611545 0.01709831609055799 -0.009896635285299092
1765 0.0006810475106110022 0.008598986299480964 0.008297139824336193
1779 -0.004342198142472686 0.0013505217365523826 -0.004302943512368713
1868 -0.008529752462229055 -0.012956566582930066 -0.008753330386656896
1619 0.0005415770336994462 0.002921611574455593 -0.0013119427120774772
1872 -0.005199769248219592 0.004459670284208725 0.005054098051409175
844 -0.003706363484481993 -0.014963899537297872 0.018691009270059726
845 -0.011186366511965522 0.012555591209888672 -0.0026473921226810694
846 0.004728078321361727 -0.00498998716464137 -0.0010052461153733183
856 -0.0024136112100264385 0.0037339340880517694 -0.009899356862285175
857 0.01683054601974241 -0.003403560959240368 -0.031160508874198092
858 -0.0032308080008067886 -0.0006677345036269696 -0.0023602914236815465
859 -0.03415748922415702 -0.016459829488063335 0.022321746509529186
860 -0.010662154707315963 0.018312431969404495 0.0029200673099957454
861 0.0027911700207595637 0.0046465305066705044 0.008018197228154333
871 0.0008884733032604314 0.0030866000826737586 0.008280855343921614
872 0.006389270044764936 0.004744348281380625 -0.005948350233046186
873 0.002901306716655546 -0.005858561744379719 0.0007640062561387909
1185 -0.0021177497174216927 0.0013249490505202605 -0.0008630810538527659
1050 -0.002436368613286639 -0.00015050636317049366 0.006920546123856435
848 -0.02372284081224827 0.015704769649446112 0.021457431377059247
895 -0.010691123972366844 0.009392614176004092 -0.01506466393323806
896 -0.01906146416275984 -0.02407252402372893 0.018271026733939072
1141 -0.008376294564807995 -0.004201271243817307 -0.011825369425157613
1211 -0.023094583452770413 0.03320883375071696 0.013058759425755925
1443 0.0016735480403910112 0.005435169542648493 0.0028667230787554603
1079 0.017777262138673647 0.018772291566705703 0.00609336848668825
1424 0.011440927729286423 0.005433495520979893 0.012228865927224478
1819 0.020694236076039874 0.004013666254691915 -5.77720938816921e-06
1864 -0.0034011712117517135 -0.0025114374706903743 -0.008855366209816813
910 -0.012926724877733515 0.020092039246850876 0.004916689034105645
991 0.00034172117913616734 0.025676209140314713 0.009357973361352252
1836 0.0006740039261714691 -0.0053888815333817015 0.00861635483097109
1416 0.0029525524439300197 -0.0008222705327673608 -0.0002913059728797311
1170 0.007360226149776491 -0.0053105442433439305 0.0031982168541067686
1483 -0.018598058711897444 0.021065561502435153 -0.00033460889966139217
1933 -0.002760559524659964 0.0030853815630692747 -0.0031050914783276443
1550 0.0017068181257342665 -0.0006977404646694456 0.004907131924654793
1643 -0.020894831194651093 0.002366614451538586 0.004716882148687018
1823 -0.01673116870861164 0.014266961437276604 -0.015609458044840516
1238 0.00680375577104621 0.0056592001844118075 0.002446392644926682
1491 -0.0010867222796386794 0.003038579013757485 0.005581252492784513
928 0.0202541282712941 0.008328291572006244 0.008636352745207411
929 -0.01815342540151954 -0.011258229174502365 -0.009193811185464501
930 5.8880107997866115e-05 -0.0015659203377361966 0.004589437723927705
937 0.0077601660719997115 -0.010633353589884055 0.011379633232594307
938 0.001273031701416766 0.010953820035200717 -0.011848900741080052
939 0.0040400878471744455 0.0014968039635018394 -0.005662693440739749
1783 0.015627807817107764 0.008261543398793345 -0.003907325020126904
1231 0.007621880664482854 -0.02239647683263607 0.004486645015645108
1067 -0.004085382358543293 0.026250039238331524 0.017193478358865137
1785 0.005329268043606896 0.006794570202877636 0.0019300788922101161
1414 -0.03253068748413867 0.00881220984408387 0.00993039420963523
1760 0.010296508641352098 -0.013264319158745652 0.018075037418422903
1521 -0.007224814144283452 0.007567307382270656 0.002900562650132351
889 -0.0025767874971274096 -0.00018505920665341642 -0.006149466265132385
1271 -0.0058362552636040356 0.02058745518437984 -0.00899605214091833
1632 -0.002037632525856926 -0.000666369456764264 -0.0019277734243324924
1229 0.01942572906275703 0.0030310717613996354 -0.003120005584768667
1867 0.015352420851728752 -0.0005567639878941058 -0.028585879836289522
964 0.005607092220718122 -0.006970821307587987 -0.017705911241292664
965 0.006521865080353328 -0.0068005575310662765 0.0032045672057193315
966 -0.000635580207677083 0.0020017028942300704 0.003004193833342489
1304 0.0005575685152817808 0.01615467388819414 -0.0011725660722281847
973 0.015716617861588015 -0.007008274958202609 -0.015403834488376846
1080 -0.004397674395222449 0.008689374739209346 -0.0009901256309124945
1787 0.0018605042073135706 0.0024428819745420413 0.0018744119998993787
1441 0.0033286880625555413 0.007618317798340991 -0.0023747657905130223
993 -0.002304523853993961 0.0033055368067620304 0.0030299883180322468
1940 -0.022284356250135348 0.03374350806070096 -0.015843584009960682
1280 0.010805527972182087 -0.036705665647928105 0.006924513183051931
1745 0.00452388749609508 0.007573614579239451 -0.012481658229944442
988 0.0038537042995594284 0.005372612461444814 -0.001754424172086091
989 -0.009452503643281266 0.027299579578226086 0.026479038647856692
990 0.003963423518734257 0.0017450747193712562 4.905378004469215e-05
1066 -0.013486517693519384 -0.022045359739926662 0.007257204713346142
967 0.013081111399507534 -0.028837446840439013 0.002893634623249795
1111 -0.005769530349371078 0.013963236456028764 -0.0025836938262109367
994 -0.016596884689246635 0.0019288819220807567 -0.010769572266088627
995 -0.007623245134652235 0.0037562854352024976 0.00159429877457322
996 -0.0007674519998008684 -0.0036153783889746292 0.001988049952739262
1009 0.007274542349226477 0.0049164080466411915 -0.014675368597393686
1584 0.005826948346778329 0.00553714793088146 0.0017718920145205828
1011 0.0034837799783776226 0.003268153822346101 0.0012526778683053135
1773 0.00031887243162575114 -0.007494885612321396 0.0015991356331658774
1469 -0.0038904642935890187 0.017503524957071612 0.004975499853807066
1935 0.00038888663672178865 -0.004584042627518664 -0.0013354075098172687
1902 0.0017693610883911955 -0.0034632012186858827 0.00011194258004851355
1239 0.003131806090143568 -0.005828449618677597 0.0017533724621685103
784 0.006803226557492321 0.013018858603094263 -0.0035040572365852406
1033 0.011355150469788446 -0.006758795782415751 0.006315984816862794
1034 0.019817162853753876 -0.006248052856897801 0.009588731507875673
1035 -0.0011296652269157203 -0.0017506473331547613 -0.003031905052792522
1954 -0.010633507216947249 0.01605487789883576 -0.010263710031751895
1743 -0.007234939215357235 0.002734075703140891 0.004601238834088968
1464 -0.00010197337232605334 -0.002331706836474666 0.002240423680723838
1734 -0.002145680118941572 -0.00218946131007502 -0.0008640419650243952
1415 0.0075973083752007 0.0084469963248318 0.0039113457871694495
1659 0.001546306737638292 0.002033895198665967 0.008411672170373951
771 0.005321142418548994 0.0010324044491118844 0.002954524769282021
1303 0.0196211713351298 0.005400425014276312 0.0018133978092749895
1869 -0.0044364317738186665 0.0005904846854260346 0.0010465300700665163
1057 -0.004580722578243452 0.0010312600236818282 -0.013029069630025923
1058 -0.02814448195137382 0.0001340514747194624 -0.004727159031327215
1059 0.005098584075105583 -0.004305242468903399 -0.008021229968006643
1782 -0.0035291463431865963 -0.003701674891422902 0.0019463311703967793
1636 0.0023983828143972308 0.011443585215278853 -0.015183544317320002
1778 -0.009536838019990893 -0.0035677389720642186 0.015405344463810162
1591 0.0023254351892754406 0.010099461003199308 -0.0065295867159919935
847 0.020578635751510702 0.010526520733400466 -0.012611364354130811
1010 -0.01727841640986531 0.012224289479066413 0.01687606338600189
1687 -0.002677504847939672 0.013435702680776514 0.01146111802818207
1735 0.00661866460484467 0.006161696404635665 -0.012207650683510549
1168 -0.015858395759268066 -0.00575413828299229 -0.017321135976156154
1075 -0.013711743089827531 0.01684456983020597 -0.004259866523178535
1076 0.013777728123974533 0.004531720782957864 -0.0006237671979488716
1077 0.004249472581421029 -0.007613829505151932 -0.00024510399207065885
1081 0.004867945712348539 -0.01538453671989772 -0.005371688407207029
1082 -0.008064245282716768 -0.012531720801104299 0.010044146631521233
1083 0.0011026210344851405 -0.0035993702759752424 0.006284804682537204
1664 -0.019973302357201975 -0.009362880620093253 -0.0011609831497839385
1102 -0.010091929855404698 0.014802472222845036 -0.0023946781306055788
1866 -0.004781812025424636 0.005375047004071793 0.002061860338078555
1771 -0.012027839311558552 -0.01550597172505891 -0.02014558329326984
1865 -0.007119494751281817 0.013171395771167951 0.005211375299618028
1232 0.016078870219676654 -0.011558160740544138 0.012323578590318284
1349 0.002000204989845004 0.022406439225226542 -0.01041816927410962
1103 0.015088404062912264 -0.013477553898722587 -0.012436853062837799
1104 -0.0034304647021879938 0.0016361452557067744 -0.0031068996006232714
1887 -0.0019227577189934169 -0.0006855269291415806 0.0020488185009924905
1759 -0.023085392627013108 -0.023911005672017267 0.0152046824537173
1108 -0.006597692638832641 -0.030005519846379322 -0.00022958600929065892
1212 -4.6930188602009145e-05 -0.0007205382626563573 0.000502248850273288
926 0.006376592909569563 -7.339446716767763e-05 0.006878102862417905
1484 -0.007127008571548782 0.008155929224926299 0.0026779656490383045
897 -0.0004897937940062829 -0.0011146632731115012 0.003144024695920013
1946 -0.0061826530144033 -0.007742679934436677 -0.00886757200131609
1678 0.01267234169704567 0.0013906256703630408 -0.015218941949143444
1114 0.0040379206372795125 -0.0015673332820695344 0.018117475408064743
1115 0.00042089781820537443 0.03438129225792955 -0.015907848766045823
1116 0.004620346321228071 0.000928864094725506 0.004961241992427286
1117 0.007081739425392834 0.02016118511722168 -0.0068625563967569915
1485 -0.003315239290860228 -4.002101301619991e-05 -0.0012279172841393542
1119 0.0009527137041770756 0.0034966794971210227 0.01057291175892299
1901 0.003973549512309675 0.008221625396751867 0.030193858708744314
1658 0.0020444002904896003 0.011918839264244382 -0.009622298416170995
1644 -0.0011110787691748375 0.0038120836807218773 0.00399009617152076
1939 0.00035287563776185564 -0.0041974237988670485 -0.009659076319224857
1156 -0.020350981345329634 0.012137235334009252 0.007300579405179667
1891 0.01175621592967395 -0.019975952561173727 -0.019866476189465864
1138 0.004786879297699389 -0.004092678186487696 -0.0052753243179959
1139 0.016254603122289622 0.0011324459740793614 -0.003695251857839243
1140 0.002047710705912022 0.0022617054071264768 -0.00850699121623139
1442 0.008686253888791127 0.024021469656529418 0.007219544346366254
1753 -0.012081367309008403 -0.00959134931609008 0.0011428654932595674
974 -0.039176239079921814 0.010472880775276458 0.010113361332576575
1144 -0.012597376468053 -0.009163819698932317 -0.006371518131401164
1145 -0.009567254629813038 -0.020016278172592755 0.006323223163453841
1146 -0.0010116212608964198 0.0020841034255717782 0.004668508327324637
1316 -0.003747728453509565 -0.010039086602613854 0.0052922701532636535
1732 0.008579091113822275 -0.0014743315611563236 -0.011313616058019603
849 0.003952408441483614 -0.0009290420985793203 0.0005167950139467726
1733 -0.005055673666575919 0.006823672508112532 0.002963122542443311
1157 0.016084054636258126 0.010188162140448277 -0.02698412155869749
1158 0.0033432680410453866 0.007613787974113744 -0.001460713779399598
1165 -0.0022989563431270745 0.008217757824544529 0.010367465905957714
1166 0.01020365299403462 0.019267349193042096 -0.03260246164834903
1167 0.0025500886716973547 -0.0016566468217250048 -0.004062075511752852
1172 -0.007512129142571573 -0.00833344735537249 -0.000885480845365721
1072 -0.008131869572180742 0.0028427143681019366 -0.005553577182817231
1068 -0.00046123327081628587 -0.00029296308121737346 -0.003284980058843016
1820 0.025378266502983395 0.0191560473114178 0.016501123032278114
1358 0.008300783521679607 0.010549650450211409 -0.006548683611813194
1618 0.009112191779538486 -0.011271191636846895 -0.019384651541485335
1690 -0.00028666000031835244 -0.0020368545101766573 0.00851469673912581
1263 0.0009878300416711664 -0.00041282025444780646 0.005618838849413612
1282 -0.0029268681685142737 -0.03112961293612159 -0.02475555275868593
1210 0.014569888090844023 0.008726438292534564 0.02176645909128478
1770 -0.0009153943634695043 -0.008598086024393789 -0.0027715481709036597
1886 0.0043350747689634 -0.009227080405389243 -0.0017937253744426819
1706 0.010401290209989162 0.0005490197319574723 0.011692295937171113
1947 -0.0042520419977343715 -0.0003885878269343579 0.00046632219341728037
1272 0.0010664253109907477 0.0007368004970613877 -0.004222019214965079
1228 0.011890957876271225 -0.0015992618749167593 -0.018170385342889103
1490 0.010044603437176634 0.005618402905785322 0.009440481220323255
1230 0.000529863139182896 -0.005512941476919948 -0.0001326008973780032
1241 0.014210954557943098 -0.005224180147406991 0.019743820052301988
1470 -0.00029342229380926375 0.001978262250863174 0.006009933424715809
1707 -0.003768396627492677 -0.006640368731477925 -0.0016667221320947586
1246 0.011434419432123425 -0.033276870829847094 -0.013040809883566814
1247 -0.012614241848698787 -0.03857542994374758 -0.0009274424070668818
1248 0.007849641718154174 0.0005131959403422098 0.0026909489270610953
1249 -0.02626654709307026 -0.039646448434844744 0.020763443681637565
1250 0.005533844737762821 0.011073765261610892 0.016025847480504483
1251 -0.0014352157112112773 0.0033352344168326156 -8.329660312599667e-05
1642 -0.02952686757332052 0.010194319374545704 0.0172928710995964
1468 -0.014084767064255346 -0.0024366724379728624 0.0036336817899411105
1657 -0.0006333454354287303 -0.021920574238695503 0.006170834856224265
1616 -0.013655512077634954 8.599104609438894e-05 0.0032829534655961683
779 0.0006426633299169633 0.020506528513509658 -0.0023809675639118386
1113 0.0018992722034253384 0.004418477955144641 -0.003607526829261064
1761 0.0021930167500689916 -0.0027930132621015145 -0.0039176031774577165
1110 0.002973260182288003 -0.0030422014593096754 0.0010480827451912979
1281 0.005609119869549904 0.0038779951266319002 -0.003226261307434959
812 -0.0016497441949677764 0.005824958182191261 -0.009805499860945085
1680 0.0001591606128914071 -0.00434351409239985 -0.0073295615054933295
1520 0.0073816098239586495 0.004423032670247873 0.011211173044771573
1273 0.014417550177576255 0.014360106409459256 -0.007691716459553593
1274 -0.01312663453392146 -0.01463796271349007 0.005480917360121764
1275 -0.004268068436677798 0.0028712653503394792 -0.003195786133443688
1276 0.005176814549458645 -0.024430843472207534 -0.014204374803817003
1277 0.010793367697681543 -0.0006535722503923618 -0.020825281421396183
1278 -0.009537899023604093 -8.374070518810242e-05 -0.004495076592368986
1620 -0.006830343441274497 0.002622362079926525 0.0029177481772336912
972 0.0014489214879937194 -0.003126858060702482 0.007594309781103917
1742 0.010710475464805308 0.013507010353062933 0.011034437631970397
1285 -0.03371190048266997 0.012551309499995153 -0.004535668187196472
1286 -0.010357110600361192 0.015254114630616556 -0.010572708894102924
1287 -0.0007432748710688849 0.0019988238737113305 -0.0015660661839742033
1297 0.009885367444702262 0.003769929605010078 -0.0011580457156016091
1298 0.032800160890225305 0.002329915454920285 0.00017494883143103802
1299 0.0026560921518392518 -0.007871162368960303 0.001180525831567634
1885 0.018300808964289723 -0.007375176952782631 0.022368919857345793
1638 -0.002012760966834086 0.0010645272659529678 -0.005028461897283665
1270 -0.014491542186447303 0.021496315676855175 -0.021985199108238266
1848 0.004437547859250526 0.009817845218728565 -0.00029718356358145756
1261 -0.022147936957822276 -0.0088386542504138 -0.003636184068527141
942 -0.0026359224441229808 0.0026381864927305138 -0.005203802067980348
1315 0.0027833481227480705 0.006022864420598439 0.001038363151034675
1259 0.006108421561272183 0.025871305557916134 0.0033988555920322536
1317 0.0016151019647041086 -0.001895245535174444 7.629207817710919e-05
1318 1.2215097107874978e-05 0.009393269950552147 -0.006691000013161546
1319 -0.026162620030834638 -0.027173046692246423 0.01001044386998983
1320 0.002978648085370324 -0.008626132521854828 -0.0009338441423283874
1651 0.010562654210377208 -0.005919912128401083 -0.004937784706847925
1769 0.018133061183927976 -0.014185095609380008 0.012974604713965355
1665 -0.004732586390780337 0.00636951981648748 -2.8676180065619965e-05
1330 -0.012425082443695126 0.002704254148402304 0.04638894501681132
1331 0.014636558500426196 -0.003201419217209362 -0.0022240807972619576
1332 0.001260988581228087 -0.002274589464383511 0.00035143444658052904
1631 0.003084339767280312 0.009315809455070581 -0.003954733940783887
1233 -0.002969499790076783 0.0019233744127560865 0.0029569348777260013
1767 -0.0027169026211405056 -0.0046612898658230754 -0.0016506907382443077
1345 -0.010759428058724799 0.0049148004535634025 0.007420570301698556
1346 -0.011312119572315003 0.0067733918423164554 0.020588860965121105
1347 -0.0014527210762739864 -0.002364505920164453 0.005201848130469406
1893 -0.005610114621071681 -0.004065050311735079 0.00308782640913395
1822 0.009623301266462323 -0.013011151957049523 -0.03293485673404688
1350 -0.010724180496191326 0.009192963066705397 -0.0017561409500913329
1351 -0.001807014690278873 -0.015324273820707222 0.002353987751902891
1352 0.023041646000926345 -0.00895852196507257 -0.024445543120909335
1353 0.0016113413084322815 -0.0017605070832529964 0.0020736902756536032
1354 0.02088021120949863 0.0010832051584124852 -0.0018666083680831226
1355 -0.004343957910223671 0.024721771234783047 -0.022367419820635576
1356 0.0026049127124231066 -0.0013188787070068562 -0.004255792199365387
1357 -0.01399278056259668 -0.004799703198497993 -0.022317466176875467
1284 0.0008597191537214711 -0.004754526648195418 0.005153723742908877
1359 0.0024955607848062772 -0.004326795745654008 0.004786943946506474
1242 0.005582804086616074 -0.005760611107423027 0.00269040732543225
1768 -0.0061088687761148 -0.01408561191097884 -0.014262657529256269
1200 -0.004899165425688896 -0.0013733513053553685 0.0012328432572890234
1630 -0.014810129159803448 -0.019296117022677448 0.003470909113087925
1955 0.023323720646077295 -0.011710393776686688 0.0006291620309543758
775 0.013583970125922782 0.0013422432129459251 0.007824897035717595
1387 0.011576748641599837 -0.0001319206421074493 -0.003822049466915796
1388 0.038903292169520355 -0.010153532580792683 0.006597851491241338
1389 -0.003401392522231318 -0.00030669507489394446 0.0012408218715648056
1689 -0.0014187646110978543 0.0039686673301805335 0.002051887684317764
769 0.035762991673261066 -1.563064058385644e-05 -0.015342957853564796
1754 -0.020141569782901377 -0.015389317037757824 0.005034982339492245
1393 0.03144339859162432 -0.013358933403788959 -0.04660071996192652
1394 0.006178039326760341 -0.004595865682703555 0.008588943636904997
1395 0.00948225685816742 -0.0031595284637874984 0.0025578029473323372
1705 -0.0002749085516009228 0.02232660942172911 -0.015187729157816446
1653 0.004154801480570628 0.0007599700303695723 0.002463463123175945
1112 -0.018119126021871282 0.02234738572858259 0.010786724972698145
1755 -0.0038372118190084124 0.004674359474754428 0.0035153995345248005
1777 0.015925525305538393 -0.005951937351775922 -0.009744342546689419
1744 -0.00476825433835766 -0.0050138516915422164 0.006244928197729275
1447 0.0025086982407200678 -0.014777109326532093 0.042388654414921546
1448 0.009242869119096565 -0.010473120961262343 -0.0007555474650816598
1449 0.003663103286391428 -0.0010791959735066334 0.00902894397543733
1453 0.00835920239514209 0.0005789697746116726 -0.014312909288480596
1454 -0.004881278612358115 0.00251741641099351 -0.0016794041579677886
1455 -0.002878235264203095 0.0022861990253136956 -0.0023582840475654975
1741 0.023118224042887936 -0.01594167457657224 -0.01772658497155267
1486 0.010458362319722938 -0.030324337733834514 0.005903821024050107
1262 -0.01051737069038953 0.00265753870652011 -0.014937632482473288
1462 -0.0059880558488711625 0.032071208746367784 0.00192116997612545
1549 -0.01540548841049841 -0.000651036856647651 -0.028053876456046793
1551 -0.00442750830101382 0.0016996034783789494 0.0014811818351339284
1766 0.004653537257472108 -0.012827587875964809 -0.0058881172419018996
1109 0.0033392469583611363 0.028653422258770336 -0.009611011418484847
1213 -0.008320642759504993 0.003876572254783699 -0.007459018523287814
1592 -0.005805996074018727 0.0026880910854901264 0.026186477542276564
1214 0.0035571353012219856 0.010639615730665694 0.0030675190069996477
1199 0.011093458636342068 0.002447930363222162 0.002643031921790972
1900 0.0011403138281041048 0.021750617012112432 -0.00860011932161233
1487 0.013476991178674836 0.023622368652308084 -0.004302824513001639
869 -0.008130817380358545 -0.016464195822568164 -0.0026440494602941954
1240 -0.00032827276192957255 -0.0075459081830700795 0.000993546370625155
1519 0.014370772880985391 0.019658358080605547 0.005759049115103752
1051 0.008421002117647073 0.0020876518748189155 0.008016645454161819
1917 0.0001352296204574657 0.00014776567290325862 -0.006642078948927447
1916 -0.0016010303131587921 0.012549814719443938 0.009773842808844932
1915 0.029316606564294162 -0.01996702319656625 -0.041208646527653325
1637 -0.0008953162628592378 0.009534126110289686 0.012239599419398771
1617 -1.455513607124565e-05 -0.004784563176201391 0.0007515441237910745
1279 0.016994062503434867 -0.019165120431956954 0.013917444692703458
1615 0.014636523922238945 0.00640626158489849 -0.00631892800458766
1781 -0.008210187053658958 -0.006359272034411705 -0.022404618471406672
1780 -0.010508528756349797 -0.005950545241200767 0.009216309276928661
1531 -0.002804089721956104 -0.0022935683271175064 -0.0002560898884639782
1532 0.00812361085598646 0.011208971946683128 -0.01970676519527474
1533 0.0017079643485681435 0.006638033850296193 -0.003764043373667514
1546 0.010099227134032787 0.0007601331972311905 -0.013068500475567508
1547 0.027291734684828917 -0.00813712322887212 -0.01142084170485891
1548 -0.00020659739031036477 -0.0016897143907274488 -0.002636986326793645
1558 -0.0028421654387276105 -0.0012979781654777662 -0.01700853626618203
1559 0.018601263974961372 -0.011867838970341446 -0.023465095295358056
1560 -7.733237954545242e-05 0.0010606359780962959 -0.0048719118300695665
1937 0.003091614648464382 0.015866150411474156 0.004681251047280122
1489 0.007570617682191543 0.0005803243753047464 -0.005526197529192798
1563 0.011790390048903603 0.0014403357742030463 0.0011927170173531756
770 0.01385438184559704 -0.003258517544630783 -0.004078878567770687
1260 0.007180146734288246 -0.0005674591469045911 0.006200753494215153
1565 -0.0010818008628786042 -0.005048658414158187 -0.000728459194380144
1567 0.002339621041118472 0.026659547497079616 0.009501144133529765
1198 0.016322052016442202 0.023638967978250162 -0.002693464342494498
1569 0.0003363894259439496 -0.0032020921051505156 -0.0020851913941100707
1566 -0.005776474557965467 0.00301318140404666 -0.0005572611523769115
1074 -6.381737276121448e-05 -0.00853625914639763 -0.0043437862527391765
1180 0.0038569214564665335 0.0004127949505089391 0.033505127734979774
1593 0.002556390996502013 -0.002602970293760953 0.004345708871757627
1934 -0.023088545910865857 -0.041656792961304756 0.027469313136510413
1824 -0.005235932673998235 -0.007018523127991794 -0.005004273096544328
1579 -0.03117311147682183 0.0038671658699304 0.0008304343372829941
1580 0.0001334747093375268 0.002686784583094464 -0.007020574437930582
1581 0.003010089232973817 -0.001512747059061667 -0.005802145213590471
1582 0.009305251828774015 -0.009841595379397817 -0.01287647476292308
1583 0.004775239398175571 -0.021727677108025426 -0.025235730709283626
1237 -0.016593774597307452 -0.01655433813702927 -0.014576859950244494
1945 -0.014001496387850398 -0.020687906849008675 -0.026809461669490296
941 -0.003438571305706398 0.005948548819000069 -0.013907625269934729
940 -0.0014300653654187802 0.02856265597955274 -0.017183987977488723
1118 -0.0075311615945427395 0.005759661158904203 -0.004295021258092176
1564 0.03097270006023016 0.0014351910328453395 0.026417000443383302
1936 -0.005699250797792953 0.02461984540447318 -0.01617219525325288
1183 -0.0034626561228805475 0.028928295907305418 0.023286472166857985
780 0.0015491604190044615 0.00046116251916401667 0.005487167145636964
1561 -0.01639612111797664 -0.019241572997131143 -0.016218758234474048
1788 0.0022621325334470496 0.010706658315011268 0.0008733363326736312
1078 -0.0016938524530127489 0.015001788310921745 -0.018676515447496607
1871 0.02684702614503412 0.017081015163845685 -0.002844623109284502
1870 -0.0522449244079365 -0.02299792279996727 0.017940235946285046
1663 -0.005010454844217497 0.0034075392601149272 0.024600124473395813
1938 0.0009719329608796432 -0.004034279693927775 -4.553232821438366e-05
870 0.0034660622857963196 -0.008499812800404577 0.0035065566399546744
1053 0.0026040288713388648 -0.004433592150219359 -0.0025988711514958554
1821 0.005844966774866073 -9.781399651562565e-05 -0.010897914441603556
1562 0.015503242784983906 -0.019937303403042124 0.006594830804552873
925 -0.010437193794495888 0.014819840062270042 -0.009128436314888298
891 -0.0044956028743226 -0.0024060644307036068 -0.00020967694906892827
1652 0.0046986555043197955 -0.019754934937387815 0.021029411450336728
1215 0.003894958559961748 0.000965406071925201 -8.359437826536604e-07
912 -0.003624679033046985 -0.0014218613626489852 -0.008563458325599373
1688 0.0029065633233414483 0.0040333385679156685 -0.011529982816755952
811 -0.011238598062786187 0.005115904326984231 0.009061109032775905
1835 0.01212503587487448 -0.0025943279905861175 0.04426952174799723
841 -0.031546594520273 0.022207071467799235 -0.015442036720790668
1073 -0.009335074604496752 -0.019266485036699612 0.015916573848229337
813 0.004120532950307968 0.0007293353949877615 0.0045440330617592395
1433 -0.003573582671309526 -0.009014377630374023 -0.005252453362957092
1941 0.006797155538416788 0.000920740454861808 -0.005659882843264046
1799 -0.005656007372424453 0.007814034105624307 0.0008105243070501304
1571 -0.00615754043636114 0.011964396306411752 0.024520689996488255
1423 0.0077051918530284605 0.013256728085776763 -0.0059732664845069255
757 -0.021212737910797686 -0.004222490100179445 0.008285507229971359
758 -0.015299236278772766 0.00535642150992868 0.01967323405131922
759 -0.0033763801797569454 0.006368537815692292 -0.0050816280386169355
1226 -0.01531870458284188 0.0064532920091591285 -0.010733608856375193
782 -0.0031828126436891486 -0.0046193199630025356 -0.0015584795044267072
1677 -0.004081904508480813 -0.0007050040470100203 -0.002427912069513543
535 0.008687424574588412 -0.009263132515912426 -0.0020155821047021156
788 0.013060579767052853 0.020518272214824405 -0.012656214485435231
536 0.029717487976474135 0.023843152538784225 0.03431961125738464
805 0.017315769931786813 -0.0168332695513879 -0.007296387800884654
806 0.002684141917642378 0.023006203502827376 0.006410555999635404
807 0.0025454591048471686 0.0016069400571673978 -5.5922966424931066e-05
822 -0.005942166843833632 -0.0020102635140553447 0.00031169673948371415
1364 0.005041669820404985 0.0010341646691863953 0.001987063145224607
660 0.0009050930841462283 0.005775030615918938 -0.001806875186221665
961 0.02512833678142091 -0.004788069688904074 0.010725325085250531
278 0.0004819025084757077 0.005238092208859406 0.0003910189027241487
1786 -0.021987686125355725 0.003832949891637931 -0.014748237054573428
1370 0.007584173762920014 0.03675433151950446 0.00044959134347369057
851 0.0019376071622851584 0.005537677846840373 0.004250891495025266
852 0.003662699950055559 0.00350429621432421 0.00015361163525306644
853 -0.008095920238163497 0.004790648479856773 -0.0020975711055660046
854 -0.013616204690119428 0.02892437330678229 -0.012273748231267742
855 0.000913181555935931 -0.0017916411769641916 0.004270242049289171
518 0.003751197060166454 -0.0006078215601351718 0.0016224163681992422
1800 -0.005015415172043323 -1.5327474015400374e-05 0.003969567838297413
1776 -0.001632122268446633 0.007802815564514084 0.0026320259074203572
874 0.027634136016770082 0.003625495543085506 -0.0034250536622009707
875 -0.017999864607594902 0.015050479127167109 0.03927623413542922
876 -0.0009517435779699499 0.004445038565018164 0.007910814110753946
830 -0.003689022907212862 0.004477534859082056 0.01569195369848217
898 -0.0009377979554477963 0.0061674404113175735 -0.020098947021987664
1205 -0.013045498939144699 -0.014918421725207149 0.01740697769328933
892 -0.005027300160463261 0.025269014286295764 0.009929405287834283
893 0.01034888193201936 -0.016158523028395246 0.010603998004691171
894 -0.0034519646621081297 -0.00020035190617381652 0.0016508600749193508
916 0.02533890017748732 -0.021334063728720935 0.005662719029842777
917 -0.02363008477148394 0.004358532946950858 -0.013251505230983262
918 -0.0024377007985447556 0.0011266779868235742 0.002025461126671692
934 0.023136213387117497 -0.009411805957578302 0.009448242484846959
935 0.006146481211545777 -0.0028081896904439377 0.031690707402382126
936 0.007079113621759292 -0.004897169765325017 -0.005926379957710347
955 0.013315109967869231 0.008457719891205046 0.01909359456998242
956 0.014627138331042292 0.003073095824708057 0.019665397476526406
957 -0.0014464762936434736 0.006591688804742288 0.0010140953457493222
958 0.019918910690896904 -0.002617786791762611 -0.0113894166391042
959 0.009722402091270085 0.0026262748025009546 0.0019328855219781533
960 0.005245184047988999 0.0027749236617270545 0.0011040047590901905
979 -0.0031588574743507455 -0.015694361772972027 0.027212179795047163
614 0.0015542330479559093 0.0023487387642267283 -0.003847441444626235
1283 0.02955462774689973 0.025632750557316376 -0.0065194051208682016
985 0.007110438359066418 -0.015534403715377083 -0.002489766006514706
986 0.009469982767165996 0.0005996416987639471 0.02394921034152022
987 -0.0015344581149920977 -0.0017895705229047383 0.0021246396965258606
1859 0.0035103526206026027 -0.016812918037447448 0.0033410366503038216
1860 -0.011568528849280318 -0.002550921155784815 -0.006596396171922056
1014 0.0014905926359678142 -0.0008984766520709699 0.004390917987573988
1015 0.001786148990284497 0.004321548303057501 0.014623114720152647
1016 0.02904047484452389 0.024628308714566578 -0.009993289032831478
1017 -0.005330777124631411 -0.0001062888377190753 -0.007683703850767594
1021 -0.0017819190453969521 -0.002097381068365842 0.03990448271493424
1022 0.006905717302611542 -0.0012382684787404657 -0.010009983431642529
1023 0.0007725573462689097 -0.004246482007992495 -0.00010976670482567988
1024 0.00912407958878538 -0.013496535059690586 -0.007955443888431748
1025 -0.038152673307070964 0.010257381963982895 -0.010599360634544468
1026 0.003928208970211742 0.0003675683051418713 0.0037328675841627927
1039 0.003891609347076314 0.0015338841991262002 0.004805527305844776
1040 -0.013462693451221938 -0.0011614745968225135 -0.011527733375003601
1041 -0.0005649662211512823 -0.000995283872471128 -0.004550910747937024
1042 0.011739239942393662 0.005243739392748394 -0.004182680266245254
1043 0.0006905095442060262 -0.00662836168351932 -0.004918162470074387
1044 -0.0014960830131121074 0.003338632467005415 0.004816971336340855
1060 0.0022935000768749838 -0.0016904360946862413 0.023638706528072054
1061 -0.01599199967152109 -0.004163691751027145 -0.008206041145395774
1062 -0.007276423609348977 0.0011116295391955233 0.002390279074930024
1676 -0.009923455570086797 0.0010581745470035196 0.006536444626808251
1829 -0.004433003805144492 -0.0030595806757635156 -0.0001305724133197383
1063 0.016364680102408984 0.01558402472343207 0.02665329923408936
1684 -0.009930940119452112 0.011081131641766216 0.013526205901933704
754 0.004640723524304442 -0.02122466171289942 -0.008811453354384963
756 -0.008616246988931882 0.008068642320019935 0.01236631765784114
1434 0.002810102699123333 0.0040898829094869246 0.0025976045997221963
797 -0.011802163873110732 0.006960419442333837 0.003428422526104592
1086 0.0007637031598773102 -0.0004904538056698694 0.003432593425041696
1129 0.01691373493034904 -0.029759099448221932 0.0216047413455104
1130 -0.0009815533829278572 -0.01160818538668676 -0.010295349655590666
1131 0.00991042912806992 -0.00015481449305199176 -0.0018520559573173528
1147 -0.011568156157903936 -0.011731520842133216 0.000264626055187121
1148 -0.0066771865707221075 -0.004644597596634651 0.0007240948545782261
1149 -0.00040570940686470157 -0.007187690313767563 0.007390464194547069
1153 -0.0028083804694708837 0.003241883152274686 0.00172063895029808
1686 0.0021836646511728414 0.005777164052071847 0.005932142506004831
1155 -0.0008944953275846282 0.002988651937607353 0.003142700450712936
1177 0.0010354010611313886 0.006960789230984351 -0.005343817484516063
1178 0.00874295480418648 0.009475278433496784 -0.0005808318412046553
1179 -0.001359048680157472 0.0014660360256879064 0.0012417140135993557
1186 0.005496567197376654 -0.025345600346590898 0.026034013216983815
1187 -0.011172899142145204 -0.012466293479892167 0.0023277661414579905
1188 0.002356894393558895 0.0069974828507531495 0.0007297983193244583
1189 -0.0007943747292531147 -0.005358977195720086 0.025418490464724254
1190 -0.006050044064548698 -0.0034339596820831134 -0.010787181452267751
1191 0.0048400162563438055 -0.002471938987810678 -0.0015812471692497742
1195 0.02271323904121113 -0.006141226603805066 0.006433375981447202
1196 0.0237413533176565 0.022026759609643242 0.008569591057328584
1197 -0.0028259614733464554 0.005777305291795271 0.003264850866744111
1201 -0.009093061529200433 0.00953883598922707 -0.03324312157193874
1202 0.016797290527199964 0.014860745235871697 -0.023123128753301202
1203 0.0011501489530800716 0.0015287357658059248 -0.0027065381431925655
883 -0.015935571056233597 -0.0007838116806416801 -0.0004408314149733791
1181 -0.004359488978884559 -0.015207528525191772 -0.008256414829363061
1804 0.004144087194974958 0.016588108122419492 0.0020015416212976803
1207 -0.02182597351364927 -0.012769652781927857 0.02756690870541636
1208 -0.006184631797175962 0.011248340657523595 -0.00906760925790456
1209 -0.0005815273880522499 -0.001225688959154753 0.0027085330543900653
1222 0.006838913038577767 0.026004478391033498 0.017321656234223316
1223 -0.002098736364121926 -0.00790550968393654 0.029576211721964958
1224 0.0005738166917497336 0.003939079232355361 0.002282484797800561
1225 -0.022535359206814067 0.014835583658517068 0.016850168882695648
1589 0.0013609320044367403 0.021037151385526014 0.025463062571893038
1227 0.0026527082491719493 -0.000417789063962252 0.004989668389641827
821 -0.03951701826445444 0.004778207884613338 -0.009029309715315691
1889 0.005736203864700898 0.012354729029103293 -0.00925076211484783
952 0.0039469367074661576 -0.03218650747002227 -0.01323489589677079
1234 0.003634001034653611 0.0020660699837670438 -0.003235212325265697
1235 0.005676702624296937 0.0012318695843090708 -0.02441402108399015
1236 0.0056369868195079555 0.0024547733303053876 -0.00033382888936319896
56 0.021055999500265075 1.619541758449534e-05 0.01122788163363205
1256 0.003129479694307078 -0.012412796255037701 -0.02116351531928029
1257 -0.0009172538002734038 -0.003366791876047751 -0.0018437523098370477
1173 0.004116653565804883 0.0047401177854060565 -0.0031154237327160883
919 0.004548023111387003 -0.012332189833538485 -0.004577696151374718
1373 -0.025089281209815645 -0.003979312288991814 0.0047197677845457935
1399 0.010160080342666649 -0.0010015180174053186 0.0028675670125531826
180 -0.004974519042727495 -0.0018801567058804153 0.00023105472738009213
1890 0.0025404732854373137 -0.0022629278919751106 -0.0042919998436483095
1171 0.027159311880200196 0.016973839493625124 -0.014572358371807969
1289 0.0003336658315983251 0.001983648667486008 0.01295332118905017
1290 -0.005952322561924204 0.0012141771256104085 -0.001810890960141707
1291 0.009267458965929678 -0.003348602096645097 -0.002953785987732183
1292 0.001218825495710144 0.02710358038236954 0.025447595463728
1293 -0.0032786369647812017 0.0036182131176625346 0.006920384845787316
1294 -0.00240613442918849 0.01393122573013093 0.0020177209218660507
1295 0.00955901896005282 -0.005701406317060257 0.009966952158130577
1296 0.0022057507103513097 -0.004435503426080997 -0.007541992667236801
1321 0.014060149806376368 0.029861406112141838 -0.005422956174001472
1322 0.009250647929836616 0.018336570044729484 -0.011040447414849636
1323 0.0012433326917642249 0.006333728193647366 -0.004648233072235794
1336 -0.0016182032047316163 -0.03327395917521016 -0.001430382468520213
1337 -0.006652835832187208 -0.013348154529795117 -0.004807696074641435
1338 -0.006269297691692462 0.002518742122542387 0.009574800446450015
1342 -0.00822155176250685 -0.010420563992797999 -0.024180583814974916
1343 -0.040940630991383974 -0.017298203640725235 0.00801720782666046
1344 -0.0028807249197087613 0.002200617145592745 -0.004032580993520753
295 0.017254420037501973 0.0034317523622432082 0.009825926458339901
1456 0.010896679079680357 -0.014145422201120514 -0.0037581321623896716
954 -0.001708028920700119 0.0024678332464921644 -0.004999920772318877
500 0.0039550031312819145 0.0023954262935035214 -0.0030120516554462988
1925 -0.01668770876342192 -0.005745950048317153 0.021834995623227577
1711 0.006938699170029142 0.03152819081099879 0.013006369402655968
1375 0.019950849043596435 -0.014854336734004306 -0.006350538834830349
1376 0.004230863339301364 -0.005148560430415251 -0.001028419892211356
1377 0.000696441891747485 -0.004284313500755741 0.007623773354922096
1378 0.009906248359639698 0.018676829020862176 0.0007292582090672937
1379 0.012503905465405618 -0.04929357455391862 0.024840630566619542
1380 0.0025133698580646975 -0.008543210971106266 0.0027476931578404064
1381 0.0017308174282058839 0.007138685427029826 -0.002647493910737215
1382 -0.006018452868573494 0.00650498777031432 -0.0043082641205327175
1383 -0.00504540487879983 -0.0026497894570867517 0.002016766395945783
1396 0.009525927028737446 -0.011956926821987141 -0.02097972825357391
1397 -0.03181108710717264 0.004911899627384009 0.024916480689862765
1398 -0.005191863707501537 0.0005107791106474817 0.002009682982374227
340 0.0022983317969680443 0.005258004479045001 0.0013102482288479614
921 -0.003212038290653364 -0.001761079315586673 0.0009183552813977564
1371 -0.0015163110309079247 0.006072997169163306 0.0015880187661746956
1873 -0.00343708661790625 0.020028145362827845 0.027097113326039732
885 -0.008873675042420289 0.004815163522898867 0.0009475343240851477
1843 -0.005360058734351116 -0.020375769186335425 -0.020418721153652637
1288 -0.02148251164204517 0.043328199194992985 0.0013188850445017136
1756 0.01563429104887338 0.02920303286550193 0.0014365749656675287
1422 0.0012457971630138967 -0.005317108901141455 -0.003409968492986321
1426 0.0047462258405161495 -0.006670731746177964 -0.008384842751411957
1427 0.019279217497584912 4.0033411599481983e-05 -0.0003435364975764029
1428 0.0017252738669198272 -0.0038361774850971574 0.002084630067098131
1429 0.013118623775092104 0.006940734088308966 -0.008236812546823877
1430 0.015184463041412978 0.0025080161097849945 -0.004146083287642285
1431 0.006365934293333514 -0.0035706437372436334 -0.005633200265884532
1432 0.002678677775652972 -0.0023822484086465554 -0.010313537269244638
796 -0.0045807558641125755 -0.017646844901058365 -0.009853136331234143
1125 -0.000977866160476509 0.002349514827165277 -0.013089626327600242
1435 0.004274835705849986 -0.012233633346489747 0.0105996744726808
1436 -0.007984944761756723 0.004999844432845288 0.003424122710163117
1437 -0.0057398345836443525 0.008670228764379586 0.002673623702048692
820 -0.0105211583729787 -0.011714013662595599 0.0192280638475363
1439 -0.029094544982484358 -0.03012269123629048 -0.019683019338460388
1440 -0.009876038927025621 -0.004098251954166277 -0.005725275749368048
1123 -0.017112358421945854 0.009078326305268104 -0.023025864479671743
1457 0.0006754772830148722 0.0062884201386292846 0.0008927771095269221
1084 -0.020861186697217315 -0.003983125660247622 0.007161213110944975
1444 0.01341240688464952 -0.015008769385736354 0.02150466068748967
1445 -0.028189288765114603 0.014790831139989706 0.0028712454050976825
1446 -0.006819877700189352 4.986943292276922e-05 -0.005453808641778571
1420 -0.005436437763356728 0.0017959046193443784 0.010823850166247958
1091 0.005274194954252708 0.008283622530932495 -0.00531452347727713
1524 0.0019977147165238 0.0005579017325193568 -0.003920929030478482
1590 -0.002122287759643943 0.004489823950490651 0.002254683998959362
1386 -0.002988677006743725 -0.004696226418931174 0.002106126625497623
953 -0.0007056941725197515 0.0008927907446651943 -0.004476354106151284
1020 -0.003038204931523069 0.0042602201555579575 0.008525888713711393
962 0.010953702550206878 -0.001804560267132186 -0.011983311573717596
1796 0.013043716515158652 -0.0008635687227695971 -0.037781317231218484
1495 0.03088718306027831 0.0069202430414956745 0.006852266390566498
1496 0.016008982397166766 0.0010364386875684592 0.011539107691374595
1497 0.0052890421627395 -0.0015640705125135484 0.00124814420526663
1501 0.005360566264775262 0.0008894047622682801 -0.01583235241970059
1502 0.008441279442356134 -0.010228379602985595 -0.011404898739500817
1503 -0.006667681696449847 0.0005236472491669907 -0.0044384569616992805
1504 -0.015702479712973047 0.017973921716394045 0.017732849588754904
1505 0.015107438473082423 0.022946881478770952 0.0041766711662861835
1506 -0.004279783140762216 0.0007399487850742971 -0.00705399986132373
1510 -0.014204697778728497 -0.015093036786632173 0.0020938047572692654
1511 0.0013615221993839148 0.0019338329440769784 -0.02339427555648457
1512 0.0019459227240797568 -0.006478081319615191 -0.0018267429506932278
850 0.016613414889806215 0.011264858830997029 0.00029818172238524907
1085 0.020954860799024345 -0.011463929978598282 0.0015540286571148892
899 0.035273425711601185 0.001100970261016141 -0.0029830466607490276
534 -0.0010679045941520133 -0.0032508738915328086 0.0013314407538561948
214 0.00370514785239877 -0.00839646183604386 0.0022992055632853887
1525 -0.009844159194177048 0.019882581269010546 -0.017923634051261052
1537 0.010225675205296632 0.015021826504886138 0.023515831497368477
1538 0.01959184772977383 0.02457118553601761 0.00047659575694398195
1539 0.003371783382775129 0.0009725899474420822 -0.0011459149871892345
1795 -0.007327797445879708 -0.011833861626693105 0.0049940638072026615
678 -0.0029519808821424644 0.009258379809562473 0.002290714141578547
1417 -0.010696878183734953 -0.0029521909965494865 -0.02244214644915921
1182 -0.0036891623203526985 -0.00951377636541693 -0.004914859217548797
798 -0.005988553310516012 -8.339994408851372e-06 0.0071552884167596165
1374 0.004831941146735495 -0.007918480622581728 0.005387296508091313
1204 -0.006329895039731658 0.01238894708216169 -0.011735435727864153
1064 -0.02882750683731369 0.0027075952858190383 0.017976408338513362
1685 0.0050768631822643105 -0.008508742388771322 -0.008491009600949494
1639 -0.028765567618226944 -0.0374043722140342 -0.014690817096457488
1640 -0.00856328027709203 -0.013552692295995187 0.005944137540808415
1641 -0.0043167226381559615 0.0012796748414148024 -0.001274698914810183
742 -0.011559102533264804 -0.0013851270954894034 0.015033536163632833
1845 -0.00609742970319159 0.004840327742710209 -0.0035377678077991317
751 0.023868474769155282 0.008764090571634735 -0.017308632762480194
1693 0.010738256644410563 0.01708065412648842 -0.0031200715379490016
1018 0.011101837267693516 -0.009105587327812593 0.01533032825637204
1695 -0.0003954962010112514 -0.0009989568595482556 0.0038510604274605803
1696 0.014225077376830795 -0.007252711879605989 -0.005376510390997665
1697 0.0031747666748228585 0.005481265447347351 -0.005130196379359044
1698 0.005601820330433098 0.004798730567991065 -0.0005222254066153579
1702 -0.002227677120214414 -0.021153912742428782 -0.05193361256710811
1703 -0.03304738404226035 0.02075183336218723 -0.026319639218425117
1704 -0.0046205482283700975 -0.006957306247121131 0.0018143583683164763
615 -0.0006357753694408831 -0.020440669735148142 -0.0032055817913021925
1844 -0.02768152282048262 0.031298624420051116 0.004341397972304999
454 -0.0017770044602856137 -0.007219862644549191 -0.004782041544829036
1717 -0.001629568552993462 -0.0164527792478572 0.0029961758975472104
1718 0.011227384372134804 -0.002361395679913602 -0.005787202493936787
1719 0.0038439922551592367 -0.006680578253243219 0.0037273144808379743
1720 0.017326703154234402 -0.01052310385914307 -0.03597295741187547
1721 0.01673933917551689 0.02038716762874147 -0.04554201591261111
1722 0.0060158355280314196 -0.005271042602832242 -0.0010155612542276382
1729 -0.007927154367641276 0.0065079141318989935 0.005847445833245536
1730 0.00018262249083410897 0.026793270606147085 -0.01853596459629805
1731 -0.0039871976872982405 -0.00609430514547185 0.0030564970006627303
1750 0.026642850126925476 -0.010308875562837326 -0.007810713547014507
1751 -0.00046697488139710406 -0.003317505860703359 0.02085347035934344
1752 0.005862177315353657 0.008860495546877172 2.3286345087942373e-05
1458 -8.592889276335594e-05 0.0012205363177027384 -0.0016821753188970968
1757 0.010821367313994553 0.006188123010279582 -0.015917049866718835
1758 0.0011711681469895306 0.00020897406900314235 0.0006458757482821617
1691 0.011832646661824412 0.021198125000769938 -0.009917387330749783
1805 -0.01136277666071852 -0.005052807976975123 -0.029882325055509907
1806 -0.0022756568404064654 -0.004681696004664609 0.002948921091638989
1792 0.025329173791475177 -0.005286171552324931 -0.0036370349714625453
1793 0.0016843811403227174 -0.011003426332039427 -0.003105694157640407
1794 -0.0023577505810731614 -0.008610232879373833 0.0023843154853567887
375 0.0018458697860813048 0.006381844708094135 0.0172181611997595
1385 0.004167091031279041 0.0031194058821815726 -0.011701760084502038
1797 -0.0018333390167438622 -0.004913571073441459 -0.005664568337319327
1798 0.008344354704414622 0.014467399889475735 0.0016920475423498399
753 0.008467349169071135 0.0017076927305279585 -0.012346783530433367
696 -0.004408080198044648 -0.0014863161583012026 -0.020195651772895878
787 -0.019490196803809555 0.018690292649776195 -0.003703573812052012
980 0.007825583356126773 0.0208680563470813 0.030253289923816633
789 0.010325000938824786 0.003193834926379634 0.0005875209994329504
1825 -0.021931069015025815 -0.02270563963335402 0.012842168045685694
1826 -0.00789461038064006 0.012602745743283052 0.024290038817645156
1827 0.009681932696033362 0.0029835667198096555 -0.001523994473581772
1828 -0.0007391944874457184 0.010101257552236396 -0.008536825741567593
1124 0.028852460821831117 -0.003489412708986333 -0.011268388364331798
1419 -0.00020665946763396715 0.009856301624086614 0.001265310403768882
1831 -0.020388241243005797 0.01756735883606917 -0.0057584562318458935
1832 -0.006590233895829224 0.0051389046334289305 0.0013416209361952972
1833 0.0003875729983734181 0.0016997083721880283 0.0028682631735735212
829 -0.005278805379813167 -0.003207104745990924 -0.0027633578058339136
455 0.0037375381603141295 -0.0183875334174931 -0.004123266257382262
1523 0.0041453208660207205 -0.009685194616958832 0.0030711936308642986
1849 -0.004167080245089013 -0.015216349234019471 -0.004097870931547918
1850 -0.028383221431783973 0.018393399035080502 -0.003852765777761173
1851 -0.0016821487500503845 -0.0020443798665557584 0.0053256808430455745
1861 -0.006531156332669388 -0.016244101280565082 0.007672284972401436
1862 -0.02889734705892256 0.015475140082203553 0.009506526294792898
1863 -0.00026400652502496367 -0.004718806617049553 0.0006973487260668977
1924 0.0030493836615588616 -0.0019159178477034067 0.0033422529067495908
920 -0.014892109833538301 0.005573752311423963 0.00536887401781585
215 0.00011419377832877828 -0.01984703162543592 -0.044240042702016966
1882 0.00904844825808274 0.0048835656129743886 -0.009427437908768797
1883 0.01626632075929528 -0.01810557734019834 0.0016985488807068447
1884 -0.002207982954872902 0.0023501136874960167 -0.0003792290887356919
1906 0.018493224349639847 0.0011762269632850668 0.0014424436644285524
1907 0.017180010834997345 0.01712008866197194 -0.007749265571627453
1908 0.0048330316255228035 -0.007297410190521208 -0.0009246878913753199
1909 0.002524353273299939 0.007044460563902608 -0.007007766021468324
884 -0.0034230176521639678 0.008112802124622185 -0.0072455818112476195
1875 -0.0034978176774960513 -0.0015176786933673815 -0.002644318855283214
1372 -0.007343760228535312 0.017081564304991394 0.004103401113552216
1522 -0.007910972590312025 0.011495859898044521 0.02882511856689862
616 0.005140056087577176 0.02084056904440273 -0.0075353960425829656
1929 0.002595534813091453 -0.0004089589492397254 0.003876324781693102
900 -0.002317015142233289 -0.002978431146632145 -0.007412635265239791
1012 -0.029234528986968076 -0.040244037452789795 -0.004450152203603713
1930 -0.015977399135758453 0.022852532559622833 -0.024735283344896383
1931 -0.0003519028500843185 -0.020443313488748678 -0.028989823134653026
1932 0.0023874878090415696 -0.004300827424628374 0.006546734697175322
1948 0.014239715137416138 0.00925176069903827 -0.0002721596633343627
1949 0.008317550076654077 0.024029966044691924 -0.00555956187711851
1950 0.005637381208831763 0.007189325648100755 -0.000884662693335619
1951 0.0008475728087645427 -0.0027215501892182007 0.004646573389132366
1952 0.0052792723755353795 0.008557081680337267 -0.021634543929481366
1953 -0.0026173537304982728 -0.0005649413005603656 -0.002766228185051726
923 -0.029403966691898806 -0.025957295644916323 -0.00030945696174993983
744 0.015897212240785094 0.010076963312327816 -0.009262208839766653
831 0.0064112835934272755 -0.001346649843935958 -0.0016098499387555644
750 0.004089196661292079 -0.011926768463674195 0.002505049428676198
922 0.005921780115184722 -0.01713774173102322 -0.03000482427781709
296 -0.00030293592298294615 -0.007257330436858756 -0.014953520824457526
598 0.0015988795507879087 0.006227348245443548 0.0033094116337307722
1421 -0.007790263832582819 0.0321861763143133 -0.010123280935506183
55 -0.011822452660700124 -0.020097099567088196 0.03196272388133549
376 -0.006358926709603397 -0.009680526208011573 -0.013187084253411153
456 -0.03149680624164406 -0.02783985987696188 0.021152147852008127
1774 0.011264492191923667 0.008189392505251504 -0.005300122545479019
1928 -0.0030505347476152836 0.010715708957353768 -0.00046222649125244957
1154 0.01608489099134213 -0.0040245466315824785 -0.000416435520679997
1013 0.001341991409144333 -0.005717500574894004 0.015836019753803728
1255 -0.021475729412429825 -0.026325195139939736 -0.020966588632905726
358 -0.00045416053035526974 0.00040920065182830127 0.004109797738284898
1438 0.022625627125892386 -0.0014418991970944364 0.01614191495002931
739 -0.0045917902858190794 -0.00998184129190976 0.018013737323486226
1065 -0.003477634076157208 -0.0015205983027902746 -0.004658406660756554
1401 0.0047665769052151466 -0.0018279210873752756 -0.0017511494007090656
741 -0.03740934895665391 -0.016546637686897462 -0.01696829361902621
1927 0.009986034637891538 0.00905129862154615 -0.0008905083795815975
1926 -0.0012954106663963197 0.002244668636800917 0.005288757733731311
294 0.004519971674871108 0.0046618232506461695 -0.002609452334843029
38 0.002255633242734251 -0.008513222471475079 -0.0032304296808763895
924 0.0040764465586376995 -0.002958812295257551 0.0015717206556199973
135 -0.013207508401297488 -0.015250116903782066 -0.001109270591294523
1384 -0.012605253775630834 0.04708651544176894 -0.03446848510875064
740 0.014710882463043225 0.006723348703184258 0.006115396824794938
1092 0.002298705358814222 0.002049769183516603 -0.0014763283697502754
752 -0.006649474708016715 0.01588397336376018 0.0019050330230743482
1597 0.01445890416977919 0.03421164633835314 0.012165313693153889
438 0.0012474072920270966 -0.0011306834201754302 0.007902518635973577
1911 0.00663412443777206 0.006606349604470899 -0.005345770997290637
1858 0.016449261299401326 0.009793101380603892 -0.0011076487017203476
1712 0.025435064037748176 -0.01433389486514816 0.006220718559893686
216 0.005087520803171607 0.01774252949775947 0.004393098564512527
1090 -0.009262068981250435 0.0090954908399121 0.013374577804256075
1830 -0.0011066845275634742 0.0005350505179295469 0.007201794772318596
747 0.004777464111833659 -0.0011507283585838663 0.010320269567327034
1874 -0.011544922130708063 -0.021764007508755488 -0.03686227087883564
1775 -0.005611091139627514 0.0062134275825104675 -0.014107600497790142
1206 0.0026479214840774913 -0.0023739529003575215 0.001638883120112002
1365 0.0005119393997691757 -0.004725178636289265 0.005033539143692618
54 -0.00023842659870226257 -0.01115093598532209 0.0006352723811515727
134 0.007045680865256988 0.004516574306671565 0.0010309320916650478
746 -0.008158146111542901 -0.021107569696465503 -0.014194733149103382
1888 0.0026827211400937277 0.009647511835062258 -0.015995877719544468
695 -0.0051713150412039735 -0.0012720278145860564 0.004957871449867585
694 -0.0010633245683643094 -0.0022865366679394135 -0.003818744224023942
136 -0.013919837826537619 -0.01274662342433817 0.005980329595926293
374 -0.0008156397827583713 -0.003267055490248661 0.0022766238180492535
1418 0.03574381237579067 -0.015077484700389249 -0.002853423476161811
198 -0.002963645293965464 0.0013987476647665047 -0.0011699943180114639
755 0.018279257456680107 0.007621522163296985 -0.03215158329277992
20 0.004398835472672718 -0.0032784261396245815 -0.0003354748813474519
1713 0.00383754044527763 -0.0033264456611404743 -0.00030477750822430574
748 0.0015673148069194791 0.002391011789356562 -0.0008604499128923887
580 -0.009348664079340572 -0.00537905955279573 -0.0009284489870223776
1526 0.007962976292650083 -0.019313581003324056 0.033228594411637204
745 -0.019836205240326425 -0.008839141105289312 -0.011368954355532087
420 0.0010259084920998785 -0.000219519196597844 0.0013242570636989002
100 0.001476460033919516 -0.002324439349264973 0.0018955102402912034
749 8.112115778827678e-07 -0.008250593655731388 0.004466755241715893
1527 -0.011668625653765648 0.0016388280839830522 0.0005702728987384246
260 0.0008574407385773873 -0.0002720166965655512 -0.001635107682091668
118 -0.00016054426499818064 -0.0030644995789341272 -0.0001492141574436714
1400 0.012180646954665714 0.005635044351166775 -0.0133085823875708
743 0.009771246215504518 0.013094642816861705 0.0061660340708253394
1598 -0.003031154281233963 0.017630652804832794 -0.009206205427607842
1910 0.016682524100442995 -0.015519952930499797 -0.0020954241594960707
1369 0.012406697029638212 -0.017179751239202234 -0.004761443807950567
1694 -0.02486802631078409 -0.0020639804422539466 0.025013225803923136
1599 -0.0019142495955990443 -0.0017877388397001576 -0.0023107232527299
1675 -0.01201042617458986 -0.009528161807612002 0.009681165449177395
1892 -0.019358869852477492 0.0011562122552912324 -0.010515817675124552
963 0.001492944832213316 -0.00707600884692156 -0.0016459957857231375
981 -0.0012999616526868435 0.002466155354102349 0.0014625097694921589
1019 -0.01964821193794958 0.019379986756592124 0.017395754295181632
1847 0.022147548522675878 -0.01671040916790972 0.003226484240094182
1588 0.003692813870976305 -0.02425867750492244 -0.007626796110533493
781 0.005291725842255947 -0.0005743566586537377 -0.02341917382454902
1692 -0.005127698685324412 -0.0004267343183638072 0.008378727674675493
1463 0.02402333019835256 -0.010162126074837572 0.02924655116293244
783 -0.0019044184300088726 -0.0030417368922274076 0.006698031124127951

Bonds

1 2 392 633
2 2 392 634
3 1 52 53
4 2 63 64
5 2 63 65
6 2 66 67
7 2 66 68
8 2 72 313
9 2 72 314
10 2 703 704
11 2 703 705
12 2 380 381
13 2 380 382
14 1 132 133
15 2 706 707
16 2 706 708
17 2 629 630
18 2 629 631
19 2 143 144
20 2 143 145
21 2 146 147
22 2 146 148
23 2 152 393
24 2 152 394
25 2 312 553
26 2 312 554
27 2 318 319
28 2 318 320
29 2 395 396
30 2 395 397
31 2 158 159
32 2 158 160
33 1 212 213
34 2 223 224
35 2 223 225
36 2 226 227
37 2 226 228
38 1 292 293
39 2 75 76
40 2 75 77
41 2 78 79
42 2 78 80
43 2 303 304
44 2 303 305
45 2 306 307
46 2 306 308
47 2 475 476
48 2 475 477
49 2 626 627
50 2 626 628
51 2 315 316
52 2 315 317
53 1 372 373
54 2 718 719
55 2 718 720
56 2 383 384
57 2 383 385
58 2 386 387
59 2 386 388
60 2 398 399
61 2 398 400
62 2 155 156
63 2 155 157
64 1 452 453
65 2 463 464
66 2 463 465
67 2 466 467
68 2 466 468
69 2 478 479
70 2 478 480
71 1 692 693
72 2 238 239
73 2 238 240
74 1 532 533
75 2 543 544
76 2 543 545
77 2 546 547
78 2 546 548
79 2 558 559
80 2 558 560
81 2 632 153
82 2 632 154
83 2 235 236
84 2 235 237
85 1 612 613
86 2 623 624
87 2 623 625
88 2 638 639
89 2 638 640
90 2 712 233
91 2 712 234
92 2 555 556
93 2 555 557
94 1 21 721
95 1 39 722
96 1 50 51
97 2 700 701
98 2 700 702
99 2 60 61
100 2 60 62
101 2 69 70
102 2 69 71
103 1 101 723
104 1 119 724
105 1 130 131
106 2 232 473
107 2 232 474
108 1 690 691
109 2 140 141
110 2 140 142
111 2 149 150
112 2 149 151
113 2 137 138
114 2 137 139
115 1 181 725
116 1 199 726
117 1 210 211
118 2 220 221
119 2 220 222
120 2 229 230
121 2 229 231
122 2 1008 1006
123 2 1008 1007
124 1 261 727
125 1 279 728
126 1 290 291
127 1 359 730
128 2 300 301
129 2 300 302
130 2 309 310
131 2 309 311
132 1 341 729
133 1 370 371
134 2 1194 1192
135 2 1194 1193
136 2 389 390
137 2 389 391
138 2 57 58
139 2 57 59
140 2 709 710
141 2 709 711
142 1 421 731
143 1 450 451
144 2 635 636
145 2 635 637
146 2 460 461
147 2 460 462
148 2 469 470
149 2 469 471
150 2 1005 1003
151 2 1005 1004
152 2 837 835
153 2 837 836
154 1 501 733
155 1 519 734
156 1 530 531
157 1 439 732
158 2 540 541
159 2 540 542
160 2 549 550
161 2 549 551
162 1 581 735
163 1 599 736
164 1 610 611
165 2 620 621
166 2 620 622
167 2 472 713
168 2 472 714
169 1 661 737
170 1 679 738
171 2 297 298
172 2 297 299
173 2 1545 1543
174 2 1545 1544
175 2 715 716
176 2 715 717
177 2 697 698
178 2 697 699
179 2 1101 1099
180 2 1101 1100
181 2 617 618
182 2 617 619
183 2 552 73
184 2 552 74
185 2 762 760
186 2 762 761
187 2 801 799
188 2 801 800
189 2 804 802
190 2 804 803
191 2 1629 1627
192 2 1629 1628
193 2 819 817
194 2 819 818
195 2 828 826
196 2 828 827
197 2 1725 1723
198 2 1725 1724
199 2 864 862
200 2 864 863
201 2 867 865
202 2 867 866
203 2 879 877
204 2 879 878
205 2 882 880
206 2 882 881
207 2 1302 1300
208 2 1302 1301
209 2 888 886
210 2 888 887
211 2 903 901
212 2 903 902
213 2 909 907
214 2 909 908
215 2 915 913
216 2 915 914
217 2 945 943
218 2 945 944
219 2 948 946
220 2 948 947
221 2 978 976
222 2 978 977
223 2 984 982
224 2 984 983
225 2 999 997
226 2 999 998
227 2 1002 1000
228 2 1002 1001
229 2 537 538
230 2 537 539
231 2 1029 1027
232 2 1029 1028
233 2 1047 1045
234 2 1047 1046
235 2 1056 1054
236 2 1056 1055
237 2 1089 1087
238 2 1089 1088
239 2 1791 1789
240 2 1791 1790
241 2 1122 1120
242 2 1122 1121
243 2 1128 1126
244 2 1128 1127
245 2 1137 1135
246 2 1137 1136
247 2 217 218
248 2 217 219
249 2 1164 1162
250 2 1164 1163
251 2 1176 1174
252 2 1176 1175
253 2 1605 1603
254 2 1605 1604
255 2 969 967
256 2 969 968
257 2 1425 1423
258 2 1425 1424
259 2 1218 1216
260 2 1218 1217
261 2 1221 1219
262 2 1221 1220
263 2 1098 1096
264 2 1098 1097
265 2 1254 1252
266 2 1254 1253
267 2 1308 1306
268 2 1308 1307
269 2 1311 1309
270 2 1311 1310
271 2 1314 1312
272 2 1314 1313
273 2 1329 1327
274 2 1329 1328
275 2 1341 1339
276 2 1341 1340
277 2 1362 1360
278 2 1362 1361
279 2 1368 1366
280 2 1368 1367
281 2 1404 1402
282 2 1404 1403
283 2 1407 1405
284 2 1407 1406
285 2 1410 1408
286 2 1410 1409
287 2 1809 1807
288 2 1809 1808
289 2 1452 1450
290 2 1452 1451
291 2 1467 1465
292 2 1467 1466
293 2 1473 1471
294 2 1473 1472
295 2 1602 1600
296 2 1602 1601
297 2 1476 1474
298 2 1476 1475
299 2 1500 1498
300 2 1500 1499
301 2 1509 1507
302 2 1509 1508
303 2 1515 1513
304 2 1515 1514
305 2 1518 1516
306 2 1518 1517
307 2 1536 1534
308 2 1536 1535
309 2 1542 1540
310 2 1542 1541
311 2 1701 1699
312 2 1701 1700
313 2 1071 1069
314 2 1071 1070
315 2 1245 1243
316 2 1245 1244
317 2 1095 1093
318 2 1095 1094
319 2 1554 1552
320 2 1554 1553
321 2 1557 1555
322 2 1557 1556
323 2 1413 1411
324 2 1413 1412
325 2 1587 1585
326 2 1587 1586
327 2 1608 1606
328 2 1608 1607
329 2 1461 1459
330 2 1461 1460
331 2 1611 1609
332 2 1611 1610
333 2 1614 1612
334 2 1614 1613
335 2 1134 1132
336 2 1134 1133
337 2 1842 1840
338 2 1842 1841
339 2 1650 1648
340 2 1650 1649
341 2 1656 1654
342 2 1656 1655
343 2 1662 1660
344 2 1662 1661
345 2 1668 1666
346 2 1668 1667
347 2 1671 1669
348 2 1671 1670
349 2 1674 1672
350 2 1674 1673
351 2 1683 1681
352 2 1683 1682
353 2 1710 1708
354 2 1710 1709
355 2 1572 1570
356 2 1572 1571
357 2 1716 1714
358 2 1716 1715
359 2 1749 1747
360 2 1749 1748
361 2 1803 1801
362 2 1803 1802
363 2 1812 1810
364 2 1812 1811
365 2 1764 1762
366 2 1764 1763
367 2 1815 1813
368 2 1815 1814
369 2 1818 1816
370 2 1818 1817
371 2 1839 1837
372 2 1839 1838
373 2 1854 1852
374 2 1854 1853
375 2 1575 1573
376 2 1575 1574
377 2 1878 1876
378 2 1878 1877
379 2 1881 1879
380 2 1881 1880
381 2 1896 1894
382 2 1896 1895
383 2 1899 1897
384 2 1899 1898
385 2 1914 1912
386 2 1914 1913
387 2 1857 1855
388 2 1857 1856
389 2 1920 1918
390 2 1920 1919
391 2 1923 1921
392 2 1923 1922
393 2 1623 1621
394 2 1623 1622
395 2 1944 1942
396 2 1944 1943
397 2 1740 1738
398 2 1740 1739
399 2 1494 1492
400 2 1494 1493
401 2 834 832
402 2 834 833
403 2 1326 1324
404 2 1326 1325
405 2 1530 1528
406 2 1530 1529
407 2 1905 1903
408 2 1905 1904
409 2 1626 1624
410 2 1626 1625
411 2 1482 1480
412 2 1482 1481
413 2 1635 1633
414 2 1635 1634
415 2 1596 1594
416 2 1596 1595
417 2 1032 1030
418 2 1032 1031
419 2 840 838
420 2 840 839
421 2 1728 1726
422 2 1728 1727
423 2 774 772
424 2 774 773
425 2 1161 1159
426 2 1161 1160
427 2 377 378
428 2 377 379
429 2 1335 1333
430 2 1335 1334
431 2 457 458
432 2 457 459
433 2 906 904
434 2 906 905
435 2 1479 1477
436 2 1479 1478
437 2 951 949
438 2 951 950
439 2 1107 1105
440 2 1107 1106
441 2 810 808
442 2 810 809
443 2 1647 1645
444 2 1647 1646
445 2 816 814
446 2 816 815
447 2 1038 1036
448 2 1038 1037
449 2 1152 1150
450 2 1152 1151
451 2 933 931
452 2 933 932
453 2 1392 1390
454 2 1392 1391
455 2 1578 1576
456 2 1578 1577
457 2 1737 1735
458 2 1737 1736
459 2 1269 1267
460 2 1269 1268
461 2 1266 1264
462 2 1266 1265
463 2 843 841
464 2 843 842
465 2 765 763
466 2 765 764
467 2 768 766
468 2 768 767
469 2 1305 1303
470 2 1305 1304
471 2 1488 1486
472 2 1488 1487
473 2 777 775
474 2 777 776
475 2 927 925
476 2 927 926
477 2 1143 1141
478 2 1143 1142
479 2 792 790
480 2 792 791
481 2 795 793
482 2 795 794
483 2 1956 1954
484 2 1956 1955
485 2 975 973
486 2 975 974
487 2 825 823
488 2 825 824
489 2 1746 1744
490 2 1746 1745
491 2 786 784
492 2 786 785
493 2 1779 1777
494 2 1779 1778
495 2 1872 1870
496 2 1872 1871
497 2 846 844
498 2 846 845
499 2 858 856
500 2 858 857
501 2 861 859
502 2 861 860
503 2 873 871
504 2 873 872
505 2 1185 1183
506 2 1185 1184
507 2 1050 1048
508 2 1050 1049
509 2 1443 1441
510 2 1443 1442
511 2 1836 1834
512 2 1836 1835
513 2 1416 1414
514 2 1416 1415
515 2 1170 1168
516 2 1170 1169
517 2 1491 1489
518 2 1491 1490
519 2 930 928
520 2 930 929
521 2 939 937
522 2 939 938
523 2 1785 1783
524 2 1785 1784
525 2 1521 1519
526 2 1521 1520
527 2 1632 1630
528 2 1632 1631
529 2 966 964
530 2 966 965
531 2 1080 1078
532 2 1080 1079
533 2 993 991
534 2 993 992
535 2 990 988
536 2 990 989
537 2 996 994
538 2 996 995
539 2 1584 1582
540 2 1584 1583
541 2 1011 1009
542 2 1011 1010
543 2 1773 1771
544 2 1773 1772
545 2 1935 1933
546 2 1935 1934
547 2 1902 1900
548 2 1902 1901
549 2 1239 1237
550 2 1239 1238
551 2 1035 1033
552 2 1035 1034
553 2 1743 1741
554 2 1743 1742
555 2 1464 1462
556 2 1464 1463
557 2 1734 1732
558 2 1734 1733
559 2 1659 1657
560 2 1659 1658
561 2 771 769
562 2 771 770
563 2 1869 1867
564 2 1869 1868
565 2 1059 1057
566 2 1059 1058
567 2 1782 1780
568 2 1782 1781
569 2 1077 1075
570 2 1077 1076
571 2 1083 1081
572 2 1083 1082
573 2 1866 1864
574 2 1866 1865
575 2 1104 1102
576 2 1104 1103
577 2 1887 1885
578 2 1887 1886
579 2 1212 1210
580 2 1212 1211
581 2 897 895
582 2 897 896
583 2 1116 1114
584 2 1116 1115
585 2 1485 1483
586 2 1485 1484
587 2 1119 1117
588 2 1119 1118
589 2 1644 1642
590 2 1644 1643
591 2 1140 1138
592 2 1140 1139
593 2 1146 1144
594 2 1146 1145
595 2 849 847
596 2 849 848
597 2 1158 1156
598 2 1158 1157
599 2 1167 1165
600 2 1167 1166
601 2 1068 1066
602 2 1068 1067
603 2 1263 1261
604 2 1263 1262
605 2 1770 1768
606 2 1770 1769
607 2 1947 1945
608 2 1947 1946
609 2 1272 1270
610 2 1272 1271
611 2 1230 1228
612 2 1230 1229
613 2 1470 1468
614 2 1470 1469
615 2 1707 1705
616 2 1707 1706
617 2 1248 1246
618 2 1248 1247
619 2 1251 1249
620 2 1251 1250
621 2 1113 1111
622 2 1113 1112
623 2 1761 1759
624 2 1761 1760
625 2 1110 1108
626 2 1110 1109
627 2 1281 1279
628 2 1281 1280
629 2 1680 1678
630 2 1680 1679
631 2 1275 1273
632 2 1275 1274
633 2 1278 1276
634 2 1278 1277
635 2 1620 1618
636 2 1620 1619
637 2 972 970
638 2 972 971
639 2 1287 1285
640 2 1287 1286
641 2 1299 1297
642 2 1299 1298
643 2 1638 1636
644 2 1638 1637
645 2 1848 1846
646 2 1848 1847
647 2 942 940
648 2 942 941
649 2 1317 1315
650 2 1317 1316
651 2 1320 1318
652 2 1320 1319
653 2 1665 1663
654 2 1665 1664
655 2 1332 1330
656 2 1332 1331
657 2 1233 1231
658 2 1233 1232
659 2 1767 1765
660 2 1767 1766
661 2 1347 1345
662 2 1347 1346
663 2 1893 1891
664 2 1893 1892
665 2 1350 1348
666 2 1350 1349
667 2 1353 1351
668 2 1353 1352
669 2 1356 1354
670 2 1356 1355
671 2 1284 1282
672 2 1284 1283
673 2 1359 1357
674 2 1359 1358
675 2 1242 1240
676 2 1242 1241
677 2 1200 1198
678 2 1200 1199
679 2 1389 1387
680 2 1389 1388
681 2 1689 1687
682 2 1689 1688
683 2 1395 1393
684 2 1395 1394
685 2 1653 1651
686 2 1653 1652
687 2 1755 1753
688 2 1755 1754
689 2 1449 1447
690 2 1449 1448
691 2 1455 1453
692 2 1455 1454
693 2 1551 1549
694 2 1551 1550
695 2 1917 1915
696 2 1917 1916
697 2 1617 1615
698 2 1617 1616
699 2 1533 1531
700 2 1533 1532
701 2 1548 1546
702 2 1548 1547
703 2 1560 1558
704 2 1560 1559
705 2 1563 1561
706 2 1563 1562
707 2 1260 1258
708 2 1260 1259
709 2 1569 1567
710 2 1569 1568
711 2 1566 1564
712 2 1566 1565
713 2 1074 1072
714 2 1074 1073
715 2 1593 1591
716 2 1593 1592
717 2 1824 1822
718 2 1824 1823
719 2 1581 1579
720 2 1581 1580
721 2 780 778
722 2 780 779
723 2 1788 1786
724 2 1788 1787
725 2 1938 1936
726 2 1938 1937
727 2 870 868
728 2 870 869
729 2 1053 1051
730 2 1053 1052
731 2 1821 1819
732 2 1821 1820
733 2 891 889
734 2 891 890
735 2 1215 1213
736 2 1215 1214
737 2 912 910
738 2 912 911
739 2 813 811
740 2 813 812
741 2 1941 1939
742 2 1941 1940
743 2 759 757
744 2 759 758
745 2 1677 1675
746 2 1677 1676
747 2 807 805
748 2 807 806
749 2 822 820
750 2 822 821
751 1 660 755
752 1 278 746
753 2 852 850
754 2 852 851
755 2 855 853
756 2 855 854
757 1 518 752
758 2 1800 1798
759 2 1800 1799
760 2 1776 1774
761 2 1776 1775
762 2 876 874
763 2 876 875
764 2 894 892
765 2 894 893
766 2 918 916
767 2 918 917
768 2 936 934
769 2 936 935
770 2 957 955
771 2 957 956
772 2 960 958
773 2 960 959
774 2 614 615
775 2 614 616
776 2 987 985
777 2 987 986
778 2 1860 1858
779 2 1860 1859
780 2 1014 1012
781 2 1014 1013
782 2 1017 1015
783 2 1017 1016
784 2 1023 1021
785 2 1023 1022
786 2 1026 1024
787 2 1026 1025
788 2 1041 1039
789 2 1041 1040
790 2 1044 1042
791 2 1044 1043
792 2 1062 1060
793 2 1062 1061
794 2 1434 1432
795 2 1434 1433
796 2 1086 1084
797 2 1086 1085
798 2 1131 1129
799 2 1131 1130
800 2 1149 1147
801 2 1149 1148
802 2 1686 1684
803 2 1686 1685
804 2 1155 1153
805 2 1155 1154
806 2 1179 1177
807 2 1179 1178
808 2 1188 1186
809 2 1188 1187
810 2 1191 1189
811 2 1191 1190
812 2 1197 1195
813 2 1197 1196
814 2 1203 1201
815 2 1203 1202
816 2 1209 1207
817 2 1209 1208
818 2 1224 1222
819 2 1224 1223
820 2 1227 1225
821 2 1227 1226
822 2 1236 1234
823 2 1236 1235
824 2 1257 1255
825 2 1257 1256
826 2 1173 1171
827 2 1173 1172
828 1 180 743
829 2 1890 1888
830 2 1890 1889
831 2 1290 1288
832 2 1290 1289
833 2 1293 1291
834 2 1293 1292
835 2 1296 1294
836 2 1296 1295
837 2 1323 1321
838 2 1323 1322
839 2 1338 1336
840 2 1338 1337
841 2 1344 1342
842 2 1344 1343
843 2 954 952
844 2 954 953
845 1 500 751
846 2 1377 1375
847 2 1377 1376
848 2 1380 1378
849 2 1380 1379
850 2 1383 1381
851 2 1383 1382
852 2 1398 1396
853 2 1398 1397
854 1 340 747
855 2 921 919
856 2 921 920
857 2 1371 1369
858 2 1371 1370
859 2 885 883
860 2 885 884
861 2 1422 1420
862 2 1422 1421
863 2 1428 1426
864 2 1428 1427
865 2 1431 1429
866 2 1431 1430
867 2 1125 1123
868 2 1125 1124
869 2 1437 1435
870 2 1437 1436
871 2 1440 1438
872 2 1440 1439
873 2 1446 1444
874 2 1446 1445
875 2 1524 1522
876 2 1524 1523
877 2 1590 1588
878 2 1590 1589
879 2 1386 1384
880 2 1386 1385
881 2 1020 1018
882 2 1020 1019
883 2 1497 1495
884 2 1497 1496
885 2 1503 1501
886 2 1503 1502
887 2 1506 1504
888 2 1506 1505
889 2 1512 1510
890 2 1512 1511
891 2 534 535
892 2 534 536
893 2 214 215
894 2 214 216
895 2 1539 1537
896 2 1539 1538
897 1 678 756
898 2 1182 1180
899 2 1182 1181
900 2 798 796
901 2 798 797
902 2 1374 1372
903 2 1374 1373
904 2 1641 1639
905 2 1641 1640
906 2 1845 1843
907 2 1845 1844
908 2 1695 1693
909 2 1695 1694
910 2 1698 1696
911 2 1698 1697
912 2 1704 1702
913 2 1704 1703
914 2 454 455
915 2 454 456
916 2 1719 1717
917 2 1719 1718
918 2 1722 1720
919 2 1722 1721
920 2 1731 1729
921 2 1731 1730
922 2 1752 1750
923 2 1752 1751
924 2 1458 1456
925 2 1458 1457
926 2 1758 1756
927 2 1758 1757
928 2 1806 1804
929 2 1806 1805
930 2 1794 1792
931 2 1794 1793
932 2 1797 1795
933 2 1797 1796
934 2 789 787
935 2 789 788
936 2 1827 1825
937 2 1827 1826
938 2 1419 1417
939 2 1419 1418
940 2 1833 1831
941 2 1833 1832
942 2 1851 1849
943 2 1851 1850
944 2 1863 1861
945 2 1863 1862
946 2 1884 1882
947 2 1884 1883
948 2 1908 1906
949 2 1908 1907
950 2 1875 1873
951 2 1875 1874
952 2 1929 1927
953 2 1929 1928
954 2 900 898
955 2 900 899
956 2 1932 1930
957 2 1932 1931
958 2 1950 1948
959 2 1950 1949
960 2 1953 1951
961 2 1953 1952
962 2 831 829
963 2 831 830
964 1 598 754
965 1 358 748
966 2 1065 1063
967 2 1065 1064
968 2 1401 1399
969 2 1401 1400
970 2 1926 1924
971 2 1926 1925
972 2 294 295
973 2 294 296
974 1 38 740
975 2 924 922
976 2 924 923
977 2 1092 1090
978 2 1092 1091
979 1 438 750
980 2 1911 1909
981 2 1911 1910
982 2 1830 1828
983 2 1830 1829
984 2 1206 1204
985 2 1206 1205
986 2 1365 1363
987 2 1365 1364
988 2 54 55
989 2 54 56
990 2 134 135
991 2 134 136
992 2 694 695
993 2 694 696
994 2 374 375
995 2 374 376
996 1 198 744
997 1 20 739
998 2 1713 1711
999 2 1713 1712
1000 1 580 753
1001 1 420 749
1002 1 100 741
1003 2 1527 1525
1004 2 1527 1526
1005 1 260 745
1006 1 118 742
1007 2 1599 1597
1008 2 1599 1598
1009 2 963 961
1010 2 963 962
1011 2 981 979
1012 2 981 980
1013 2 1692 1690
1014 2 1692 1691
1015 2 783 781
1016 2 783 782

Angles

1 2 634 392 633
2 1 6 52 53
3 2 64 63 65
4 2 67 66 68
5 2 314 72 313
6 2 704 703 705
7 2 382 380 381
8 1 86 132 133
9 2 707 706 708
10 2 631 629 630
11 2 144 143 145
12 2 147 146 148
13 2 394 152 393
14 2 554 312 553
15 2 320 318 319
16 2 397 395 396
17 2 160 158 159
18 1 166 212 213
19 2 224 223 225
20 2 227 226 228
21 1 246 292 293
22 2 77 75 76
23 2 80 78 79
24 2 304 303 305
25 2 307 306 308
26 2 477 475 476
27 2 627 626 628
28 2 317 315 316
29 1 326 372 373
30 2 720 718 719
31 2 384 383 385
32 2 387 386 388
33 2 400 398 399
34 2 157 155 156
35 1 406 452 453
36 2 464 463 465
37 2 467 466 468
38 2 480 478 479
39 1 646 692 693
40 2 240 238 239
41 1 486 532 533
42 2 544 543 545
43 2 547 546 548
44 2 560 558 559
45 2 154 632 153
46 2 237 235 236
47 1 566 612 613
48 2 624 623 625
49 2 640 638 639
50 2 234 712 233
51 2 557 555 556
52 1 162 21 721
53 1 8 39 722
54 1 5 50 51
55 2 702 700 701
56 2 62 60 61
57 2 71 69 70
58 1 2 101 723
59 1 88 119 724
60 1 85 130 131
61 2 474 232 473
62 1 645 690 691
63 2 142 140 141
64 2 151 149 150
65 2 139 137 138
66 1 82 181 725
67 1 168 199 726
68 1 165 210 211
69 2 222 220 221
70 2 231 229 230
71 2 1007 1008 1006
72 1 402 261 727
73 1 248 279 728
74 1 245 290 291
75 1 328 359 730
76 2 302 300 301
77 2 311 309 310
78 1 242 341 729
79 1 325 370 371
80 2 1193 1194 1192
81 2 391 389 390
82 2 59 57 58
83 2 711 709 710
84 1 322 421 731
85 1 405 450 451
86 2 637 635 636
87 2 462 460 461
88 2 471 469 470
89 2 1004 1005 1003
90 2 835 837 836
91 1 642 501 733
92 1 488 519 734
93 1 485 530 531
94 1 408 439 732
95 2 542 540 541
96 2 551 549 550
97 1 482 581 735
98 1 568 599 736
99 1 565 610 611
100 2 622 620 621
101 2 714 472 713
102 1 562 661 737
103 1 648 679 738
104 2 299 297 298
105 2 1544 1545 1543
106 2 717 715 716
107 2 699 697 698
108 2 1099 1101 1100
109 2 619 617 618
110 2 74 552 73
111 2 761 762 760
112 2 800 801 799
113 2 802 804 803
114 2 1627 1629 1628
115 2 817 819 818
116 2 827 828 826
117 2 1724 1725 1723
118 2 863 864 862
119 2 866 867 865
120 2 878 879 877
121 2 881 882 880
122 2 1301 1302 1300
123 2 887 888 886
124 2 902 903 901
125 2 908 909 907
126 2 914 915 913
127 2 943 945 944
128 2 947 948 946
129 2 976 978 977
130 2 982 984 983
131 2 998 999 997
132 2 1000 1002 1001
133 2 539 537 538
134 2 1028 1029 1027
135 2 1046 1047 1045
136 2 1054 1056 1055
137 2 1088 1089 1087
138 2 1789 1791 1790
139 2 1121 1122 1120
140 2 1126 1128 1127
141 2 1135 1137 1136
142 2 219 217 218
143 2 1163 1164 1162
144 2 1175 1176 1174
145 2 1604 1605 1603
146 2 967 969 968
147 2 1424 1425 1423
148 2 1217 1218 1216
149 2 1219 1221 1220
150 2 1097 1098 1096
151 2 1252 1254 1253
152 2 1306 1308 1307
153 2 1310 1311 1309
154 2 1313 1314 1312
155 2 1327 1329 1328
156 2 1340 1341 1339
157 2 1360 1362 1361
158 2 1367 1368 1366
159 2 1403 1404 1402
160 2 1406 1407 1405
161 2 1408 1410 1409
162 2 1808 1809 1807
163 2 1451 1452 1450
164 2 1466 1467 1465
165 2 1472 1473 1471
166 2 1600 1602 1601
167 2 1474 1476 1475
168 2 1499 1500 1498
169 2 1508 1509 1507
170 2 1514 1515 1513
171 2 1517 1518 1516
172 2 1534 1536 1535
173 2 1540 1542 1541
174 2 1700 1701 1699
175 2 1069 1071 1070
176 2 1243 1245 1244
177 2 1093 1095 1094
178 2 1553 1554 1552
179 2 1556 1557 1555
180 2 1411 1413 1412
181 2 1585 1587 1586
182 2 1606 1608 1607
183 2 1460 1461 1459
184 2 1610 1611 1609
185 2 1613 1614 1612
186 2 1133 1134 1132
187 2 1841 1842 1840
188 2 1649 1650 1648
189 2 1655 1656 1654
190 2 1660 1662 1661
191 2 1666 1668 1667
192 2 1669 1671 1670
193 2 1673 1674 1672
194 2 1682 1683 1681
195 2 1709 1710 1708
196 2 1571 1572 1570
197 2 1715 1716 1714
198 2 1748 1749 1747
199 2 1802 1803 1801
200 2 1810 1812 1811
201 2 1763 1764 1762
202 2 1813 1815 1814
203 2 1817 1818 1816
204 2 1837 1839 1838
205 2 1852 1854 1853
206 2 1573 1575 1574
207 2 1876 1878 1877
208 2 1879 1881 1880
209 2 1895 1896 1894
210 2 1897 1899 1898
211 2 1912 1914 1913
212 2 1856 1857 1855
213 2 1918 1920 1919
214 2 1921 1923 1922
215 2 1622 1623 1621
216 2 1943 1944 1942
217 2 1739 1740 1738
218 2 1492 1494 1493
219 2 833 834 832
220 2 1325 1326 1324
221 2 1528 1530 1529
222 2 1903 1905 1904
223 2 1625 1626 1624
224 2 1480 1482 1481
225 2 1634 1635 1633
226 2 1595 1596 1594
227 2 1030 1032 1031
228 2 838 840 839
229 2 1726 1728 1727
230 2 773 774 772
231 2 1159 1161 1160
232 2 379 377 378
233 2 1333 1335 1334
234 2 459 457 458
235 2 905 906 904
236 2 1478 1479 1477
237 2 949 951 950
238 2 1105 1107 1106
239 2 809 810 808
240 2 1646 1647 1645
241 2 815 816 814
242 2 1036 1038 1037
243 2 1150 1152 1151
244 2 931 933 932
245 2 1391 1392 1390
246 2 1576 1578 1577
247 2 1735 1737 1736
248 2 1268 1269 1267
249 2 1265 1266 1264
250 2 841 843 842
251 2 764 765 763
252 2 767 768 766
253 2 1304 1305 1303
254 2 1486 1488 1487
255 2 775 777 776
256 2 925 927 926
257 2 1142 1143 1141
258 2 790 792 791
259 2 793 795 794
260 2 1954 1956 1955
261 2 974 975 973
262 2 823 825 824
263 2 1745 1746 1744
264 2 784 786 785
265 2 1778 1779 1777
266 2 1871 1872 1870
267 2 845 846 844
268 2 857 858 856
269 2 860 861 859
270 2 871 873 872
271 2 1183 1185 1184
272 2 1048 1050 1049
273 2 1442 1443 1441
274 2 1835 1836 1834
275 2 1414 1416 1415
276 2 1169 1170 1168
277 2 1490 1491 1489
278 2 929 930 928
279 2 938 939 937
280 2 1783 1785 1784
281 2 1519 1521 1520
282 2 1630 1632 1631
283 2 964 966 965
284 2 1078 1080 1079
285 2 991 993 992
286 2 988 990 989
287 2 994 996 995
288 2 1582 1584 1583
289 2 1010 1011 1009
290 2 1771 1773 1772
291 2 1933 1935 1934
292 2 1900 1902 1901
293 2 1238 1239 1237
294 2 1034 1035 1033
295 2 1741 1743 1742
296 2 1462 1464 1463
297 2 1732 1734 1733
298 2 1658 1659 1657
299 2 769 771 770
300 2 1867 1869 1868
301 2 1057 1059 1058
302 2 1780 1782 1781
303 2 1076 1077 1075
304 2 1081 1083 1082
305 2 1864 1866 1865
306 2 1102 1104 1103
307 2 1885 1887 1886
308 2 1210 1212 1211
309 2 896 897 895
310 2 1115 1116 1114
311 2 1483 1485 1484
312 2 1118 1119 1117
313 2 1642 1644 1643
314 2 1138 1140 1139
315 2 1144 1146 1145
316 2 848 849 847
317 2 1156 1158 1157
318 2 1165 1167 1166
319 2 1067 1068 1066
320 2 1261 1263 1262
321 2 1769 1770 1768
322 2 1946 1947 1945
323 2 1271 1272 1270
324 2 1228 1230 1229
325 2 1468 1470 1469
326 2 1705 1707 1706
327 2 1247 1248 1246
328 2 1250 1251 1249
329 2 1111 1113 1112
330 2 1760 1761 1759
331 2 1109 1110 1108
332 2 1280 1281 1279
333 2 1679 1680 1678
334 2 1274 1275 1273
335 2 1277 1278 1276
336 2 1618 1620 1619
337 2 971 972 970
338 2 1286 1287 1285
339 2 1297 1299 1298
340 2 1636 1638 1637
341 2 1846 1848 1847
342 2 941 942 940
343 2 1315 1317 1316
344 2 1319 1320 1318
345 2 1664 1665 1663
346 2 1331 1332 1330
347 2 1231 1233 1232
348 2 1765 1767 1766
349 2 1345 1347 1346
350 2 1892 1893 1891
351 2 1349 1350 1348
352 2 1351 1353 1352
353 2 1355 1356 1354
354 2 1282 1284 1283
355 2 1358 1359 1357
356 2 1241 1242 1240
357 2 1198 1200 1199
358 2 1388 1389 1387
359 2 1688 1689 1687
360 2 1394 1395 1393
361 2 1651 1653 1652
362 2 1753 1755 1754
363 2 1447 1449 1448
364 2 1453 1455 1454
365 2 1550 1551 1549
366 2 1915 1917 1916
367 2 1615 1617 1616
368 2 1531 1533 1532
369 2 1547 1548 1546
370 2 1559 1560 1558
371 2 1562 1563 1561
372 2 1258 1260 1259
373 2 1568 1569 1567
374 2 1565 1566 1564
375 2 1072 1074 1073
376 2 1591 1593 1592
377 2 1823 1824 1822
378 2 1579 1581 1580
379 2 778 780 779
380 2 1786 1788 1787
381 2 1936 1938 1937
382 2 869 870 868
383 2 1051 1053 1052
384 2 1819 1821 1820
385 2 889 891 890
386 2 1213 1215 1214
387 2 910 912 911
388 2 812 813 811
389 2 1939 1941 1940
390 2 757 759 758
391 2 1676 1677 1675
392 2 805 807 806
393 2 820 822 821
394 1 641 660 755
395 1 247 278 746
396 2 851 852 850
397 2 853 855 854
398 1 487 518 752
399 2 1799 1800 1798
400 2 1774 1776 1775
401 2 875 876 874
402 2 893 894 892
403 2 917 918 916
404 2 934 936 935
405 2 956 957 955
406 2 958 960 959
407 2 615 614 616
408 2 986 987 985
409 2 1859 1860 1858
410 2 1013 1014 1012
411 2 1015 1017 1016
412 2 1022 1023 1021
413 2 1025 1026 1024
414 2 1039 1041 1040
415 2 1042 1044 1043
416 2 1060 1062 1061
417 2 1433 1434 1432
418 2 1085 1086 1084
419 2 1130 1131 1129
420 2 1148 1149 1147
421 2 1685 1686 1684
422 2 1154 1155 1153
423 2 1177 1179 1178
424 2 1186 1188 1187
425 2 1190 1191 1189
426 2 1195 1197 1196
427 2 1201 1203 1202
428 2 1208 1209 1207
429 2 1223 1224 1222
430 2 1225 1227 1226
431 2 1235 1236 1234
432 2 1255 1257 1256
433 2 1171 1173 1172
434 1 161 180 743
435 2 1888 1890 1889
436 2 1288 1290 1289
437 2 1292 1293 1291
438 2 1295 1296 1294
439 2 1321 1323 1322
440 2 1337 1338 1336
441 2 1343 1344 1342
442 2 953 954 952
443 1 481 500 751
444 2 1376 1377 1375
445 2 1379 1380 1378
446 2 1381 1383 1382
447 2 1396 1398 1397
448 1 321 340 747
449 2 919 921 920
450 2 1369 1371 1370
451 2 883 885 884
452 2 1421 1422 1420
453 2 1427 1428 1426
454 2 1429 1431 1430
455 2 1124 1125 1123
456 2 1435 1437 1436
457 2 1438 1440 1439
458 2 1444 1446 1445
459 2 1522 1524 1523
460 2 1589 1590 1588
461 2 1384 1386 1385
462 2 1019 1020 1018
463 2 1496 1497 1495
464 2 1502 1503 1501
465 2 1504 1506 1505
466 2 1510 1512 1511
467 2 535 534 536
468 2 215 214 216
469 2 1537 1539 1538
470 1 647 678 756
471 2 1181 1182 1180
472 2 797 798 796
473 2 1373 1374 1372
474 2 1639 1641 1640
475 2 1843 1845 1844
476 2 1693 1695 1694
477 2 1697 1698 1696
478 2 1702 1704 1703
479 2 455 454 456
480 2 1718 1719 1717
481 2 1720 1722 1721
482 2 1730 1731 1729
483 2 1750 1752 1751
484 2 1456 1458 1457
485 2 1757 1758 1756
486 2 1804 1806 1805
487 2 1793 1794 1792
488 2 1796 1797 1795
489 2 788 789 787
490 2 1826 1827 1825
491 2 1418 1419 1417
492 2 1831 1833 1832
493 2 1850 1851 1849
494 2 1862 1863 1861
495 2 1882 1884 1883
496 2 1907 1908 1906
497 2 1873 1875 1874
498 2 1928 1929 1927
499 2 899 900 898
500 2 1930 1932 1931
501 2 1949 1950 1948
502 2 1952 1953 1951
503 2 830 831 829
504 1 567 598 754
505 1 327 358 748
506 2 1064 1065 1063
507 2 1399 1401 1400
508 2 1924 1926 1925
509 2 295 294 296
510 1 7 38 740
511 2 922 924 923
512 2 1091 1092 1090
513 1 407 438 750
514 2 1910 1911 1909
515 2 1828 1830 1829
516 2 1205 1206 1204
517 2 1364 1365 1363
518 2 55 54 56
519 2 135 134 136
520 2 695 694 696
521 2 375 374 376
522 1 167 198 744
523 1 1 20 739
524 2 1712 1713 1711
525 1 561 580 753
526 1 401 420 749
527 1 81 100 741
528 2 1525 1527 1526
529 1 241 260 745
530 1 87 118 742
531 2 1597 1599 1598
532 2 962 963 961
533 2 979 981 980
534 2 1691 1692 1690
535 2 781 783 782
