LAMMPS (20 Sep 2021)
  using 1 OpenMP thread(s) per MPI task
using multi-threaded neighbor list subroutines
using multi-threaded neighbor list subroutines
Reading data file ...
  triclinic box = (0.0000000 0.0000000 0.0000000) to (20.205600 18.628755 58.432518) with tilt (-12.213593 0.0000000 0.0000000)
WARNING: Triclinic box skew is large (../domain.cpp:219)
  1 by 1 by 5 MPI processor grid
  reading atoms ...
  1956 atoms
  scanning bonds ...
  2 = max bonds/atom
  scanning angles ...
  1 = max angles/atom
  reading bonds ...
  1016 bonds
  reading angles ...
  535 angles
Finding 1-2 1-3 1-4 neighbors ...
  special bond factors lj:    0        0        0       
  special bond factors coul:  0        0        0       
     2 = max # of 1-2 neighbors
     1 = max # of 1-3 neighbors
     1 = max # of 1-4 neighbors
     2 = max # of special neighbors
  special bonds CPU = 0.086 seconds
  read_data CPU = 0.167 seconds
Replicating atoms ...
  triclinic box = (0.0000000 0.0000000 0.0000000) to (20.205600 18.628755 58.432518) with tilt (-12.213593 0.0000000 0.0000000)
WARNING: Triclinic box skew is large (../domain.cpp:219)
  1 by 1 by 5 MPI processor grid
  1956 atoms
  1016 bonds
  535 angles
Finding 1-2 1-3 1-4 neighbors ...
  special bond factors lj:    0        0        0       
  special bond factors coul:  0        0        0       
     2 = max # of 1-2 neighbors
     1 = max # of 1-3 neighbors
     1 = max # of 1-4 neighbors
     2 = max # of special neighbors
  special bonds CPU = 0.001 seconds
  replicate CPU = 0.004 seconds
1443 atoms in group solution
WARNING: Using 'neigh_modify every 1 delay 0 check yes' setting during minimization (../min.cpp:188)
Ewald initialization ...
  using 12-bit tables for long-range coulomb (../kspace.cpp:340)
  G vector (1/distance) = 0.25496706
  estimated absolute RMS force accuracy = 0.0036129907
  estimated relative force accuracy = 1.0880414e-05
  KSpace vectors: actual max1d max3d = 1149 14 12194
                  kxmax kymax kzmax  = 6 8 14
Hybrid pair style last /omp style lj/cut/coul/long
Last active /omp style is kspace_style ewald/omp
Neighbor list info ...
  update every 1 steps, delay 0 steps, check yes
  max neighbors/atom: 2000, page size: 100000
  master list distance cutoff = 17
  ghost atom cutoff = 17
  binsize = 8.5, bins = 4 3 7
  4 neighbor lists, perpetual/occasional/extra = 4 0 0
  (1) pair coul/long, perpetual, skip from (4)
      attributes: half, newton on, omp
      pair build: skip/omp
      stencil: none
      bin: none
  (2) pair lj/cut/coul/long, perpetual, skip from (4)
      attributes: half, newton on, omp
      pair build: skip/omp
      stencil: none
      bin: none
  (3) pair lj/mdf, perpetual, copy from (1)
      attributes: half, newton on, omp
      pair build: copy
      stencil: none
      bin: none
  (4) neighbor class addition, perpetual
      attributes: half, newton on, omp
      pair build: half/bin/newton/tri/omp
      stencil: half/bin/3d/tri
      bin: standard
Setting up cg style minimization ...
  Unit style    : real
  Current step  : 0
WARNING: Inconsistent image flags (../domain.cpp:814)
Per MPI rank memory allocation (min/avg/max) = 35.67 | 36.29 | 37.68 Mbytes
Step Temp TotEng PotEng Press Volume Cella Cellb Cellc CellAlpha CellBeta CellGamma Density 
       0          100   -68155.666   -68738.415    425356.32    21994.302      20.2056      22.2756    58.432518           90           90     123.2501    1.4421454 
      30          100   -107243.69   -107826.44    1631.7916    21994.302      20.2056      22.2756    58.432518           90           90     123.2501    1.4421454 
Loop time of 0.589564 on 5 procs for 30 steps with 1956 atoms

91.7% CPU use with 5 MPI tasks x 1 OpenMP threads

Minimization stats:
  Stopping criterion = max iterations
  Energy initial, next-to-last, final = 
     -68738.4146347015   -107716.42022734  -107826.437997639
  Force two-norm initial, final = 119928.59 400.41830
  Force max component initial, final = 23164.530 44.733121
  Final line search alpha, max atom move = 0.0016114015 0.072083019
  Iterations, force evaluations = 30 47

MPI task timing breakdown:
Section |  min time  |  avg time  |  max time  |%varavg| %total
---------------------------------------------------------------
Pair    | 0.15933    | 0.23416    | 0.35384    |  14.3 | 39.72
Bond    | 0.00036064 | 0.00050593 | 0.00068193 |   0.0 |  0.09
Kspace  | 0.15593    | 0.26496    | 0.34605    |  13.1 | 44.94
Neigh   | 0.014173   | 0.01424    | 0.014276   |   0.0 |  2.42
Comm    | 0.010855   | 0.068449   | 0.10276    |  12.0 | 11.61
Output  | 3.961e-05  | 4.4918e-05 | 6.0108e-05 |   0.0 |  0.01
Modify  | 0.00057041 | 0.00064703 | 0.00072392 |   0.0 |  0.11
Other   |            | 0.006559   |            |       |  1.11

Nlocal:        391.200 ave         526 max         341 min
Histogram: 2 1 1 0 0 0 0 0 0 1
Nghost:        12658.0 ave       13907 max       11619 min
Histogram: 2 0 0 1 0 0 0 0 1 1
Neighs:         0.00000 ave           0 max           0 min
Histogram: 5 0 0 0 0 0 0 0 0 0

Total # of neighbors = 0
Ave neighs/atom = 0.0000000
Ave special neighs/atom = 1.5306748
Neighbor list builds = 1
Dangerous builds = 0
Ewald initialization ...
  using 12-bit tables for long-range coulomb (../kspace.cpp:340)
  G vector (1/distance) = 0.25496706
  estimated absolute RMS force accuracy = 0.0036129907
  estimated relative force accuracy = 1.0880414e-05
  KSpace vectors: actual max1d max3d = 1149 14 12194
                  kxmax kymax kzmax  = 6 8 14
Hybrid pair style last /omp style lj/cut/coul/long
Last active /omp style is kspace_style ewald/omp
Setting up Verlet run ...
  Unit style    : real
  Current step  : 30
  Time step     : 0.01
WARNING: Inconsistent image flags (../domain.cpp:814)
Per MPI rank memory allocation (min/avg/max) = 34.58 | 35.26 | 36.57 Mbytes
Step Temp TotEng PotEng Press Volume Cella Cellb Cellc CellAlpha CellBeta CellGamma Density 
      30          100   -107243.69   -107826.44    1631.7916    21994.302      20.2056      22.2756    58.432518           90           90     123.2501    1.4421454 
    1000    103.63595   -107340.14   -107944.08   -36.816937    22218.038    20.431778    21.867122    59.463916           90           90     123.2501     1.427623 
    2000     101.1169   -107559.55   -108148.81   -15.359395    22425.981    20.528097    21.736806    60.096974           90           90     123.2501    1.4143855 
    3000    107.24226   -107719.38   -108344.33   -6.9224285    22377.871    20.523686    21.609923    60.333118           90           90     123.2501    1.4174262 
    4000    113.54402   -107824.91   -108486.58   -38.794469    22235.829    20.495219    21.570397    60.143432           90           90     123.2501    1.4264807 
    5000    111.33472   -107973.34   -108622.14    202.56108    22168.547     20.43144    21.674838    59.858798           90           90     123.2501    1.4308101 
    6000    111.43626   -108051.81   -108701.21   -69.020915    22161.858    20.445815    21.697531     59.73612           90           90     123.2501     1.431242 
    7000    115.03923   -108128.55   -108798.94    40.899278     22086.59    20.353136    21.820321    59.467789           90           90     123.2501    1.4361195 
    8000    116.50116    -108197.9   -108876.81    63.681136    22000.969    20.402778    21.747182    59.291863           90           90     123.2501    1.4417084 
    9000    116.65544   -108265.89   -108945.69   -82.369752    22060.877    20.441105    21.697564    59.477544           90           90     123.2501    1.4377933 
   10000    122.96057    -108304.4   -109020.95    57.876046    22155.306    20.510966    21.685654    59.561373           90           90     123.2501    1.4316652 
   11000    125.25394   -108342.29   -109072.21    39.266201    22225.488    20.559746    21.733984    59.475735           90           90     123.2501    1.4271444 
   12000    120.78778   -108405.79   -109109.68   -65.895564     22210.96    20.571264    21.743162    59.378503           90           90     123.2501    1.4280779 
   13000    125.76915   -108423.15   -109156.07   -30.948027    22151.742    20.572567    21.686876     59.37013           90           90     123.2501    1.4318956 
   14000    128.54756   -108411.98   -109161.09    240.14665    22147.735    20.535982    21.687984    59.462101           90           90     123.2501    1.4321546 
   15000    129.65525   -108435.46   -109191.02    104.36598    22235.411    20.543589    21.674676    59.712024           90           90     123.2501    1.4265075 
   16000     133.6968    -108428.6   -109207.72   -74.108455    22346.601     20.53413    21.761289    59.799306           90           90     123.2501    1.4194096 
   17000     134.6961   -108439.37   -109224.31     70.32201    22292.742    20.547397    21.774618    59.580169           90           90     123.2501    1.4228389 
   18000    133.87677   -108462.63   -109242.79    119.51083    22206.969    20.547746    21.714897    59.513145           90           90     123.2501    1.4283346 
   19000    140.79788   -108415.61   -109236.11   -10.895448     22207.82    20.594192    21.649485    59.560614           90           90     123.2501    1.4282799 
   20000    143.28216   -108414.23    -109249.2    220.19148     22232.18    20.623336    21.716123    59.358976           90           90     123.2501    1.4267149 
   21000    138.44999   -108439.73   -109246.54    91.555067    22268.056    20.591702    21.769632    59.399742           90           90     123.2501    1.4244162 
   22000    139.03527   -108446.61   -109256.84   -33.742259    22324.599    20.545867    21.744178    59.753286           90           90     123.2501    1.4208085 
   23000     147.7081   -108403.26   -109264.03    167.84539    22332.981    20.527201    21.746949    59.822453           90           90     123.2501    1.4202753 
   24000    146.95406   -108389.09   -109245.46   -49.532116    22294.205    20.589542    21.665582    59.761366           90           90     123.2501    1.4227456 
   25000      147.258   -108401.33   -109259.48    224.24489    22215.185    20.612917    21.740569    59.276855           90           90     123.2501    1.4278063 
   26000    155.14331   -108363.79   -109267.88    11.554065    22191.736    20.607668    21.782087    59.116474           90           90     123.2501     1.429315 
   27000    155.57307   -108376.08   -109282.68    183.01998    22197.667    20.570891    21.871005    58.997155           90           90     123.2501    1.4289331 
   28000    152.00139    -108386.2   -109271.98   -17.752717    22180.721     20.57119    21.796172    59.153659           90           90     123.2501    1.4300248 
   29000    161.63384    -108320.6   -109262.52    156.74602    22111.406    20.548067    21.793148    59.043349           90           90     123.2501    1.4345077 
   30000    157.96716   -108353.06   -109273.61    5.4053612     22086.07    20.566091    21.756797    59.022461           90           90     123.2501    1.4361532 
   31000    158.16025   -108345.68   -109267.36    166.62781     22124.34     20.56864    21.852983    58.857202           90           90     123.2501     1.433669 
   32000    164.36004    -108304.9   -109262.71    32.424171    22096.581    20.589565    21.838017    58.763856           90           90     123.2501    1.4354701 
   33000    167.26303   -108295.47    -109270.2    343.82137    21989.178     20.57819    21.849102    58.480867           90           90     123.2501    1.4424815 
   34000    168.89411   -108250.38    -109234.6     38.75702    21963.445    20.522733    21.807531    58.681924           90           90     123.2501    1.4441715 
   35000    166.31788   -108271.82   -109241.04    260.27572    21995.205    20.483433    21.845653    58.776784           90           90     123.2501    1.4420862 
   36000    176.74999   -108201.23   -109231.24   -59.225551    22078.947    20.499865    21.864648    58.902056           90           90     123.2501    1.4366166 
   37000    174.14725   -108229.56    -109244.4    45.888193     22036.28    20.499821    21.934102    58.602203           90           90     123.2501    1.4393981 
   38000    177.14614   -108196.96   -109229.27   -2.1011659    21941.192    20.493473    21.891245    58.481673           90           90     123.2501    1.4456362 
   39000    180.62016   -108170.37   -109222.93    244.93015    21842.316     20.47127    21.889205    58.286706           90           90     123.2501    1.4521803 
   40000    177.14293   -108200.69   -109232.99    128.72684    21799.864    20.510259    21.828911     58.22321           90           90     123.2501    1.4550082 
   41000    187.54505   -108127.72   -109220.64    291.90509    21846.782     20.62575    21.784848    58.139163           90           90     123.2501    1.4518834 
   42000    183.68681    -108130.1   -109200.53    157.48718    21980.497    20.652455    21.859707    58.219315           90           90     123.2501    1.4430511 
   43000    180.25617   -108172.34   -109222.78    96.638012    21994.078    20.629859    21.875251    58.277652           90           90     123.2501    1.4421601 
   44000    189.55465   -108086.88    -109191.5    287.91449    21872.459     20.48714    21.961695    58.129422           90           90     123.2501     1.450179 
   45000    187.50229   -108085.53    -109178.2    80.476384    21809.397    20.459091    21.946791    58.080704           90           90     123.2501    1.4543723 
   46000     197.6956   -108007.99   -109160.06     56.77435    21915.296    20.524742    21.953043    58.159477           90           90     123.2501    1.4473444 
   47000    196.53685   -107997.25   -109142.56    161.38162    22076.675    20.603737    22.046677    58.115252           90           90     123.2501    1.4367644 
   48000    194.38052   -107984.68   -109117.43    79.523902    22121.281    20.718234    21.973608    58.103429           90           90     123.2501    1.4338673 
   49000    197.42059   -107962.07   -109112.53    112.30974    22010.219    20.696409    21.983501    57.846635           90           90     123.2501    1.4411025 
   50000    198.25896   -107968.11   -109123.46    250.13628    21883.274    20.674075    21.918563    57.745711           90           90     123.2501    1.4494623 
   51000    198.59776   -107956.14   -109113.46    71.376774    21934.302    20.615672    21.984343    57.870657           90           90     123.2501    1.4460903 
   52000    206.87778   -107903.25   -109108.83    119.28854    22077.585    20.601829    22.063486    58.078749           90           90     123.2501    1.4367052 
   53000    211.33237   -107828.88   -109060.41    -82.88159    22212.959    20.675932    22.012293    58.360851           90           90     123.2501    1.4279494 
   54000    204.30518    -107854.3   -109044.89    20.269138    22198.621    20.695383    22.006811    58.282881           90           90     123.2501    1.4288717 
   55000    211.56343   -107817.14   -109050.02    114.67782    22076.937    20.674214    22.005106    58.027245           90           90     123.2501    1.4367474 
   56000     210.1136   -107796.65   -109021.09    7.6269332     22007.45     20.68135    21.994303    57.853045           90           90     123.2501    1.4412838 
   57000    206.02965   -107807.64   -109008.27    13.166802    22061.969    20.694483    22.067079    57.768413           90           90     123.2501    1.4377221 
   58000    214.90041   -107750.91   -109003.24   -57.367834    22142.255     20.71202    22.163152    57.678434           90           90     123.2501    1.4325091 
   59000    207.70756   -107757.37   -108967.78   -193.84312     22091.44    20.684064    22.078806    57.843978           90           90     123.2501    1.4358042 
   60000    221.98648   -107701.69   -108995.31   -84.576295    22018.018    20.557764    22.101535     57.94627           90           90     123.2501    1.4405921 
   61000    220.73923   -107660.78   -108947.14   -349.64098    22040.261    20.540626    22.028938    58.244522           90           90     123.2501    1.4391382 
   62000    225.49763   -107634.91   -108948.99   -136.68285    22130.256    20.583632    22.125665    58.105024           90           90     123.2501    1.4332857 
   63000    226.54216      -107654   -108974.17   -107.21682    22159.097    20.602435    22.170359    58.010465           90           90     123.2501    1.4314203 
   64000    219.37629   -107653.95   -108932.36    -32.39005    22131.733    20.614851    22.145009    57.970218           90           90     123.2501    1.4331901 
   65000    231.95169   -107581.65   -108933.35    35.088696    22071.743    20.625325    22.108411    57.879383           90           90     123.2501    1.4370855 
   66000    230.53341    -107595.3   -108938.73    195.18214    22076.049    20.652518    22.102645    57.829531           90           90     123.2501    1.4368052 
   67000    238.87513   -107521.28   -108913.32    20.823451    22098.264    20.659103    22.076071    57.938934           90           90     123.2501    1.4353607 
   68000    240.20846   -107504.19      -108904   -18.669138    22063.518     20.67584    22.041584    57.891446           90           90     123.2501    1.4376212 
   69000     243.1678   -107568.54    -108985.6    54.551518    21991.463    20.666888    22.100185    57.574305           90           90     123.2501    1.4423316 
   70000    240.57744   -107569.84    -108971.8   -9.5618419    21944.559    20.656668    22.046098    57.620952           90           90     123.2501    1.4454144 
   71000    236.45361    -107580.7   -108958.63    94.893031    21884.209    20.660019    22.015732    57.532414           90           90     123.2501    1.4494004 
   72000    248.81887   -107499.71    -108949.7    106.07491    21854.589    20.634546    22.055567    57.421575           90           90     123.2501    1.4513648 
   73000    238.52572   -107502.09   -108892.09    13.025077    21873.078    20.617767    22.109291    57.377158           90           90     123.2501     1.450138 
   74000    249.01133   -107404.84   -108855.95   -43.491825    21877.714    20.649565    22.063786    57.419128           90           90     123.2501    1.4498307 
   75000    253.57347   -107370.58   -108848.27   -88.830291     21849.05     20.68402    22.089317    57.182207           90           90     123.2501    1.4517327 
   76000    248.80638   -107424.84   -108874.75    37.602857    21773.852    20.692199     22.12567    56.869284           90           90     123.2501    1.4567465 
   77000    252.52035   -107392.06   -108863.62    17.547856    21734.544    20.667964    22.125809     56.83283           90           90     123.2501     1.459381 
   78000    257.21676   -107284.47   -108783.39   -1.3007459    21713.059    20.690021    22.085669    56.819199           90           90     123.2501    1.4608251 
   79000    252.37184   -107307.19   -108777.88   -25.610269    21713.053    20.691594    22.116425    56.735853           90           90     123.2501    1.4608255 
   80000    258.21753   -107314.02   -108818.78   -12.576282    21693.757    20.693341    22.147238    56.601788           90           90     123.2501    1.4621249 
   81000    261.24648   -107291.13   -108813.54  -0.75131207    21631.651    20.712955    22.098877    56.509697           90           90     123.2501    1.4663227 
   82000    268.08627   -107235.09   -108797.36   -18.226902    21578.419    20.699552    22.100473    56.403063           90           90     123.2501      1.46994 
   83000    260.08787   -107274.38   -108790.04    70.809525    21567.348    20.704484    22.115861    56.321479           90           90     123.2501    1.4706946 
   84000    268.31525   -107186.58   -108750.18    77.766303    21653.643    20.741966    22.156066    56.342224           90           90     123.2501    1.4648335 
   85000    265.88093   -107217.52   -108766.94    265.74099    21675.163    20.744277    22.124461    56.472492           90           90     123.2501    1.4633792 
   86000    269.29608   -107210.42   -108779.73    139.48461    21621.097    20.731167    22.071586    56.502287           90           90     123.2501    1.4670384 
   87000     280.6041   -107097.73   -108732.94    188.82325    21591.548    20.728873    22.073349    56.426806           90           90     123.2501    1.4690462 
   88000    282.15827   -107096.37   -108740.64    14.391275    21612.639     20.72038     22.09662    56.445563           90           90     123.2501    1.4676126 
   89000    277.40202   -107075.72   -108692.28   -44.330608    21638.779    20.736982     22.13999    56.357973           90           90     123.2501    1.4658397 
   90000    283.47101   -107018.31   -108670.23   -110.25994    21624.414    20.765639    22.161504    56.188237           90           90     123.2501    1.4668134 
   91000     284.9233   -106961.15   -108621.54    -205.2789    21623.489    20.752373    22.101287    56.374932           90           90     123.2501    1.4668762 
   92000    288.80594   -106933.47   -108616.48    -136.4844    21634.438     20.71762    22.098202    56.505977           90           90     123.2501    1.4661338 
   93000    283.89488   -106939.94   -108594.33   -161.92754    21654.879     20.71481    22.117743    56.517064           90           90     123.2501    1.4647499 
   94000    286.22701   -106927.95   -108595.93   -124.67902    21666.563    20.715329    22.129615    56.515804           90           90     123.2501      1.46396 
   95000    287.26298   -106883.06   -108557.08   -20.743583    21687.301    20.731197    22.161611    56.444989           90           90     123.2501    1.4625601 
   96000    287.67211      -106855    -108531.4    188.51251    21679.626    20.714487    22.137021    56.533258           90           90     123.2501    1.4630779 
   97000    293.73539   -106839.93   -108551.67    211.07268     21611.04    20.678675    22.161879    56.388684           90           90     123.2501    1.4677212 
   98000    294.86462   -106728.22   -108446.54    384.61914    21606.406    20.687758    22.132016    56.427877           90           90     123.2501     1.468036 
   99000    296.83109   -106709.18   -108438.96    68.042272    21710.124    20.703989    22.135346    56.645779           90           90     123.2501    1.4610226 
  100000    302.86064   -106642.09      -108407   -113.42995    21807.512     20.78063    22.094926    56.793738           90           90     123.2501    1.4544979 
  100030    302.91243   -106643.41   -108408.63    253.77947    21794.837    20.742171    22.086489    56.887693           90           90     123.2501    1.4553438 
Loop time of 735.579 on 5 procs for 100000 steps with 1956 atoms

Performance: 0.117 ns/day, 204.327 hours/ns, 135.947 timesteps/s
94.5% CPU use with 5 MPI tasks x 1 OpenMP threads

MPI task timing breakdown:
Section |  min time  |  avg time  |  max time  |%varavg| %total
---------------------------------------------------------------
Pair    | 189.25     | 282.92     | 414.25     | 489.4 | 38.46
Bond    | 0.84387    | 1.3005     | 1.7968     |  31.6 |  0.18
Kspace  | 291.54     | 382.69     | 456.87     | 322.8 | 52.03
Neigh   | 0.73239    | 0.73269    | 0.73331    |   0.0 |  0.10
Comm    | 18.598     | 58.083     | 77.993     | 282.2 |  7.90
Output  | 0.074384   | 0.074711   | 0.075827   |   0.2 |  0.01
Modify  | 8.2524     | 9.4399     | 10.592     |  24.5 |  1.28
Other   |            | 0.3446     |            |       |  0.05

Nlocal:        391.200 ave         426 max         331 min
Histogram: 1 0 0 1 0 0 0 0 1 2
Nghost:        12689.8 ave       13086 max       12423 min
Histogram: 2 0 1 0 0 0 1 0 0 1
Neighs:         0.00000 ave           0 max           0 min
Histogram: 5 0 0 0 0 0 0 0 0 0

Total # of neighbors = 0
Ave neighs/atom = 0.0000000
Ave special neighs/atom = 1.5306748
Neighbor list builds = 58
Dangerous builds = 0
System init for write_restart ...
Ewald initialization ...
  using 12-bit tables for long-range coulomb (../kspace.cpp:340)
  G vector (1/distance) = 0.25502909
  estimated absolute RMS force accuracy = 0.003465645
  estimated relative force accuracy = 1.0436687e-05
  KSpace vectors: actual max1d max3d = 1074 14 12194
                  kxmax kymax kzmax  = 6 8 14
Hybrid pair style last /omp style lj/cut/coul/long
Last active /omp style is kspace_style ewald/omp
Ewald initialization ...
  using 12-bit tables for long-range coulomb (../kspace.cpp:340)
  G vector (1/distance) = 0.25502909
  estimated absolute RMS force accuracy = 0.003465645
  estimated relative force accuracy = 1.0436687e-05
  KSpace vectors: actual max1d max3d = 1074 14 12194
                  kxmax kymax kzmax  = 6 8 14
Hybrid pair style last /omp style lj/cut/coul/long
Last active /omp style is kspace_style ewald/omp
WARNING: Fix recenter should come after all other integration fixes (../fix_recenter.cpp:133)
Setting up Verlet run ...
  Unit style    : real
  Current step  : 100030
  Time step     : 0.1
WARNING: Inconsistent image flags (../domain.cpp:814)
Per MPI rank memory allocation (min/avg/max) = 34.59 | 35.36 | 36.58 Mbytes
Step Temp TotEng PotEng Press Volume Cella Cellb Cellc CellAlpha CellBeta CellGamma Density 
  100030    302.91243   -106643.41   -108408.62     253.8068    21794.837    20.742171    22.086489    56.887693           90           90     123.2501    1.4553438 
  101000    299.34264   -106662.35   -108406.76    586.75248    21683.415    20.756389    22.038693    56.680757           90           90     123.2501    1.4628222 
  102000    306.63671   -106577.88    -108364.8    -1905.572    22071.032    20.808034     22.23288    57.048136           90           90     123.2501    1.4371317 
  103000      300.686   -106651.92   -108404.16    2034.8413    22103.148    20.764201    22.132032    57.512628           90           90     123.2501    1.4350436 
  104000    305.04223   -106626.57    -108404.2   -509.78511    22064.652    20.678337     22.21578    57.433526           90           90     123.2501    1.4375473 
  105000    301.93576   -106657.93   -108417.45    1199.9224    21990.012     20.63538    22.108199    57.637512           90           90     123.2501    1.4424267 
  106000     303.1902   -106650.95   -108417.78    973.31026    22194.161    20.741659    22.144579    57.779451           90           90     123.2501    1.4291589 
  107000     301.8932   -106568.68   -108327.96   -893.95322    22396.833    20.748606    22.131242    58.322684           90           90     123.2501    1.4162261 
  108000    292.17099   -106690.93   -108393.55    3240.8813    22350.955    20.624269    22.220495    58.318909           90           90     123.2501    1.4191331 
  109000    292.65895   -106718.92   -108424.38   -422.02294    22468.452    20.618472    22.207829    58.675414           90           90     123.2501    1.4117119 
  110000    300.39478   -106606.86    -108357.4    1308.8866    22632.165    20.636641    22.204708    59.059204           90           90     123.2501    1.4015001 
  111000    296.17404   -106668.89   -108394.84    875.92553    22646.406    20.575984    22.244703    59.164017           90           90     123.2501    1.4006188 
  112000    301.52258   -106694.49   -108451.61   -1359.6589    22605.921    20.575862    22.320982    58.856775           90           90     123.2501    1.4031271 
  113000    303.56111   -106605.29   -108374.29    1936.9621     22584.22    20.685365    22.191275    58.830866           90           90     123.2501    1.4044754 
  114000    301.17823   -106644.39   -108399.51   -251.23463     22457.19    20.698296    22.199682     58.44127           90           90     123.2501    1.4124199 
  115000    304.33505   -106665.09    -108438.6      347.079    22382.532    20.630594    22.263894    58.269589           90           90     123.2501     1.417131 
  116000    307.54276   -106657.01   -108449.21   -1266.7822    22273.417    20.701667    22.160889    58.055041           90           90     123.2501    1.4240734 
  117000    300.64173   -106687.48   -108439.46   -2404.5826    22307.322     20.77305    22.258253    57.690153           90           90     123.2501     1.421909 
  118000    299.12366   -106808.88   -108552.02    351.94143    21924.881    20.676622    22.121385    57.317987           90           90     123.2501    1.4467117 
  119000    301.97267   -106760.75   -108520.49   -3227.6556    21939.121    20.802396    22.248362    56.683076           90           90     123.2501    1.4457726 
  120000    296.50208   -106796.46   -108524.32   -452.78935    21777.002    20.639798    22.265654     56.66342           90           90     123.2501    1.4565357 
  121000     295.9831   -106835.99   -108560.83   -777.56734    21584.173    20.632639    22.433214    55.761536           90           90     123.2501    1.4695481 
  122000    299.36071    -106868.7   -108613.22   -1134.0152    21318.898     20.71226    22.261238    55.288339           90           90     123.2501     1.487834 
  123000    305.17385   -106721.72   -108500.12    1728.4006    21105.552    20.881368    22.217136    54.399546           90           90     123.2501    1.5028738 
  124000    293.02036    -106890.5   -108598.07    -1179.601    21101.373    20.631999    22.350604    54.717433           90           90     123.2501    1.5031714 
  125000    303.26224   -106813.97   -108581.23   -2119.4563    21301.675    20.774074    22.321409    54.930818           90           90     123.2501     1.489037 
  126000    300.10104    -106854.1   -108602.93    670.36978    21117.311    20.791903    22.238222    54.612229           90           90     123.2501    1.5020369 
  127000    302.94204   -106891.76   -108657.15   -977.67188    21031.516    20.712093    22.279068     54.49983           90           90     123.2501    1.5081643 
  128000    301.96287   -106860.28   -108619.96    1168.1131     21076.02    20.756452    22.207808     54.67331           90           90     123.2501    1.5049797 
  129000     300.1859   -106888.78   -108638.11    1070.4243    21026.711    20.747075    22.279747    54.393849           90           90     123.2501    1.5085089 
  130000    292.86487   -106971.76   -108678.43     343.0352    21032.637    20.722788    22.267559    54.502763           90           90     123.2501    1.5080839 
  131000    307.32437   -106892.72   -108683.65    546.60038     21084.93    20.741767    22.267004     54.58964           90           90     123.2501    1.5043437 
  132000    305.13908   -106846.86   -108625.05    112.06218    21143.442    20.834574    22.303193    54.408857           90           90     123.2501    1.5001806 
  133000    304.72053   -106894.27   -108670.03    532.94045    21192.737    20.864016    22.267497    54.546053           90           90     123.2501    1.4966911 
  134000    291.32571   -107003.97   -108701.67   -500.24396    21278.866    20.742758    22.241167    55.153108           90           90     123.2501    1.4906331 
  135000    304.46124   -106891.34   -108665.58    461.55663    21312.702    20.781281    22.336282    54.903612           90           90     123.2501    1.4882665 
  136000    298.71362   -106901.21   -108641.95   -389.43014    21245.045    20.775606    22.204394    55.069434           90           90     123.2501    1.4930061 
  137000    294.90199   -106990.39   -108708.93   -289.95452    21167.765    20.734399    22.350423    54.618956           90           90     123.2501    1.4984568 
  138000     298.5722   -106960.73   -108700.66    656.97413    21289.091    20.698643    22.382094    54.949039           90           90     123.2501    1.4899171 
  139000    296.19672   -107003.09   -108729.17    846.65955     21248.57    20.722334    22.194542    55.244679           90           90     123.2501    1.4927584 
  140000    299.41146   -106925.48   -108670.29   -440.81406    21312.478    20.767026    22.170464    55.351633           90           90     123.2501    1.4882822 
  141000    294.45974   -106953.17   -108669.13    3895.3461    21176.058    20.679902    22.195422    55.166933           90           90     123.2501    1.4978699 
  142000      306.183   -106906.54   -108690.82    555.17639     21286.25    20.673309    22.229558      55.3865           90           90     123.2501     1.490116 
  143000    294.66763   -106948.16   -108665.33    2584.0367    21190.861    20.689268     22.28431    54.960399           90           90     123.2501    1.4968236 
  144000    303.43205   -106887.55    -108655.8    2746.3312    21255.771    20.749325    22.169624    55.253544           90           90     123.2501    1.4922527 
  145000    302.13428   -106991.67   -108752.36   -640.36424    21442.988    20.751704     22.20521    55.644499           90           90     123.2501    1.4792239 
  146000    301.42131    -106934.7   -108691.23    1469.6232     21382.33    20.772535    22.198448    55.448334           90           90     123.2501    1.4834202 
  147000    294.19453   -106969.71   -108684.12    -1072.835    21434.446    20.836837    22.262986    55.251317           90           90     123.2501    1.4798135 
  148000    299.97173   -106928.91   -108676.99    484.47204    21249.735    20.701816     22.26011    55.139567           90           90     123.2501    1.4926765 
  149000    299.10591   -106955.12   -108698.15    796.79504    21226.302    20.768077    22.208734    55.030039           90           90     123.2501    1.4943244 
  150000    298.19698   -106991.26   -108728.99   -2629.8029    21195.457    20.761896    22.234685     54.90228           90           90     123.2501    1.4964991 
  151000    310.75406   -106942.87   -108753.78    1563.5727    21005.232    20.627804    22.167378    54.929512           90           90     123.2501    1.5100515 
  152000    298.44915   -106966.67   -108705.88   -259.98043    21173.592      20.7181    22.252999    54.916351           90           90     123.2501    1.4980444 
  153000    301.75389   -106874.45   -108632.92    1049.2569     21089.77    20.774225    22.232279    54.602007           90           90     123.2501    1.5039985 
  154000     297.3741    -106989.2   -108722.14    1757.2869    21131.368    20.760828    22.253561    54.692656           90           90     123.2501    1.5010378 
  155000    301.85393   -106980.43   -108739.48   -808.78655    21198.276     20.67181    22.348749    54.867402           90           90     123.2501    1.4963001 
  156000     303.9249    -106979.4   -108750.51     1582.493    21150.113    20.832063     22.16301    54.776874           90           90     123.2501    1.4997074 
  157000    301.43175   -106973.38   -108729.97    -733.9499    21184.187    20.721887    22.217076    55.022609           90           90     123.2501    1.4972952 
  158000    302.18671   -107023.85   -108784.84   -1341.2449      21124.6    20.686451    22.299338    54.759074           90           90     123.2501    1.5015187 
  159000    291.30474   -107071.31   -108768.88    1287.3474    21166.762    20.781019    22.308021     54.59742           90           90     123.2501    1.4985278 
  160000     296.9639   -107016.51   -108747.07   -799.33373    21059.691    20.739285    22.241738    54.592764           90           90     123.2501    1.5061466 
  161000    300.87127   -106972.23   -108725.55   -28.574853    21237.416    20.841643    22.211084    54.858705           90           90     123.2501    1.4935424 
  162000    300.85854   -106970.14   -108723.38   -655.59745    21261.116    20.704234    22.290486    55.087483           90           90     123.2501    1.4918775 
  163000    297.92015   -107085.19   -108821.32   -940.01288    21239.283    20.780087    22.219965    55.004054           90           90     123.2501    1.4934111 
  164000    294.49168   -107073.91   -108790.05    -187.4002    21270.585    20.812926    22.214005    55.012958           90           90     123.2501    1.4912134 
  165000    309.51161   -106974.15   -108777.83   -2931.4912    21308.635    20.810666     22.27086    54.976645           90           90     123.2501    1.4885506 
  166000     297.2172   -106963.66   -108695.68   -546.54936     21321.81    20.755432    22.334599    54.999623           90           90     123.2501    1.4876308 
  167000    300.07965   -107031.65   -108780.36    -1629.543    21396.107    20.905908    22.224818    55.064678           90           90     123.2501    1.4824651 
  168000    306.78916   -106926.85   -108714.66   -276.52502    21400.923    20.762144     22.15309    55.638009           90           90     123.2501    1.4821314 
  169000    307.84991   -106946.13   -108740.12   -526.85725    21370.034    20.707562    22.298922    55.339847           90           90     123.2501    1.4842738 
  170000    285.16781   -107149.98   -108811.79    -2190.108    21276.159    20.822633    22.307466    54.771284           90           90     123.2501    1.4908227 
  171000    296.00513   -107025.08   -108750.04   -500.11663    21247.408     20.71563    22.254084    55.111684           90           90     123.2501      1.49284 
  172000    293.33432    -107065.5    -108774.9    -239.1104    21421.858    20.696686    22.152012    55.871293           90           90     123.2501     1.480683 
  173000    298.24055   -106976.51   -108714.51   -934.62338    21470.804    20.681408    22.387066    55.451924           90           90     123.2501    1.4773076 
  174000    306.30909   -106897.12   -108682.13    1187.7755    21375.848     20.63678    22.319493    55.493572           90           90     123.2501    1.4838701 
  175000    300.08938    -106981.7   -108730.46    765.43283     21445.41    20.727685    22.272256    55.547554           90           90     123.2501    1.4790569 
  176000    297.30428   -107017.13   -108749.67    1192.4932    21582.344    20.675286    22.278815    56.027414           90           90     123.2501    1.4696727 
  177000    302.14014   -106938.59    -108699.3    338.85753    21624.094    20.733725    22.276365    55.983732           90           90     123.2501    1.4668352 
  178000    303.93855   -106959.05   -108730.25    1348.6598     21476.99    20.620319    22.285474    55.885837           90           90     123.2501     1.476882 
  179000    294.85534   -107049.05   -108767.31   -370.48649     21591.82    20.627941    22.305826    56.112631           90           90     123.2501    1.4690277 
  180000    298.54953   -107001.96   -108741.75   -1522.7204    21723.814    20.797071    22.233116    56.179665           90           90     123.2501    1.4601019 
  181000    292.62501   -107099.79   -108805.06    2066.8049    21309.754    20.647168    22.188395    55.620853           90           90     123.2501    1.4884725 
  182000    295.28602   -106893.51   -108614.28   -996.18376    21440.762    20.679324    22.321212    55.543301           90           90     123.2501    1.4793775 
  183000    306.57874   -106855.51   -108642.09     1105.309     21412.01    20.605869    22.242118    55.864505           90           90     123.2501     1.481364 
  184000    307.10305   -106901.42   -108691.05   -1047.2339    21546.113     20.71087    22.338444    55.688209           90           90     123.2501     1.472144 
  185000    305.70226   -106925.93   -108707.41   -1352.2686    21577.269    20.759878    22.195824    55.994578           90           90     123.2501    1.4700184 
  186000    301.72454   -106970.82   -108729.12    1568.3429    21360.293    20.757059    22.214128     55.39336           90           90     123.2501    1.4849507 
  187000    291.61195   -106984.53   -108683.89    94.440754    21209.576    20.751551     22.23977    54.953673           90           90     123.2501    1.4955028 
  188000    303.26676   -106986.48   -108753.76   -774.24954    21331.909    20.770829     22.26657    55.152876           90           90     123.2501    1.4869265 
  189000    294.00917   -107092.35   -108805.68   -34.906717    21173.823    20.696016    22.255052    54.970477           90           90     123.2501     1.498028 
  190000    300.85087   -107063.93   -108817.13   -2520.3725    21182.623    20.680715    22.203048     55.16291           90           90     123.2501    1.4974057 
  191000     293.0209   -107058.81   -108766.39    1189.3047    21030.711    20.723182     22.09728    54.916678           90           90     123.2501     1.508222 
  192000    297.50106    -106927.8   -108661.48   -120.91233     21160.55     20.68263    22.215659     55.06905           90           90     123.2501    1.4989677 
  193000    308.12498   -106943.24   -108738.83   -763.90758    21277.966     20.66491     22.22846    55.390182           90           90     123.2501    1.4906961 
  194000    296.05108    -107029.6   -108754.83   -497.54104    21272.942    20.797543    22.216189    55.054338           90           90     123.2501    1.4910482 
  195000    292.70942   -107073.58   -108779.34   -534.56801    21187.809    20.714192     22.24739    54.977448           90           90     123.2501    1.4970392 
  196000    296.17829    -107030.8   -108756.77    257.78261    21259.708    20.721293    22.198188    55.267333           90           90     123.2501    1.4919763 
  197000    294.50032   -107075.41    -108791.6   -1595.8489    21261.222    20.623113    22.235974    55.440026           90           90     123.2501    1.4918701 
  198000    295.17174   -107001.93   -108722.04    2017.5011     21264.69    20.573004    22.298909     55.42725           90           90     123.2501    1.4916268 
  199000    309.08176   -106963.34    -108764.5    534.06918    21349.676    20.660852    22.349956    55.285595           90           90     123.2501    1.4856891 
  200000    293.78272   -107131.15   -108843.17    558.25772    21410.834    20.692583    22.282719    55.525985           90           90     123.2501    1.4814454 
  200030    292.37953    -107129.6   -108833.44     2315.509    21410.932    20.695456    22.259122    55.577389           90           90     123.2501    1.4814386 
Loop time of 646.457 on 5 procs for 100000 steps with 1956 atoms

Performance: 1.337 ns/day, 17.957 hours/ns, 154.689 timesteps/s
96.6% CPU use with 5 MPI tasks x 1 OpenMP threads

MPI task timing breakdown:
Section |  min time  |  avg time  |  max time  |%varavg| %total
---------------------------------------------------------------
Pair    | 219.12     | 287.09     | 349.91     | 330.9 | 44.41
Bond    | 0.82959    | 1.2882     | 1.6431     |  31.6 |  0.20
Kspace  | 252.47     | 302.2      | 351.98     | 234.2 | 46.75
Neigh   | 6.8263     | 6.8301     | 6.8345     |   0.1 |  1.06
Comm    | 16.494     | 39.922     | 57.543     | 248.5 |  6.18
Output  | 0.074146   | 0.074448   | 0.07557    |   0.2 |  0.01
Modify  | 7.5827     | 8.6579     | 9.76       |  25.1 |  1.34
Other   |            | 0.4031     |            |       |  0.06

Nlocal:        391.200 ave         425 max         338 min
Histogram: 1 1 0 0 0 0 0 0 0 3
Nghost:        12972.8 ave       13149 max       12691 min
Histogram: 1 0 1 0 0 0 0 0 1 2
Neighs:         0.00000 ave           0 max           0 min
Histogram: 5 0 0 0 0 0 0 0 0 0

Total # of neighbors = 0
Ave neighs/atom = 0.0000000
Ave special neighs/atom = 1.5306748
Neighbor list builds = 576
Dangerous builds = 0
System init for write_data ...
Ewald initialization ...
  using 12-bit tables for long-range coulomb (../kspace.cpp:340)
  G vector (1/distance) = 0.25515004
  estimated absolute RMS force accuracy = 0.0034365277
  estimated relative force accuracy = 1.0349001e-05
  KSpace vectors: actual max1d max3d = 1037 13 9841
                  kxmax kymax kzmax  = 6 8 13
Hybrid pair style last /omp style lj/cut/coul/long
Last active /omp style is kspace_style ewald/omp
WARNING: Fix recenter should come after all other integration fixes (../fix_recenter.cpp:133)
System init for write_restart ...
Ewald initialization ...
  using 12-bit tables for long-range coulomb (../kspace.cpp:340)
  G vector (1/distance) = 0.25515004
  estimated absolute RMS force accuracy = 0.0034365277
  estimated relative force accuracy = 1.0349001e-05
  KSpace vectors: actual max1d max3d = 1037 13 9841
                  kxmax kymax kzmax  = 6 8 13
Hybrid pair style last /omp style lj/cut/coul/long
Last active /omp style is kspace_style ewald/omp
WARNING: Fix recenter should come after all other integration fixes (../fix_recenter.cpp:133)
Total wall time: 0:23:02
