LAMMPS (20 Sep 2021)
  using 1 OpenMP thread(s) per MPI task
using multi-threaded neighbor list subroutines
using multi-threaded neighbor list subroutines
Reading data file ...
  triclinic box = (0.0000000 0.0000000 0.0000000) to (20.205600 18.628755 58.432518) with tilt (-12.213593 0.0000000 0.0000000)
WARNING: Triclinic box skew is large (../domain.cpp:219)
  1 by 1 by 5 MPI processor grid
  reading atoms ...
  1974 atoms
  scanning bonds ...
  2 = max bonds/atom
  scanning angles ...
  1 = max angles/atom
  reading bonds ...
  1016 bonds
  reading angles ...
  535 angles
Finding 1-2 1-3 1-4 neighbors ...
  special bond factors lj:    0        0        0       
  special bond factors coul:  0        0        0       
     2 = max # of 1-2 neighbors
     1 = max # of 1-3 neighbors
     1 = max # of 1-4 neighbors
     2 = max # of special neighbors
  special bonds CPU = 0.003 seconds
  read_data CPU = 0.066 seconds
Replicating atoms ...
  triclinic box = (0.0000000 0.0000000 0.0000000) to (20.205600 18.628755 58.432518) with tilt (-12.213593 0.0000000 0.0000000)
WARNING: Triclinic box skew is large (../domain.cpp:219)
  1 by 1 by 5 MPI processor grid
  1974 atoms
  1016 bonds
  535 angles
Finding 1-2 1-3 1-4 neighbors ...
  special bond factors lj:    0        0        0       
  special bond factors coul:  0        0        0       
     2 = max # of 1-2 neighbors
     1 = max # of 1-3 neighbors
     1 = max # of 1-4 neighbors
     2 = max # of special neighbors
  special bonds CPU = 0.013 seconds
  replicate CPU = 0.016 seconds
1443 atoms in group solution
WARNING: Using 'neigh_modify every 1 delay 0 check yes' setting during minimization (../min.cpp:188)
Ewald initialization ...
  using 12-bit tables for long-range coulomb (../kspace.cpp:340)
  G vector (1/distance) = 0.2553076
  estimated absolute RMS force accuracy = 0.0036430179
  estimated relative force accuracy = 1.097084e-05
  KSpace vectors: actual max1d max3d = 1149 14 12194
                  kxmax kymax kzmax  = 6 8 14
Hybrid pair style last /omp style lj/cut/coul/long
Last active /omp style is kspace_style ewald/omp
Neighbor list info ...
  update every 1 steps, delay 0 steps, check yes
  max neighbors/atom: 2000, page size: 100000
  master list distance cutoff = 17
  ghost atom cutoff = 17
  binsize = 8.5, bins = 4 3 7
  4 neighbor lists, perpetual/occasional/extra = 4 0 0
  (1) pair coul/long, perpetual, skip from (4)
      attributes: half, newton on, omp
      pair build: skip/omp
      stencil: none
      bin: none
  (2) pair lj/cut/coul/long, perpetual, skip from (4)
      attributes: half, newton on, omp
      pair build: skip/omp
      stencil: none
      bin: none
  (3) pair lj/mdf, perpetual, copy from (1)
      attributes: half, newton on, omp
      pair build: copy
      stencil: none
      bin: none
  (4) neighbor class addition, perpetual
      attributes: half, newton on, omp
      pair build: half/bin/newton/tri/omp
      stencil: half/bin/3d/tri
      bin: standard
Setting up cg style minimization ...
  Unit style    : real
  Current step  : 0
WARNING: Inconsistent image flags (../domain.cpp:814)
Per MPI rank memory allocation (min/avg/max) = 35.70 | 36.25 | 37.03 Mbytes
Step Temp TotEng PotEng Press Volume Cella Cellb Cellc CellAlpha CellBeta CellGamma Density 
       0          100   -73638.186     -74226.3    424201.63    21994.302      20.2056      22.2756    58.432518           90           90     123.2501    1.4693631 
      30          100    -112863.4   -113451.51   -737.49368    21994.302      20.2056      22.2756    58.432518           90           90     123.2501    1.4693631 
Loop time of 0.544909 on 5 procs for 30 steps with 1974 atoms

89.8% CPU use with 5 MPI tasks x 1 OpenMP threads

Minimization stats:
  Stopping criterion = max iterations
  Energy initial, next-to-last, final = 
     -74226.2998921873  -113352.862506353  -113451.510809372
  Force two-norm initial, final = 119929.36 475.85098
  Force max component initial, final = 23164.795 202.91307
  Final line search alpha, max atom move = 0.0014727479 0.29883979
  Iterations, force evaluations = 30 46

MPI task timing breakdown:
Section |  min time  |  avg time  |  max time  |%varavg| %total
---------------------------------------------------------------
Pair    | 0.15488    | 0.21921    | 0.29903    |  13.2 | 40.23
Bond    | 0.00025593 | 0.0004431  | 0.00056652 |   0.0 |  0.08
Kspace  | 0.18033    | 0.25362    | 0.30991    |  11.3 | 46.54
Neigh   | 0.025602   | 0.025622   | 0.02564    |   0.0 |  4.70
Comm    | 0.029008   | 0.040919   | 0.051189   |   4.2 |  7.51
Output  | 4.4908e-05 | 4.8191e-05 | 6.0901e-05 |   0.0 |  0.01
Modify  | 0.00045249 | 0.0005075  | 0.0005865  |   0.0 |  0.09
Other   |            | 0.004535   |            |       |  0.83

Nlocal:        394.800 ave         466 max         316 min
Histogram: 1 0 0 0 2 0 0 1 0 1
Nghost:        12698.6 ave       13428 max       11791 min
Histogram: 1 1 0 0 0 0 0 1 1 1
Neighs:         0.00000 ave           0 max           0 min
Histogram: 5 0 0 0 0 0 0 0 0 0

Total # of neighbors = 0
Ave neighs/atom = 0.0000000
Ave special neighs/atom = 1.5167173
Neighbor list builds = 2
Dangerous builds = 0
Ewald initialization ...
  using 12-bit tables for long-range coulomb (../kspace.cpp:340)
  G vector (1/distance) = 0.2553076
  estimated absolute RMS force accuracy = 0.0036430179
  estimated relative force accuracy = 1.097084e-05
  KSpace vectors: actual max1d max3d = 1149 14 12194
                  kxmax kymax kzmax  = 6 8 14
Hybrid pair style last /omp style lj/cut/coul/long
Last active /omp style is kspace_style ewald/omp
Setting up Verlet run ...
  Unit style    : real
  Current step  : 30
  Time step     : 0.01
WARNING: Inconsistent image flags (../domain.cpp:814)
Per MPI rank memory allocation (min/avg/max) = 34.59 | 35.19 | 36.03 Mbytes
Step Temp TotEng PotEng Press Volume Cella Cellb Cellc CellAlpha CellBeta CellGamma Density 
      30          100    -112863.4   -113451.51   -737.49368    21994.302      20.2056      22.2756    58.432518           90           90     123.2501    1.4693631 
    1000    104.48827   -112982.84   -113597.35    12.934933    22182.113    20.303594    21.842405    59.810184           90           90     123.2501    1.4569223 
    2000    100.45935   -113204.39    -113795.2    26.738209    22595.721    20.447944    21.724944    60.822389           90           90     123.2501    1.4302538 
    3000    108.13134   -113363.26   -113999.19    26.732248    22658.887     20.52141    21.715675    60.800006           90           90     123.2501    1.4262667 
    4000    113.42305   -113460.08   -114127.14    34.135949      22463.6    20.489957    21.665946    60.507087           90           90     123.2501    1.4386659 
    5000    110.18588   -113606.13   -114254.15    135.82762    22384.776    20.401346     21.68275    60.509722           90           90     123.2501    1.4437319 
    6000       110.74    -113740.8   -114392.07   -13.003286    22415.544    20.357788    21.732076    60.584715           90           90     123.2501    1.4417502 
    7000    117.98906   -113812.47   -114506.38    83.278404    22387.118    20.319288    21.865607    60.252319           90           90     123.2501    1.4435808 
    8000    119.01773   -113887.83   -114587.79    84.580729    22311.106    20.365705    21.849118    59.956093           90           90     123.2501     1.448499 
    9000    116.74855   -113963.03   -114649.64    183.53663    22306.067    20.467765     21.80442    59.765924           90           90     123.2501    1.4488262 
   10000    123.26665   -113974.33   -114699.28    217.52894    22369.022    20.558891     21.76488    59.777345           90           90     123.2501    1.4447487 
   11000    118.77817   -114061.93   -114760.48    133.20705    22433.224    20.533731    21.803387    59.916364           90           90     123.2501    1.4406139 
   12000    123.35441   -114093.28   -114818.74    105.69356    22443.107    20.504621    21.864883    59.859028           90           90     123.2501    1.4399796 
   13000    129.71152   -114087.04   -114849.89     17.33313    22457.578    20.518109    21.866461     59.85393           90           90     123.2501    1.4390517 
   14000    126.80902   -114113.08   -114858.86    52.623357    22483.441    20.556752    21.836583    59.892049           90           90     123.2501    1.4373963 
   15000     132.4709   -114102.88   -114881.96    71.335064    22504.763    20.596776    21.804413    59.920631           90           90     123.2501    1.4360344 
   16000    133.23036   -114123.47   -114907.01    29.711248    22532.257    20.602731    21.852568    59.844328           90           90     123.2501    1.4342822 
   17000    134.20263   -114141.94    -114931.2   -183.63245     22551.33    20.600302    21.836152    59.947081           90           90     123.2501    1.4330691 
   18000    134.12849   -114188.14   -114976.97     -167.135    22511.455    20.624411    21.799442    59.871786           90           90     123.2501    1.4356076 
   19000    140.32236   -114167.51   -114992.77   -153.42344    22447.787    20.642811    21.782543    59.695514           90           90     123.2501    1.4396793 
   20000     139.6262   -114146.58   -114967.74   -197.05285    22400.714    20.594137    21.768859    59.748662           90           90     123.2501    1.4427047 
   21000    139.42279   -114164.47   -114984.44   -121.29687    22372.096    20.596395    21.733482    59.762909           90           90     123.2501    1.4445502 
   22000    144.96578   -114143.43   -114995.99   -100.80999    22405.037    20.627117    21.746396    59.726272           90           90     123.2501    1.4424264 
   23000    142.41464   -114115.76   -114953.32   -58.016124    22530.376    20.650334    21.796284    59.855557           90           90     123.2501     1.434402 
   24000    148.86891   -114072.41   -114947.93   -106.96393    22601.683    20.665802    21.744717    60.142342           90           90     123.2501    1.4298765 
   25000    150.75968   -114062.73   -114949.37    6.2150607    22556.315    20.689481    21.739564    59.967138           90           90     123.2501    1.4327524 
   26000    151.44038   -114071.72   -114962.37    145.25777    22469.612    20.706635    21.724247     59.72923           90           90     123.2501    1.4382809 
   27000    155.11001   -114080.14   -114992.36    71.920075    22426.262    20.666488    21.757499    59.638515           90           90     123.2501    1.4410612 
   28000    157.35522   -114048.18   -114973.61    185.06686    22354.017    20.619236    21.832978    59.376639           90           90     123.2501    1.4457185 
   29000    156.79214   -114051.95   -114974.06    186.41123    22258.813    20.551047    21.815257    59.368122           90           90     123.2501     1.451902 
   30000    162.41671   -114042.64   -114997.84     234.6686     22214.66    20.561768    21.783417     59.30602           90           90     123.2501    1.4547877 
   31000    163.58804    -114048.7   -115010.78    178.33069    22231.368    20.571883     21.76171    59.380616           90           90     123.2501    1.4536944 
   32000    163.20252   -114070.73   -115030.55    239.99413    22221.277    20.563218    21.787845    59.307447           90           90     123.2501    1.4543546 
   33000    166.00337   -114040.88   -115017.17    62.871679    22242.348    20.538541    21.835514     59.30526           90           90     123.2501    1.4529768 
   34000    174.05279   -113974.78   -114998.41   -62.355744    22305.448    20.568954    21.872371    59.285498           90           90     123.2501    1.4488664 
   35000    167.12708   -113990.21   -114973.11   -99.858976    22322.074    20.604394    21.900435    59.151744           90           90     123.2501    1.4477873 
   36000    171.54926   -113955.25   -114964.16   -55.166363    22284.628    20.581691    21.867524    59.206624           90           90     123.2501    1.4502201 
   37000    175.57402   -113943.12    -114975.7   -88.449235    22272.423    20.592389    21.861666    59.159305           90           90     123.2501    1.4510148 
   38000    172.63791   -113957.23   -114972.54   -321.67643    22309.741    20.581202     21.89305    59.205647           90           90     123.2501    1.4485876 
   39000    179.54093   -113909.13   -114965.04   -292.73461    22289.721    20.537539    21.953323    59.115525           90           90     123.2501    1.4498887 
   40000     179.4848   -113914.98   -114970.55     -114.914    22158.389    20.532927    21.924307    58.858208           90           90     123.2501    1.4584821 
   41000    178.23222   -113919.03   -114967.24   -61.287221    22082.076    20.575052    21.903452    58.591142           90           90     123.2501    1.4635225 
   42000    185.44504   -113879.17    -114969.8   -14.221014    22176.424    20.591576    21.871026    58.881432           90           90     123.2501    1.4572961 
   43000    187.18458   -113820.18   -114921.04   -28.823004    22328.089    20.583777    21.938417    59.124405           90           90     123.2501    1.4473973 
   44000    185.33269   -113812.34   -114902.31      22.6074    22358.428    20.572326    21.975582    59.137515           90           90     123.2501    1.4454332 
   45000    190.06091   -113770.38   -114888.15    110.86076     22316.14    20.574783    22.031001    58.870152           90           90     123.2501    1.4481723 
   46000    194.09696   -113752.48   -114893.99    217.17804    22260.626    20.582805     22.01397    58.746235           90           90     123.2501    1.4517837 
   47000    192.91071   -113725.21   -114859.74    482.58477    22250.518    20.594485    22.014446    58.684987           90           90     123.2501    1.4524433 
   48000    204.53266   -113658.74   -114861.63    295.62861    22284.292     20.58938    22.009387    58.802152           90           90     123.2501    1.4502419 
   49000    198.22202   -113641.59   -114807.36    418.68456    22312.023    20.600855    22.010337    58.839992           90           90     123.2501    1.4484395 
   50000    201.63287   -113587.97    -114773.8    139.73575    22290.488     20.57469    22.036996    58.786751           90           90     123.2501    1.4498389 
   51000    203.77651   -113575.17   -114773.61    131.50175    22234.884    20.552068    22.010914    58.774217           90           90     123.2501    1.4534645 
   52000     204.0163   -113567.93   -114767.78    212.57623    22229.819    20.535413    21.993495    58.855062           90           90     123.2501    1.4537957 
   53000    202.28684   -113554.14   -114743.82    140.96554    22254.343    20.605524    22.024475    58.636918           90           90     123.2501    1.4521936 
   54000    213.32671   -113478.55   -114733.16    182.37452    22284.181    20.637886    22.058154    58.533957           90           90     123.2501    1.4502492 
   55000    204.77419   -113500.11   -114704.41    65.518077    22311.536    20.680849    22.017774     58.59132           90           90     123.2501    1.4484711 
   56000    215.26875   -113444.54   -114710.57    3.9319478    22338.679     20.66474     22.01546    58.714501           90           90     123.2501    1.4467111 
   57000    212.90812   -113477.92   -114730.06   -3.4252522    22302.685    20.638048    22.004348    58.725351           90           90     123.2501    1.4490459 
   58000    216.05971   -113482.87   -114753.55   -15.176363     22196.34     20.57774    21.966457    58.717732           90           90     123.2501    1.4559885 
   59000    218.92145   -113406.92   -114694.43   -112.82679    22168.317    20.518348    21.993506    58.741016           90           90     123.2501     1.457829 
   60000    218.34822    -113362.5   -114646.63   -102.13909    22242.347    20.571951    22.029896    58.686508           90           90     123.2501    1.4529768 
   61000    224.72309   -113331.21   -114652.83   -104.21289     22322.31    20.603698    22.076265    58.683221           90           90     123.2501     1.447772 
   62000    214.32814   -113356.09   -114616.58   -63.315459    22272.386    20.621854    22.025758    58.634572           90           90     123.2501    1.4510172 
   63000    227.26767   -113249.72   -114586.31   -20.952456    22184.194    20.578553    22.005446    58.579306           90           90     123.2501    1.4567857 
   64000    230.70573   -113205.24   -114562.05   -171.15211    22172.387      20.5861    22.060968     58.37937           90           90     123.2501    1.4575614 
   65000    223.97183   -113291.36   -114608.57   -129.02593    22222.775    20.556604    22.094229    58.507785           90           90     123.2501    1.4542565 
   66000    234.32741   -113215.51   -114593.62   -258.34169    22271.217    20.599291    22.063754    58.594636           90           90     123.2501    1.4510933 
   67000    230.33999   -113206.85   -114561.51   -221.34148    22277.988    20.585316    22.089947    58.582694           90           90     123.2501    1.4506523 
   68000    243.32508   -113132.49   -114563.51    -116.3414    22209.524    20.564217    22.080631    58.487249           90           90     123.2501    1.4551242 
   69000    238.37871   -113134.11   -114536.05   -145.82138    22102.811     20.59379    21.995745    58.346948           90           90     123.2501    1.4621496 
   70000    238.83914   -113144.63   -114549.28   -68.602147    22081.282    20.590308    22.019733     58.23646           90           90     123.2501    1.4635751 
   71000    242.06994   -113096.14   -114519.79    -193.4914    22174.891    20.587693    22.099491    58.279675           90           90     123.2501    1.4573968 
   72000    236.91438   -113150.48   -114543.81   -189.65631    22175.649    20.566035    22.099877    58.342022           90           90     123.2501     1.457347 
   73000    252.73566   -113027.11   -114513.48   -171.47305     22108.97    20.550709    22.049912    58.341883           90           90     123.2501    1.4617422 
   74000     252.8015   -112968.91   -114455.67   -121.25401    22073.051    20.555982    22.039031    58.260905           90           90     123.2501    1.4641209 
   75000    241.66926    -113011.9   -114433.19   -26.996067    22139.977     20.61783    22.062151    58.201201           90           90     123.2501     1.459695 
   76000    255.51077   -112919.05   -114421.74   -13.984766    22220.384    20.682141    22.056384    58.246166           90           90     123.2501     1.454413 
   77000    251.42103   -112935.49   -114414.14   -19.891678     22291.02    20.675376    22.115456    58.294317           90           90     123.2501    1.4498042 
   78000    244.33755   -112938.83   -114375.82   -38.098143    22299.187    20.644538    22.160572    58.283881           90           90     123.2501    1.4492733 
   79000    258.85666   -112870.17   -114392.54   -135.78385    22218.957    20.574341    22.169214     58.24961           90           90     123.2501    1.4545064 
   80000    260.72372   -112848.52   -114381.87   -65.768389    22125.366    20.548673    22.100303    58.257795           90           90     123.2501     1.460659 
   81000    260.85509    -112838.5   -114372.62   -146.89002    22142.506    20.562494     22.04368    58.413398           90           90     123.2501    1.4595283 
   82000     267.8909    -112802.3    -114377.8   -52.216714    22270.603    20.631163    22.141944    58.295914           90           90     123.2501    1.4511333 
   83000    264.54968   -112782.57   -114338.43    -55.14219    22336.755    20.650264    22.152103    58.388204           90           90     123.2501    1.4468357 
   84000    265.21521    -112788.4   -114348.17    10.983388    22237.731    20.637148    22.137882     58.20366           90           90     123.2501    1.4532785 
   85000    261.45308   -112821.55   -114359.19    13.137161    22138.265     20.58845    22.154779    58.036081           90           90     123.2501    1.4598079 
   86000    271.00312   -112787.44   -114381.25    73.244041     22163.25    20.547011    22.183389    58.143675           90           90     123.2501    1.4581623 
   87000    272.36174   -112694.38   -114296.18    65.061312    22281.896    20.566005    22.168934    58.439027           90           90     123.2501    1.4503979 
   88000    275.21883   -112675.67   -114294.27    126.64446    22323.798    20.561708    22.162633    58.577808           90           90     123.2501    1.4476755 
   89000     288.0162   -112569.33    -114263.2    38.712674    22305.389    20.504149    22.241405    58.485933           90           90     123.2501    1.4488703 
   90000    270.40413   -112713.09   -114303.38     200.1754    22207.769    20.470627    22.215658    58.392921           90           90     123.2501    1.4552392 
   91000    285.34173   -112595.71   -114273.84    144.22646    22170.736    20.488528    22.162801    58.383521           90           90     123.2501    1.4576699 
   92000    288.61617   -112559.51    -114256.9    382.83047    22223.461    20.481408    22.179031     58.49987           90           90     123.2501    1.4542116 
   93000    279.60905   -112598.38    -114242.8    227.13338    22318.038    20.471227    22.225277    58.655741           90           90     123.2501    1.4480491 
   94000    290.85166   -112500.54   -114211.07    398.47046    22351.674    20.486002    22.245442    58.648563           90           90     123.2501      1.44587 
   95000    288.95083   -112466.74    -114166.1    282.51368    22319.449     20.50632    22.189473    58.653556           90           90     123.2501    1.4479576 
   96000    272.51482   -112574.34   -114177.04    417.09897    22301.083    20.520265    22.192889    58.556449           90           90     123.2501      1.44915 
   97000    296.49638   -112428.08   -114171.81    369.59588    22309.463    20.552808    22.234639    58.375882           90           90     123.2501    1.4486057 
   98000    296.83781   -112396.81   -114142.55    183.70634    22320.074    20.581431    22.236935    58.316403           90           90     123.2501     1.447917 
   99000    295.65856   -112365.11   -114103.92    329.02359    22329.066    20.639729    22.172246    58.344842           90           90     123.2501    1.4473339 
  100000    304.10809   -112338.84   -114127.35    176.39775    22395.467    20.646658    22.220582    58.371455           90           90     123.2501    1.4430427 
  100030    304.08562   -112342.82   -114131.19    189.92615    22400.201     20.63081    22.253058    58.343369           90           90     123.2501    1.4427377 
Loop time of 735.286 on 5 procs for 100000 steps with 1974 atoms

Performance: 0.118 ns/day, 204.246 hours/ns, 136.002 timesteps/s
94.1% CPU use with 5 MPI tasks x 1 OpenMP threads

MPI task timing breakdown:
Section |  min time  |  avg time  |  max time  |%varavg| %total
---------------------------------------------------------------
Pair    | 195        | 281.85     | 407.88     | 448.8 | 38.33
Bond    | 0.766      | 1.2948     | 1.7892     |  35.5 |  0.18
Kspace  | 299.28     | 388.79     | 445.57     | 284.7 | 52.88
Neigh   | 0.73509    | 0.73538    | 0.73593    |   0.0 |  0.10
Comm    | 16.9       | 52.943     | 85.423     | 300.4 |  7.20
Output  | 0.076422   | 0.076746   | 0.077869   |   0.2 |  0.01
Modify  | 8.2851     | 9.2399     | 10.269     |  21.1 |  1.26
Other   |            | 0.3553     |            |       |  0.05

Nlocal:        394.800 ave         453 max         336 min
Histogram: 1 0 1 0 0 1 1 0 0 1
Nghost:        12594.4 ave       12892 max       12159 min
Histogram: 2 0 0 0 0 0 0 0 1 2
Neighs:         0.00000 ave           0 max           0 min
Histogram: 5 0 0 0 0 0 0 0 0 0

Total # of neighbors = 0
Ave neighs/atom = 0.0000000
Ave special neighs/atom = 1.5167173
Neighbor list builds = 58
Dangerous builds = 0
System init for write_restart ...
Ewald initialization ...
  using 12-bit tables for long-range coulomb (../kspace.cpp:340)
  G vector (1/distance) = 0.25518322
  estimated absolute RMS force accuracy = 0.0036236971
  estimated relative force accuracy = 1.0912656e-05
  KSpace vectors: actual max1d max3d = 1102 14 12194
                  kxmax kymax kzmax  = 6 8 14
Hybrid pair style last /omp style lj/cut/coul/long
Last active /omp style is kspace_style ewald/omp
Ewald initialization ...
  using 12-bit tables for long-range coulomb (../kspace.cpp:340)
  G vector (1/distance) = 0.25518322
  estimated absolute RMS force accuracy = 0.0036236971
  estimated relative force accuracy = 1.0912656e-05
  KSpace vectors: actual max1d max3d = 1102 14 12194
                  kxmax kymax kzmax  = 6 8 14
Hybrid pair style last /omp style lj/cut/coul/long
Last active /omp style is kspace_style ewald/omp
WARNING: Fix recenter should come after all other integration fixes (../fix_recenter.cpp:133)
Setting up Verlet run ...
  Unit style    : real
  Current step  : 100030
  Time step     : 0.1
WARNING: Inconsistent image flags (../domain.cpp:814)
Per MPI rank memory allocation (min/avg/max) = 34.60 | 35.23 | 36.20 Mbytes
Step Temp TotEng PotEng Press Volume Cella Cellb Cellc CellAlpha CellBeta CellGamma Density 
  100030    304.08562   -112342.82   -114131.19    189.89585    22400.201     20.63081    22.253058    58.343369           90           90     123.2501    1.4427377 
  101000    306.91599   -112230.43   -114035.44    275.81821     22641.94    20.661537    22.244811    58.907131           90           90     123.2501    1.4273342 
  102000    306.12394   -112213.46   -114013.82   -1795.7136    22611.104    20.751745     22.22879    58.613399           90           90     123.2501    1.4292807 
  103000    303.98373   -112299.03    -114086.8   -1082.5317    22680.205    20.740233    22.213756    58.864972           90           90     123.2501     1.424926 
  104000    295.96844   -112302.53   -114043.16   -86.914292    22543.663    20.670548    22.095272    59.022652           90           90     123.2501    1.4335565 
  105000    296.88562    -112264.8   -114010.82   -1731.2801    22606.354    20.893962    22.018872    58.757084           90           90     123.2501     1.429581 
  106000    299.97303   -112313.31   -114077.49   -106.95128    22398.422    20.764199    22.080049    58.418151           90           90     123.2501    1.4428523 
  107000    298.54739   -112311.44   -114067.23   -1767.6963    22412.624    20.713378    22.135868    58.450845           90           90     123.2501    1.4419381 
  108000    304.44687   -112315.28   -114105.77    -1291.275    22402.786     20.72858    22.109605    58.451689           90           90     123.2501    1.4425713 
  109000    305.34539   -112392.32    -114188.1    15.301823    22243.312    20.644119    22.175936    58.098741           90           90     123.2501    1.4529138 
  110000    287.72134   -112407.48    -114099.6   -3041.7954    22440.523    20.694869    22.159803     58.51268           90           90     123.2501    1.4401453 
  111000    310.93494   -112388.11   -114216.77   -1343.7303    22303.498    20.687311    22.050996    58.463704           90           90     123.2501    1.4489931 
  112000    306.50647   -112440.14   -114242.74   -2181.4913    22216.703    20.735902    22.059462    58.077423           90           90     123.2501     1.454654 
  113000    315.71244   -112304.43   -114161.17   -1453.5184    22412.921    20.773347     22.10264    58.370499           90           90     123.2501     1.441919 
  114000    304.28535   -112408.05   -114197.59   -505.54655    22545.982     20.67488    22.170168    58.816985           90           90     123.2501    1.4334091 
  115000    305.44351   -112407.02   -114203.38   -1125.8348     22423.42    20.641343    22.177823    58.572072           90           90     123.2501    1.4412438 
  116000    291.63784   -112480.01   -114195.17   -1205.9678    22592.948    20.832062    22.115653    58.638986           90           90     123.2501    1.4304293 
  117000    307.89112   -112386.91   -114197.66    996.00498    22373.312    20.789824    22.033825    58.402999           90           90     123.2501    1.4444717 
  118000    295.14214   -112561.28   -114297.05   -443.29665    22416.143    20.769691    22.173677    58.202108           90           90     123.2501    1.4417117 
  119000    296.24595   -112444.77   -114187.03    1337.3572     22413.26    20.699688    22.180122     58.37446           90           90     123.2501    1.4418971 
  120000     297.1171   -112462.82   -114210.21    297.69779    22466.216    20.863496    22.083929    58.305844           90           90     123.2501    1.4384984 
  121000    296.54252   -112428.87   -114172.88   -89.031844    22387.081    20.729005    22.124957    58.368988           90           90     123.2501    1.4435833 
  122000    290.83285   -112437.54   -114147.97    880.78404    22298.969    20.626902    22.250583    58.097169           90           90     123.2501    1.4492874 
  123000    309.98577   -112380.78   -114203.84   -1458.9593    22457.806    20.602259    22.227501     58.64182           90           90     123.2501    1.4390371 
  124000     304.7011   -112415.28   -114207.27    939.56687    22258.937    20.665421    22.094549    58.293563           90           90     123.2501    1.4518939 
  125000    303.65255   -112438.37   -114224.19    534.98014     22443.04    20.773543    21.939055    58.884201           90           90     123.2501    1.4399838 
  126000    302.04111   -112427.51   -114203.86   -361.52015    22574.079    20.743641    22.099894    58.881716           90           90     123.2501     1.431625 
  127000    295.09995   -112447.66   -114183.18   -416.13695    22523.649    20.835778    22.069783     58.57018           90           90     123.2501    1.4348303 
  128000     294.0016   -112509.03    -114238.1   -1036.0591    22281.428    20.767754    22.141679    57.941339           90           90     123.2501    1.4504284 
  129000    310.83858   -112413.33   -114241.41   -260.13485    22210.323    20.620372     22.16133    58.117664           90           90     123.2501    1.4550718 
  130000    296.41679   -112490.48   -114233.75   -79.119958    22456.972    20.717637    22.132442    58.563529           90           90     123.2501    1.4390905 
  131000    305.67994   -112432.26   -114230.01   -1091.5745     22320.78    20.685754    22.039911    58.542834           90           90     123.2501    1.4478712 
  132000    300.45955   -112451.11   -114218.15   -1100.9485    22317.578    20.752798    22.228254    57.850969           90           90     123.2501     1.448079 
  133000    303.09095   -112486.76   -114269.28    434.79022    22015.528    20.567934    22.190163    57.679771           90           90     123.2501    1.4679464 
  134000    304.37442   -112540.32   -114330.39     1194.836    21857.081    20.680431    22.100217    57.184933           90           90     123.2501    1.4785879 
  135000    309.87692   -112429.63   -114252.05    2189.6863    21852.083    20.699949    22.216014    56.820235           90           90     123.2501     1.478926 
  136000    295.56277   -112577.82   -114316.06   -646.72928    21923.765    20.704774    22.264028    56.870425           90           90     123.2501    1.4740906 
  137000    311.70199   -112422.18   -114255.34     1333.671    21998.996      20.6345    22.274988    57.231748           90           90     123.2501    1.4690496 
  138000    306.43575   -112501.69   -114303.88    1313.5372    21829.558    20.633189    22.159505    57.090535           90           90     123.2501    1.4804521 
  139000    307.71909   -112517.02   -114326.76     -507.724    21949.937    20.716456    22.217169    57.026233           90           90     123.2501    1.4723329 
  140000    303.46923   -112507.31   -114292.05   -512.16308    21993.846    20.719912    22.267912     57.00059           90           90     123.2501    1.4693935 
  141000    297.69323    -112504.8   -114255.57   -1612.6149    22083.737    20.765671    22.271799    57.097474           90           90     123.2501    1.4634124 
  142000    300.91747   -112549.32   -114319.06   -928.97249     22186.49     20.73863    22.194256    57.638613           90           90     123.2501    1.4566349 
  143000    301.88568    -112545.1   -114320.53   -893.93749    22154.347    20.715072      22.1711    57.680746           90           90     123.2501    1.4587482 
  144000    307.12448   -112471.93   -114278.17   -1088.2889    22271.821    20.814189    22.187784    57.667069           90           90     123.2501     1.451054 
  145000    285.23946   -112629.74   -114307.27   -253.37906    22026.298    20.789275     22.20011    57.067997           90           90     123.2501    1.4672286 
  146000     286.9215   -112617.49   -114304.91   -2567.7861    21947.038    20.709814    22.302424    56.818952           90           90     123.2501    1.4725274 
  147000    298.61784   -112592.68   -114348.89   -772.45643    21789.727    20.727331    22.197696    56.629937           90           90     123.2501    1.4831584 
  148000    297.94684   -112662.71   -114414.97   -354.18108    21593.478    20.799689    22.128722    56.098984           90           90     123.2501    1.4966378 
  149000    301.64632   -112628.82   -114402.84    -1279.661     21655.01    20.669858    22.240961    56.326519           90           90     123.2501    1.4923852 
  150000    290.21695    -112587.1   -114293.91    263.54613    21652.092    20.627591    22.200314    56.537657           90           90     123.2501    1.4925863 
  151000     305.0618   -112583.58   -114377.69   -689.22258    21600.792    20.682713    22.221326     56.20019           90           90     123.2501     1.496131 
  152000    301.16623   -112689.66   -114460.86   -1495.6643    21512.006    20.704152    22.158473    56.069826           90           90     123.2501     1.502306 
  153000    291.31846   -112694.38   -114407.66    91.559539     21525.06    20.681376    22.209429    56.036777           90           90     123.2501    1.5013949 
  154000    301.71227   -112596.55   -114370.96     389.6448    21537.181    20.703022    22.163526    56.125707           90           90     123.2501    1.5005499 
  155000    297.37883   -112668.85   -114417.77   -751.92039    21583.528    20.672664    22.245083     56.12257           90           90     123.2501    1.4973278 
  156000    298.71054   -112561.25      -114318     -1245.31    21764.799    20.749841     22.16432    56.588875           90           90     123.2501     1.484857 
  157000    300.65164   -112538.77   -114306.95   -806.26514    21924.675    20.877621    22.244967    56.450264           90           90     123.2501    1.4740294 
  158000    302.42348   -112570.13   -114348.72    282.86459    21495.133    20.622116    22.245518    56.028625           90           90     123.2501    1.5034852 
  159000    306.75539   -112544.86   -114348.93   -1824.5732    21812.091    20.765666    22.321036    56.270745           90           90     123.2501    1.4816377 
  160000    302.60486   -112625.71   -114405.37     -1415.09    21673.159    20.758249    22.260416    56.084626           90           90     123.2501    1.4911354 
  161000    309.38706   -112589.52   -114409.07    214.48047    21681.505    20.701641    22.209099    56.389637           90           90     123.2501    1.4905614 
  162000    299.54631   -112535.53    -114297.2   -217.17916    21801.453    20.715313    22.238487    56.589299           90           90     123.2501    1.4823606 
  163000    293.07923    -112712.1   -114435.74   -137.26327     21626.72    20.679655    22.219734    56.279999           90           90     123.2501    1.4943374 
  164000    301.53063   -112546.28   -114319.63   -250.44881    21649.578    20.632094    22.336515    56.174122           90           90     123.2501    1.4927596 
  165000    305.44997   -112632.16   -114428.55   -1200.4658    21536.862    20.695261    22.335625    55.713315           90           90     123.2501    1.5005721 
  166000    298.37348   -112622.07   -114376.85    531.39483    21656.908    20.809451    22.195325    56.068623           90           90     123.2501    1.4922544 
  167000    303.58632   -112526.81   -114312.24   -307.67052    21646.304    20.707745    22.182105    56.349979           90           90     123.2501    1.4929854 
  168000    300.78712   -112559.97   -114328.94   -869.58778    21720.516    20.841273    22.108468    56.368028           90           90     123.2501    1.4878843 
  169000    294.93994   -112659.12   -114393.71   -745.06261    21593.444    20.750678    22.218778    56.003482           90           90     123.2501    1.4966401 
  170000    307.50096   -112549.43   -114357.88   -226.17913    21543.901    20.623325    22.231991    56.186616           90           90     123.2501    1.5000818 
  171000    300.64129   -112569.41   -114337.52   -165.63509    21603.273    20.669275    22.340647    55.942794           90           90     123.2501    1.4959592 
  172000    296.46972   -112608.16   -114351.74   -936.42975    21649.841    20.731535    22.313965    55.961856           90           90     123.2501    1.4927414 
  173000    300.21834   -112581.82   -114347.45   -420.98606    21513.612    20.725473     22.22138    55.857749           90           90     123.2501    1.5021938 
  174000    293.60067   -112611.11   -114337.81    25.508834    21437.896    20.676512    22.165029     55.93481           90           90     123.2501    1.5074994 
  175000    293.53965   -112662.19   -114388.53     -511.222     21390.17    20.739969     22.22115    55.499004           90           90     123.2501     1.510863 
  176000    295.24627   -112585.14   -114321.52   -813.88276    21419.079    20.747439    22.346077    55.243424           90           90     123.2501    1.5088238 
  177000    305.26303   -112582.19   -114377.49    782.02903    21325.944    20.776526    22.187366    55.319106           90           90     123.2501    1.5154131 
  178000    289.34447   -112695.91   -114397.59    1293.6833    21219.149    20.642937    22.255763    55.228031           90           90     123.2501    1.5230401 
  179000    298.09853   -112572.69   -114325.84   -169.14818    21483.638    20.662103    22.254311    55.868207           90           90     123.2501    1.5042897 
  180000    301.92916   -112638.84   -114414.52    67.322007    21440.098    20.679632    22.297604    55.599558           90           90     123.2501    1.5073446 
  181000    298.56958   -112730.48   -114486.41     1818.998    21290.645    20.719311    22.231534    55.270028           90           90     123.2501    1.5179256 
  182000    296.42921   -112608.53   -114351.87    250.63719    21357.599    20.686328    22.228391    55.540089           90           90     123.2501    1.5131671 
  183000    299.96595    -112593.9   -114358.04    1196.6555    21472.166    20.705982    22.193721    55.872164           90           90     123.2501    1.5050934 
  184000    292.59058   -112760.11   -114480.87    298.44177    21383.991    20.850186    22.099813    55.492694           90           90     123.2501    1.5112995 
  185000    300.84211   -112644.89   -114414.18   -123.22241    21527.906    20.783478    22.382565    55.337472           90           90     123.2501    1.5011964 
  186000    295.60178   -112721.07   -114459.55     186.0465    21462.791    20.658561    22.312313    55.678449           90           90     123.2501    1.5057508 
  187000    298.83119    -112699.4   -114456.87   -423.96881     21341.64    20.627225    22.295388    55.490359           90           90     123.2501    1.5142986 
  188000    297.60562   -112743.82   -114494.08   -49.418558     21354.87    20.754052    22.258217    55.277609           90           90     123.2501    1.5133604 
  189000    296.59981   -112695.98   -114440.32    8.6150188    21397.375    20.860214    22.177808    55.305548           90           90     123.2501    1.5103542 
  190000    304.69049   -112622.26   -114414.19   -412.33816    21444.598    20.690591    22.226833    55.758745           90           90     123.2501    1.5070283 
  191000    303.86349    -112638.6   -114425.67    33.901518    21484.541     20.71112    22.365387    55.461506           90           90     123.2501    1.5042265 
  192000    291.17295    -112755.2   -114467.63   -1943.1729    21521.877    20.864279    22.300696    55.310035           90           90     123.2501    1.5016169 
  193000     300.7328   -112738.06   -114506.71    1.7708447    21419.382    20.767303    22.358284    55.161233           90           90     123.2501    1.5088024 
  194000    301.81824   -112670.37    -114445.4    244.35928    21542.936    20.835829    22.318759    55.394883           90           90     123.2501     1.500149 
  195000    296.40404   -112648.11    -114391.3    959.50462    21474.179    20.783411    22.269633    55.479466           90           90     123.2501    1.5049523 
  196000    301.21043   -112605.04    -114376.5     293.7688    21475.976    20.736195     22.33936    55.436871           90           90     123.2501    1.5048264 
  197000    296.37342   -112734.47   -114477.48    740.56225    21280.229    20.657941    22.387331    55.021512           90           90     123.2501    1.5186686 
  198000    292.40497   -112782.75   -114502.43    2200.3502    21485.241    20.750458    22.435686    55.184708           90           90     123.2501    1.5041775 
  199000    295.04408   -112726.85   -114462.04    1093.2014    21379.752    20.647656    22.331187     55.44542           90           90     123.2501    1.5115992 
  200000    307.81015   -112692.82    -114503.1    2526.9765    21380.418    20.680181    22.337013    55.345505           90           90     123.2501    1.5115521 
  200030    306.50762   -112694.09    -114496.7    3274.2229    21384.294    20.690301    22.327923    55.350987           90           90     123.2501    1.5112781 
Loop time of 650.95 on 5 procs for 100000 steps with 1974 atoms

Performance: 1.327 ns/day, 18.082 hours/ns, 153.622 timesteps/s
96.7% CPU use with 5 MPI tasks x 1 OpenMP threads

MPI task timing breakdown:
Section |  min time  |  avg time  |  max time  |%varavg| %total
---------------------------------------------------------------
Pair    | 214.49     | 287.26     | 353.88     | 332.2 | 44.13
Bond    | 0.81465    | 1.3101     | 1.6431     |  33.1 |  0.20
Kspace  | 258.01     | 315.59     | 373.84     | 265.1 | 48.48
Neigh   | 6.9757     | 6.9783     | 6.9816     |   0.1 |  1.07
Comm    | 21.136     | 30.537     | 45.269     | 171.7 |  4.69
Output  | 0.076885   | 0.077212   | 0.078344   |   0.2 |  0.01
Modify  | 8.0303     | 8.78       | 9.4664     |  16.7 |  1.35
Other   |            | 0.4138     |            |       |  0.06

Nlocal:        394.800 ave         434 max         344 min
Histogram: 1 1 0 0 0 0 0 1 0 2
Nghost:        12895.2 ave       13260 max       12653 min
Histogram: 1 1 1 0 0 0 1 0 0 1
Neighs:         0.00000 ave           0 max           0 min
Histogram: 5 0 0 0 0 0 0 0 0 0

Total # of neighbors = 0
Ave neighs/atom = 0.0000000
Ave special neighs/atom = 1.5167173
Neighbor list builds = 593
Dangerous builds = 0
System init for write_data ...
Ewald initialization ...
  using 12-bit tables for long-range coulomb (../kspace.cpp:340)
  G vector (1/distance) = 0.25549879
  estimated absolute RMS force accuracy = 0.0034545257
  estimated relative force accuracy = 1.0403202e-05
  KSpace vectors: actual max1d max3d = 1064 14 12194
                  kxmax kymax kzmax  = 5 8 14
Hybrid pair style last /omp style lj/cut/coul/long
Last active /omp style is kspace_style ewald/omp
WARNING: Fix recenter should come after all other integration fixes (../fix_recenter.cpp:133)
System init for write_restart ...
Ewald initialization ...
  using 12-bit tables for long-range coulomb (../kspace.cpp:340)
  G vector (1/distance) = 0.25549879
  estimated absolute RMS force accuracy = 0.0034545257
  estimated relative force accuracy = 1.0403202e-05
  KSpace vectors: actual max1d max3d = 1064 14 12194
                  kxmax kymax kzmax  = 5 8 14
Hybrid pair style last /omp style lj/cut/coul/long
Last active /omp style is kspace_style ewald/omp
WARNING: Fix recenter should come after all other integration fixes (../fix_recenter.cpp:133)
Total wall time: 0:23:07
