Build from w.bt.06.h.cif

1974 atoms
7 atom types
1016 bonds
2 bond types
535 angles
2 angle types
0.0 20.205600  xlo xhi
0.0 18.628755  ylo yhi
0.0 58.432518  zlo zhi
-12.213593  0.000000  0.000000 xy xz yz

Masses

  1    28.085500  # st
  2    40.078000  # cah
  3    15.999400  # ob
  4    15.999400  # oh
  5     1.007940  # ho
  6    15.999400  # o*
  7     1.007940  # h*

Atoms

    1 535   1   2.1000  16.466000349149   2.321763778095   4.260679659444 # st
    2   6   1   2.1000  14.430401485938   5.426556208131  22.441359656001 # st
    3 536   1   2.1000  13.098400348475   2.321763778095  18.254429657801 # st
    4 537   1   2.1000  11.062801485265   5.426556208131   8.447609657644 # st
    5  17   1   2.1000  15.960688375540   4.582052667951   2.270768408562 # st
    6  18   1   2.1000  17.996287238751   1.477260237916  24.431270906884 # st
    7   3   1   2.1000  12.593088376887   4.582052667951  16.264518406919 # st
    8   4   1   2.1000  14.628687240098   1.477260237916  10.437520908526 # st
    9 538   1   2.1000  14.077915257191   5.892275072544   4.257880905465 # st
   10 539   1   2.1000  16.113514120402   2.787482642508  22.444158404137 # st
   11 540   1   2.1000  10.710315256518   5.892275072544  18.251630903823 # st
   12 541   1   2.1000  12.745914119728   2.787482642508   8.450408405779 # st
   13 542   2   1.0500  16.219666038524   2.563937587590   7.338744905365 # cah
   14 543   2   1.0500  14.184067175313   5.668730017626  19.362174907320 # cah
   15 544   2   1.0500  12.852066037850   2.563937587590  21.332494903723 # cah
   16 545   2   1.0500  10.816467174639   5.668730017626   5.368424908962 # cah
   17 546   2   1.0500  12.934145245347   2.582566342166   5.365626154983 # cah
   18 547   2   1.0500  10.898546382136   5.687358772202  21.335293657702 # cah
   19 548   2   1.0500  16.301745244000   2.582566342166  19.359376159184 # cah
   20 549   2   1.0500  14.266146380789   5.687358772202   7.341543659344 # cah
   21 550   2   1.0500  13.527144673523   2.993019902577  13.298962905002 # cah
   22 551   3  -1.0500  15.966766235136   3.104792430036   2.850949280989 # ob
   23 552   3  -1.0500   5.788771921524  18.628754576489  23.852769279832 # ob
   24 553   3  -1.0500  12.599166234462   3.104792430036  16.844699279346 # ob
   25 554   3  -1.0500   2.421171920850  18.628754576489   9.859019281475 # ob
   26 555   3  -1.0500  17.335644701587   1.099096520013   3.673781782142 # ob
   27 556   3  -1.0500  15.300045838377   4.203888950049  23.029936784521 # ob
   28 557   3  -1.0500  13.968044700914   1.099096520013  17.667531780500 # ob
   29 558   3  -1.0500  11.932445837703   4.203888950049   9.036186780321 # ob
   30 559   3  -1.0500  17.276846410660   3.365594994107   5.151521779445 # ob
   31 560   3  -1.0500  19.312445273871   0.260802564071  21.552196781376 # ob
   32 561   3  -1.0500  13.909246409987   3.365594994107  19.145271783645 # ob
   33 562   3  -1.0500  15.944845273197   0.260802564071   7.558446783019 # ob
   34 563   3  -1.0500  15.249078636727   1.794570023581   5.137528032923 # ob
   35 564   3  -1.0500  13.213479773516   4.899362453617  21.566190533741 # ob
   36 565   3  -1.0500  11.881478636053   1.794570023581  19.131278031280 # ob
   37 566   3  -1.0500   9.845879772842   4.899362453617   7.572440529540 # ob
   38   1   4  -0.9500  17.942672040059   1.477881195781  25.996611783355 # oh
   39   2   4  -0.9500  15.907073176848   4.582673625816   0.707106783309 # oh
   40 567   3  -1.0500  14.575072039386   1.477881195781  12.002861779155 # ob
   41 568   3  -1.0500  12.539473176175   4.582673625816  14.700856781666 # ob
   42 569   3  -1.0500  14.596728706585   5.266348918774   2.862424159447 # ob
   43 570   3  -1.0500  16.632327569796   2.161556488738  23.841854155675 # ob
   44 571   3  -1.0500  11.229128707932   5.266348918774  16.856174157804 # ob
   45 572   3  -1.0500  13.264727571143   2.161556488738   9.848104157318 # ob
   46 573   3  -1.0500  13.006017344073   5.042182905991   5.143125529194 # ob
   47 574   3  -1.0500  15.041616207283   1.937390475955  21.560593031626 # ob
   48 575   3  -1.0500   9.638417345420   5.042182905991  19.136875533395 # ob
   49 576   3  -1.0500  11.674016208630   1.937390475955   7.566843033269 # ob
   50 577   3  -1.0500  19.465558827417   0.131022239900   5.149282779768 # ob
   51 578   3  -1.0500  17.429959964206   3.235814669936  21.555555283813 # ob
   52 579   3  -1.0500  16.097958826743   0.131022239900  19.143032783968 # ob
   53 580   3  -1.0500  14.062359963532   3.235814669936   7.561805279613 # ob
   54   3   4  -0.9500  13.963858370041   5.439596336335  16.640950279505 # oh
   55   3   5   0.4250  14.346421926402   4.613905043964  16.226367243581 # ho
   56   4   4  -0.9500  15.999457233252   2.334803906299  10.063887784076 # oh
   57   4   5   0.4250  15.954812833624   1.508797974263   9.501997020044 # ho
   58  55   6  -0.8476  13.141344484239   2.688750243252   2.985849033451 # o*
   59  55   7   0.4238  13.722047433238   2.688750243252   3.799964542423 # h*
   60  55   7   0.4238  13.722047433238   2.688750243252   2.171733518637 # h*
   61  56   6  -0.8476  11.105745621028   5.793542673288  23.718989030129 # o*
   62  56   7   0.4238  11.686448570027   5.793542673288  24.533104544944 # h*
   63  56   7   0.4238  11.686448570027   5.793542673288  22.904873521158 # h*
   64  57   6  -0.8476  16.508944482892   2.688750243252  16.979599031809 # o*
   65  57   7   0.4238  17.089647433911   2.688750243252  17.793714546624 # h*
   66  57   7   0.4238  17.089647433911   2.688750243252  16.165483516994 # h*
   67  58   6  -0.8476  14.473345619681   5.793542673288   9.725239031772 # o*
   68  58   7   0.4238  15.054048570700   5.793542673288  10.539354546587 # h*
   69  58   7   0.4238  15.054048570700   5.793542673288   8.911123516957 # h*
   70  59   6  -0.8476  12.886297301190   4.701897655106  11.782880033115 # o*
   71  59   7   0.4238  13.467000250188   4.701897655106  12.596995542087 # h*
   72  59   7   0.4238  13.467000250188   4.701897655106  10.968764518300 # h*
   73  60   6  -0.8476  14.921896164401   1.597105225070  14.917480031111 # o*
   74  60   7   0.4238  15.502599113399   1.597105225070  15.731595545926 # h*
   75  60   7   0.4238  15.502599113399   1.597105225070  14.103364516296 # h*
   76  61   6  -0.8476  16.253622302764   4.814291140430  13.271535154574 # o*
   77 115   7   0.4238  10.099125252436   4.814291140430  14.085650669389 # h*
   78 115   7   0.4238  10.099125252436   4.814291140430  12.457419645603 # h*
   79  62   6  -0.8476  17.493918671414   1.238812179337  13.439460153736 # o*
   80  62   7   0.4238  18.074621622433   1.238812179337  14.253575668551 # h*
   81  62   7   0.4238  18.074621622433   1.238812179337  12.625344644765 # h*
   82  63   6  -0.8476  10.773633664913   5.696052191625  13.355497657077 # o*
   83  63   7   0.4238  11.354336613912   5.696052191625  14.169613171892 # h*
   84  63   7   0.4238  11.354336613912   5.696052191625  12.541382142262 # h*
   85   1   5   0.4250  18.649778822232   1.477881195781  26.703718560821 # ho
   86   2   5   0.4250  15.199966394675   4.582673625816   0.000000000000 # ho
   87   5   1   2.1000  12.394802622727   8.531348638167   4.260679659444 # st
   88 581   1   2.1000  10.359203760738  11.636141066340  22.441359656001 # st
   89 582   1   2.1000   9.027202622054   8.531348638167  18.254429657801 # st
   90 583   1   2.1000   6.991603760064  11.636141066340   8.447609657644 # st
   91   9   1   2.1000   8.521890651687  10.791637526160  16.264518406919 # st
   92  10   1   2.1000  10.557489514898   7.686845096124  10.437520908526 # st
   93   7   1   2.1000  10.006717531991  12.101859930752   4.257880905465 # st
   94   8   1   2.1000  12.042316393980   8.997067502579  22.444158404137 # st
   95 584   1   2.1000   6.639117531317  12.101859930752  18.251630903823 # st
   96 585   1   2.1000   8.674716393307   8.997067502579   8.450408405779 # st
   97 586   2   1.0500  12.148468312102   8.773522447662   7.338744905365 # cah
   98 587   2   1.0500  10.112869450112  11.878314875834  19.362174907320 # cah
   99 588   2   1.0500   8.780868311428   8.773522447662  21.332494903723 # cah
  100 589   2   1.0500   6.745269449439  11.878314875834   5.368424908962 # cah
  101 590   2   1.0500   8.862947518925   8.792151202238   5.365626154983 # cah
  102 591   2   1.0500   6.827348656936  11.896943630411  21.335293657702 # cah
  103 592   2   1.0500  12.230547517578   8.792151202238  19.359376159184 # cah
  104 593   2   1.0500  10.194948655589  11.896943630411   7.341543659344 # cah
  105 594   2   1.0500   9.455946948323   9.202604760786  13.298962905002 # cah
  106   5   4  -0.9500  11.895568509935   9.314377288245   2.850949280989 # oh
  107   6   4  -0.9500  13.931167373146   6.209584858209  23.852769279832 # oh
  108 595   3  -1.0500   8.527968509262   9.314377288245  16.844699279346 # ob
  109 596   3  -1.0500  10.563567372473   6.209584858209   9.859019281475 # ob
  110 597   3  -1.0500  13.264446976387   7.308681378222   3.673781782142 # ob
  111 598   3  -1.0500  11.228848113176  10.413473808258  23.029936784521 # ob
  112 599   3  -1.0500   9.896846975714   7.308681378222  17.667531780500 # ob
  113 600   3  -1.0500   7.861248112503  10.413473808258   9.036186780321 # ob
  114 601   3  -1.0500  13.205648685460   9.575179852315   5.151521779445 # ob
  115 602   3  -1.0500  15.241247548671   6.470387422280  21.552196781376 # ob
  116 603   3  -1.0500   9.838048684786   9.575179852315  19.145271783645 # ob
  117 604   3  -1.0500  11.873647547997   6.470387422280   7.558446783019 # ob
  118 605   3  -1.0500  11.177880910305   8.004154883653   5.137528032923 # ob
  119 606   3  -1.0500   9.142282048315  11.108947311825  21.566190533741 # ob
  120 607   3  -1.0500   7.810280909631   8.004154883653  19.131278031280 # ob
  121 608   3  -1.0500   5.774682047642  11.108947311825   7.572440529540 # ob
  122 609   3  -1.0500  10.503874312964   7.687466055852  12.002861779155 # ob
  123 610   3  -1.0500   8.468275450974  10.792258484025  14.700856781666 # ob
  124   7   4  -0.9500  10.525530981385  11.475933776982   2.862424159447 # oh
  125   8   4  -0.9500  12.561129843374   8.371141348809  23.841854155675 # oh
  126 611   3  -1.0500   7.157930982732  11.475933776982  16.856174157804 # ob
  127 612   3  -1.0500   9.193529844721   8.371141348809   9.848104157318 # ob
  128 613   3  -1.0500   8.934819618872  11.251767764200   5.143125529194 # ob
  129 614   3  -1.0500  10.970418482083   8.146975334164  21.560593031626 # ob
  130 615   3  -1.0500   5.567219620219  11.251767764200  19.136875533395 # ob
  131 616   3  -1.0500   7.602818483430   8.146975334164   7.566843033269 # ob
  132 617   3  -1.0500  15.394361100995   6.340607099972   5.149282779768 # ob
  133 618   3  -1.0500  13.358762239005   9.445399528145  21.555555283813 # ob
  134 619   3  -1.0500  12.026761100322   6.340607099972  19.143032783968 # ob
  135 620   3  -1.0500   9.991162238332   9.445399528145   7.561805279613 # ob
  136   9   4  -0.9500   9.892660644840  11.649181194544  16.640950279505 # oh
  137   9   5   0.4250  10.275224201201  10.823489902173  16.226367243581 # ho
  138  10   4  -0.9500  11.928259506830   8.544388766371  10.063887784076 # oh
  139  10   5   0.4250  11.883615108423   7.718382832472   9.501997020044 # ho
  140  64   6  -0.8476   9.070146757817   8.898335103324   2.985849033451 # o*
  141  64   7   0.4238   9.650849706816   8.898335103324   3.799964542423 # h*
  142  64   7   0.4238   9.650849706816   8.898335103324   2.171733518637 # h*
  143  65   6  -0.8476   7.034547895828  12.003127531497  23.718989030129 # o*
  144  65   7   0.4238   7.615250844826  12.003127531497  24.533104544944 # h*
  145  65   7   0.4238   7.615250844826  12.003127531497  22.904873521158 # h*
  146  66   6  -0.8476  12.437746756470   8.898335103324  16.979599031809 # o*
  147  66   7   0.4238  13.018449707489   8.898335103324  17.793714546624 # h*
  148  66   7   0.4238  13.018449707489   8.898335103324  16.165483516994 # h*
  149  67   6  -0.8476  10.402147894481  12.003127531497   9.725239031772 # o*
  150  67   7   0.4238  10.982850845500  12.003127531497  10.539354546587 # h*
  151  67   7   0.4238  10.982850845500  12.003127531497   8.911123516957 # h*
  152  68   6  -0.8476   8.815099575990  10.911482513315  11.782880033115 # o*
  153  68   7   0.4238   9.395802524988  10.911482513315  12.596995542087 # h*
  154  68   7   0.4238   9.395802524988  10.911482513315  10.968764518300 # h*
  155  69   6  -0.8476  10.850698437979   7.806690085142  14.917480031111 # o*
  156  69   7   0.4238  11.431401386978   7.806690085142  15.731595545926 # h*
  157  69   7   0.4238  11.431401386978   7.806690085142  14.103364516296 # h*
  158  70   6  -0.8476  12.182424576342  11.023876000501  13.271535154574 # o*
  159 124   7   0.4238   6.027927526014  11.023876000501  14.085650669389 # h*
  160 124   7   0.4238   6.027927526014  11.023876000501  12.457419645603 # h*
  161  71   6  -0.8476  13.422720946214   7.448397037545  13.439460153736 # o*
  162  71   7   0.4238  14.003423897233   7.448397037545  14.253575668551 # h*
  163  71   7   0.4238  14.003423897233   7.448397037545  12.625344644765 # h*
  164  72   6  -0.8476   6.702435939713  11.905637049834  13.355497657077 # o*
  165  72   7   0.4238   7.283138888711  11.905637049834  14.169613171892 # h*
  166  72   7   0.4238   7.283138888711  11.905637049834  12.541382142262 # h*
  167 621   1   2.1000   8.323604897527  14.740933496376   4.260679659444 # st
  168 622   1   2.1000   6.288006034316  17.845725926412  22.441359656001 # st
  169 623   1   2.1000   4.956004896853  14.740933496376  18.254429657801 # st
  170 624   1   2.1000   2.920406033642  17.845725926412   8.447609657644 # st
  171  31   1   2.1000   7.818292925139  17.001222384369   2.270768408562 # st
  172  32   1   2.1000   9.853891787129  13.896429956196  24.431270906884 # st
  173  13   1   2.1000   4.450692926486  17.001222384369  16.264518406919 # st
  174  14   1   2.1000   6.486291788476  13.896429956196  10.437520908526 # st
  175 625   1   2.1000   5.935519805569  18.311444790824   4.257880905465 # st
  176 626   1   2.1000   7.971118668780  15.206652360788  22.444158404137 # st
  177 627   1   2.1000   2.567919804895  18.311444790824  18.251630903823 # st
  178 628   1   2.1000   4.603518668106  15.206652360788   8.450408405779 # st
  179 629   2   1.0500   8.077270586902  14.983107305870   7.338744905365 # cah
  180 630   2   1.0500   6.041671723691  18.087899735906  19.362174907320 # cah
  181 631   2   1.0500   4.709670586228  14.983107305870  21.332494903723 # cah
  182 632   2   1.0500   2.674071723017  18.087899735906   5.368424908962 # cah
  183 633   2   1.0500   4.791749793725  15.001736060447   5.365626154983 # cah
  184 634   2   1.0500   2.756150930514  18.106528490483  21.335293657702 # cah
  185 635   2   1.0500   8.159349792378  15.001736060447  19.359376159184 # cah
  186 636   2   1.0500   6.123750929167  18.106528490483   7.341543659344 # cah
  187 637   2   1.0500   5.384749223122  15.412189618995  13.298962905002 # cah
  188 638   3  -1.0500   7.824370784735  15.523962146453   2.850949280989 # ob
  189 639   3  -1.0500   9.859969646724  12.419169718280  23.852769279832 # ob
  190 640   3  -1.0500   4.456770784061  15.523962146453  16.844699279346 # ob
  191 641   3  -1.0500   6.492369646051  12.419169718280   9.859019281475 # ob
  192 642   3  -1.0500   9.193249249965  13.518266238293   3.673781782142 # ob
  193 643   3  -1.0500   7.157650387976  16.623058666466  23.029936784521 # ob
  194 644   3  -1.0500   5.825649249292  13.518266238293  17.667531780500 # ob
  195 645   3  -1.0500   3.790050387302  16.623058666466   9.036186780321 # ob
  196 646   3  -1.0500   9.134450960259  15.784764710524   5.151521779445 # ob
  197 647   3  -1.0500  11.170049822249  12.679972282351  21.552196781376 # ob
  198 648   3  -1.0500   5.766850959586  15.784764710524  19.145271783645 # ob
  199 649   3  -1.0500   7.802449821575  12.679972282351   7.558446783019 # ob
  200 650   3  -1.0500   7.106683185104  14.213739741861   5.137528032923 # ob
  201 651   3  -1.0500   5.071084321893  17.318532171897  21.566190533741 # ob
  202 652   3  -1.0500   3.739083184431  14.213739741861  19.131278031280 # ob
  203 653   3  -1.0500   1.703484321220  17.318532171897   7.572440529540 # ob
  204  11   4  -0.9500   9.800276588437  13.897050914061  25.996611783355 # oh
  205  12   4  -0.9500   7.764677725226  17.001843344097   0.707106783309 # oh
  206 654   3  -1.0500   6.432676587763  13.897050914061  12.002861779155 # ob
  207 655   3  -1.0500   4.397077724552  17.001843344097  14.700856781666 # ob
  208 656   3  -1.0500   6.454333254963  17.685518637054   2.862424159447 # ob
  209 657   3  -1.0500   8.489932118174  14.580726207018  23.841854155675 # ob
  210 658   3  -1.0500   3.086733256310  17.685518637054  16.856174157804 # ob
  211 659   3  -1.0500   5.122332119521  14.580726207018   9.848104157318 # ob
  212 660   3  -1.0500   4.863621893672  17.461352622408   5.143125529194 # ob
  213 661   3  -1.0500   6.899220755661  14.356560194235  21.560593031626 # ob
  214 662   3  -1.0500   1.496021895019  17.461352622408  19.136875533395 # ob
  215 663   3  -1.0500   3.531620757008  14.356560194235   7.566843033269 # ob
  216 664   3  -1.0500  11.323163375795  12.550191958181   5.149282779768 # ob
  217 665   3  -1.0500   9.287564512584  15.654984388217  21.555555283813 # ob
  218 666   3  -1.0500   7.955563375121  12.550191958181  19.143032783968 # ob
  219 667   3  -1.0500   5.919964511910  15.654984388217   7.561805279613 # ob
  220  13   4  -0.9500   5.821462918419  17.858766054615  16.640950279505 # oh
  221  13   5   0.4250   6.204026476001  17.033074760382  16.226367243581 # ho
  222  14   4  -0.9500   7.857061781629  14.753973624580  10.063887784076 # oh
  223  14   5   0.4250   7.812417382002  13.927967692544   9.501997020044 # ho
  224  73   6  -0.8476   4.998949032617  15.107919961533   2.985849033451 # o*
  225  73   7   0.4238   5.579651981615  15.107919961533   3.799964542423 # h*
  226  73   7   0.4238   5.579651981615  15.107919961533   2.171733518637 # h*
  227  74   6  -0.8476   2.963350169406  18.212712391569  23.718989030129 # o*
  228  74   7   0.4238   3.544053118404  18.212712391569  24.533104544944 # h*
  229  74   7   0.4238   3.544053118404  18.212712391569  22.904873521158 # h*
  230  75   6  -0.8476   8.366549031270  15.107919961533  16.979599031809 # o*
  231  75   7   0.4238   8.947251982289  15.107919961533  17.793714546624 # h*
  232  75   7   0.4238   8.947251982289  15.107919961533  16.165483516994 # h*
  233  76   6  -0.8476   6.330950168059  18.212712391569   9.725239031772 # o*
  234  76   7   0.4238   6.911653119078  18.212712391569  10.539354546587 # h*
  235  76   7   0.4238   6.911653119078  18.212712391569   8.911123516957 # h*
  236  77   6  -0.8476   4.743901849568  17.121067373386  11.782880033115 # o*
  237  77   7   0.4238   5.324604798566  17.121067373386  12.596995542087 # h*
  238  77   7   0.4238   5.324604798566  17.121067373386  10.968764518300 # h*
  239  78   6  -0.8476   6.779500712779  14.016274943351  14.917480031111 # o*
  240  78   7   0.4238   7.360203661777  14.016274943351  15.731595545926 # h*
  241  78   7   0.4238   7.360203661777  14.016274943351  14.103364516296 # h*
  242  79   6  -0.8476   8.111226851141  17.233460858710  13.271535154574 # o*
  243 133   7   0.4238   1.956729800813  17.233460858710  14.085650669389 # h*
  244 133   7   0.4238   1.956729800813  17.233460858710  12.457419645603 # h*
  245  80   6  -0.8476   9.351523219792  13.657981897617  13.439460153736 # o*
  246  80   7   0.4238   9.932226170811  13.657981897617  14.253575668551 # h*
  247  80   7   0.4238   9.932226170811  13.657981897617  12.625344644765 # h*
  248  81   6  -0.8476   2.631238214512  18.115221908043  13.355497657077 # o*
  249  81   7   0.4238   3.211941163511  18.115221908043  14.169613171892 # h*
  250  81   7   0.4238   3.211941163511  18.115221908043  12.541382142262 # h*
  251  11   5   0.4250  10.507383370610  13.897050914061  26.703718560821 # ho
  252  12   5   0.4250   7.057570943053  17.001843344097   0.000000000000 # ho
  253 668   1   2.1000   2.995600348475   2.321763778095   4.260679659444 # st
  254  22   1   2.1000   0.960001485265   5.426556208131  22.441359656001 # st
  255 669   1   2.1000  -0.371999650178   2.321763778095  18.254429657801 # st
  256 670   1   2.1000  -2.407598513388   5.426556208131   8.447609657644 # st
  257  39   1   2.1000   2.490288376887   4.582052667951   2.270768408562 # st
  258  40   1   2.1000   4.525887240098   1.477260237916  24.431270906884 # st
  259  19   1   2.1000  -0.877311623786   4.582052667951  16.264518406919 # st
  260  20   1   2.1000   1.158287239424   1.477260237916  10.437520908526 # st
  261 671   1   2.1000   0.607515256518   5.892275072544   4.257880905465 # st
  262 672   1   2.1000   2.643114119728   2.787482642508  22.444158404137 # st
  263 673   1   2.1000  -2.760084744156   5.892275072544  18.251630903823 # st
  264 674   1   2.1000  -0.724485880945   2.787482642508   8.450408405779 # st
  265 675   2   1.0500   2.749266037850   2.563937587590   7.338744905365 # cah
  266 676   2   1.0500   0.713667174639   5.668730017626  19.362174907320 # cah
  267 677   2   1.0500  -0.618333962823   2.563937587590  21.332494903723 # cah
  268 678   2   1.0500  -2.653932826034   5.668730017626   5.368424908962 # cah
  269 679   2   1.0500  -0.536254755327   2.582566342166   5.365626154983 # cah
  270 680   2   1.0500  -2.571853618537   5.687358772202  21.335293657702 # cah
  271 681   2   1.0500   2.831345245347   2.582566342166  19.359376159184 # cah
  272 682   2   1.0500   0.795746382136   5.687358772202   7.341543659344 # cah
  273 683   2   1.0500   0.056744674870   2.993019902577  13.298962905002 # cah
  274 684   3  -1.0500   2.496366234462   3.104792430036   2.850949280989 # ob
  275 685   3  -1.0500  -7.681628079150  18.628754576489  23.852769279832 # ob
  276 686   3  -1.0500  -0.871233764191   3.104792430036  16.844699279346 # ob
  277 687   3  -1.0500 -11.049228077803  18.628754576489   9.859019281475 # ob
  278 688   3  -1.0500   3.865244700914   1.099096520013   3.673781782142 # ob
  279 689   3  -1.0500   1.829645837703   4.203888950049  23.029936784521 # ob
  280 690   3  -1.0500   0.497644700240   1.099096520013  17.667531780500 # ob
  281 691   3  -1.0500  -1.537954162970   4.203888950049   9.036186780321 # ob
  282 692   3  -1.0500   3.806446409987   3.365594994107   5.151521779445 # ob
  283 693   3  -1.0500   5.842045273197   0.260802564071  21.552196781376 # ob
  284 694   3  -1.0500   0.438846411334   3.365594994107  19.145271783645 # ob
  285 695   3  -1.0500   2.474445274545   0.260802564071   7.558446783019 # ob
  286 696   3  -1.0500   1.778678636053   1.794570023581   5.137528032923 # ob
  287 697   3  -1.0500  -0.256920227158   4.899362453617  21.566190533741 # ob
  288 698   3  -1.0500  18.616678635380   1.794570023581  19.131278031280 # ob
  289 699   3  -1.0500  16.581079772169   4.899362453617   7.572440529540 # ob
  290  15   4  -0.9500   4.472272039386   1.477881195781  25.996611783355 # oh
  291  16   4  -0.9500   2.436673176175   4.582673625816   0.707106783309 # oh
  292 700   3  -1.0500   1.104672040733   1.477881195781  12.002861779155 # ob
  293 701   3  -1.0500  -0.930926822478   4.582673625816  14.700856781666 # ob
  294 702   3  -1.0500   1.126328707932   5.266348918774   2.862424159447 # ob
  295 703   3  -1.0500   3.161927571143   2.161556488738  23.841854155675 # ob
  296 704   3  -1.0500  -2.241271292741   5.266348918774  16.856174157804 # ob
  297 705   3  -1.0500  -0.205672429530   2.161556488738   9.848104157318 # ob
  298 706   3  -1.0500  -0.464382654580   5.042182905991   5.143125529194 # ob
  299 707   3  -1.0500   1.571216208630   1.937390475955  21.560593031626 # ob
  300 708   3  -1.0500  16.373617344746   5.042182905991  19.136875533395 # ob
  301 709   3  -1.0500  18.409216207957   1.937390475955   7.566843033269 # ob
  302 710   3  -1.0500   5.995158826743   0.131022239900   5.149282779768 # ob
  303 711   3  -1.0500   3.959559963532   3.235814669936  21.555555283813 # ob
  304 712   3  -1.0500   2.627558826070   0.131022239900  19.143032783968 # ob
  305 713   3  -1.0500   0.591959962859   3.235814669936   7.561805279613 # ob
  306  17   4  -0.9500  -2.874141629286   5.439596336335   2.647200281148 # oh
  307  17   5   0.4250  -2.491578074945   4.613905043964   2.232617245224 # ho
  308  18   4  -0.9500  -0.838542766075   2.334803906299  24.057637782433 # oh
  309  18   5   0.4250  -0.883187165703   1.508797974263  23.495747018401 # ho
  310  19   4  -0.9500   0.493458371388   5.439596336335  16.640950279505 # oh
  311  19   5   0.4250   0.876021925728   4.613905043964  16.226367243581 # ho
  312  20   4  -0.9500   2.529057234599   2.334803906299  10.063887784076 # oh
  313  20   5   0.4250   2.484412832950   1.508797974263   9.501997020044 # ho
  314  82   6  -0.8476  -0.329055516434   2.688750243252   2.985849033451 # o*
  315  82   7   0.4238   0.251647432564   2.688750243252   3.799964542423 # h*
  316  82   7   0.4238   0.251647432564   2.688750243252   2.171733518637 # h*
  317  83   6  -0.8476  -2.364654379645   5.793542673288  23.718989030129 # o*
  318  83   7   0.4238  -1.783951430647   5.793542673288  24.533104544944 # h*
  319  83   7   0.4238  -1.783951430647   5.793542673288  22.904873521158 # h*
  320  84   6  -0.8476   3.038544484239   2.688750243252  16.979599031809 # o*
  321  84   7   0.4238   3.619247433238   2.688750243252  17.793714546624 # h*
  322  84   7   0.4238   3.619247433238   2.688750243252  16.165483516994 # h*
  323  85   6  -0.8476   1.002945621028   5.793542673288   9.725239031772 # o*
  324  85   7   0.4238   1.583648570027   5.793542673288  10.539354546587 # h*
  325  85   7   0.4238   1.583648570027   5.793542673288   8.911123516957 # h*
  326  86   6  -0.8476  -0.584102699484   4.701897655106  11.782880033115 # o*
  327  86   7   0.4238  -0.003399750485   4.701897655106  12.596995542087 # h*
  328  86   7   0.4238  -0.003399750485   4.701897655106  10.968764518300 # h*
  329  87   6  -0.8476   1.451496163727   1.597105225070  14.917480031111 # o*
  330  87   7   0.4238   2.032199112726   1.597105225070  15.731595545926 # h*
  331  87   7   0.4238   2.032199112726   1.597105225070  14.103364516296 # h*
  332  88   6  -0.8476   2.783222302090   4.814291140430  13.271535154574 # o*
  333  61   7   0.4238  16.834325251762   4.814291140430  14.085650669389 # h*
  334  61   7   0.4238  16.834325251762   4.814291140430  12.457419645603 # h*
  335  89   6  -0.8476   4.023518672761   1.238812179337  13.439460153736 # o*
  336  89   7   0.4238   4.604221621760   1.238812179337  14.253575668551 # h*
  337  89   7   0.4238   4.604221621760   1.238812179337  12.625344644765 # h*
  338  90   6  -0.8476  -2.696766335760   5.696052191625  13.355497657077 # o*
  339  90   7   0.4238  -2.116063386762   5.696052191625  14.169613171892 # h*
  340  90   7   0.4238  -2.116063386762   5.696052191625  12.541382142262 # h*
  341  15   5   0.4250   5.179378821559   1.477881195781  26.703718560821 # ho
  342  16   5   0.4250   1.729566396022   4.582673625816   0.000000000000 # ho
  343  21   1   2.1000  -1.075597377946   8.531348638167   4.260679659444 # st
  344  28   1   2.1000  -3.111196239936  11.636141066340  22.441359656001 # st
  345 714   1   2.1000  -4.443197376599   8.531348638167  18.254429657801 # st
  346 715   1   2.1000  -6.478796238589  11.636141066340   8.447609657644 # st
  347  25   1   2.1000  -4.948509348987  10.791637526160  16.264518406919 # st
  348  26   1   2.1000  -2.912910485776   7.686845096124  10.437520908526 # st
  349  23   1   2.1000  -3.463682468683  12.101859930752   4.257880905465 # st
  350  24   1   2.1000  -1.428083606693   8.997067502579  22.444158404137 # st
  351 716   1   2.1000  -6.831282469356  12.101859930752  18.251630903823 # st
  352 717   1   2.1000  -4.795683607367   8.997067502579   8.450408405779 # st
  353 718   2   1.0500  -1.321931688572   8.773522447662   7.338744905365 # cah
  354 719   2   1.0500  -3.357530550561  11.878314875834  19.362174907320 # cah
  355 720   2   1.0500  -4.689531689245   8.773522447662  21.332494903723 # cah
  356 721   2   1.0500  -6.725130551235  11.878314875834   5.368424908962 # cah
  357 722   2   1.0500  -4.607452481748   8.792151202238   5.365626154983 # cah
  358 723   2   1.0500  -6.643051343738  11.896943630411  21.335293657702 # cah
  359 724   2   1.0500  -1.239852481075   8.792151202238  19.359376159184 # cah
  360 725   2   1.0500  -3.275451343064  11.896943630411   7.341543659344 # cah
  361 726   2   1.0500  -4.014453050330   9.202604760786  13.298962905002 # cah
  362  21   4  -0.9500  -1.574831490738   9.314377288245   2.850949280989 # oh
  363  22   4  -0.9500   0.460767372473   6.209584858209  23.852769279832 # oh
  364 727   3  -1.0500  -4.942431489391   9.314377288245  16.844699279346 # ob
  365 728   3  -1.0500  -2.906832626180   6.209584858209   9.859019281475 # ob
  366 729   3  -1.0500  -0.205953024286   7.308681378222   3.673781782142 # ob
  367 730   3  -1.0500  -2.241551887497  10.413473808258  23.029936784521 # ob
  368 731   3  -1.0500  -3.573553024960   7.308681378222  17.667531780500 # ob
  369 732   3  -1.0500  -5.609151888171  10.413473808258   9.036186780321 # ob
  370 733   3  -1.0500  -0.264751315214   9.575179852315   5.151521779445 # ob
  371 734   3  -1.0500   1.770847547997   6.470387422280  21.552196781376 # ob
  372 735   3  -1.0500  -3.632351313867   9.575179852315  19.145271783645 # ob
  373 736   3  -1.0500  -1.596752450656   6.470387422280   7.558446783019 # ob
  374 737   3  -1.0500  -2.292519090369   8.004154883653   5.137528032923 # ob
  375 738   3  -1.0500  -4.328117952358  11.108947311825  21.566190533741 # ob
  376 739   3  -1.0500  14.545480908958   8.004154883653  19.131278031280 # ob
  377 740   3  -1.0500  12.509882046968  11.108947311825   7.572440529540 # ob
  378 741   3  -1.0500  -2.966525685689   7.687466055852  12.002861779155 # ob
  379 742   3  -1.0500  -5.002124547679  10.792258484025  14.700856781666 # ob
  380  23   4  -0.9500  -2.944869017268  11.475933776982   2.862424159447 # oh
  381  24   4  -0.9500  -0.909270155279   8.371141348809  23.841854155675 # oh
  382 743   3  -1.0500  -6.312469017942  11.475933776982  16.856174157804 # ob
  383 744   3  -1.0500  -4.276870155952   8.371141348809   9.848104157318 # ob
  384 745   3  -1.0500  -4.535580379781  11.251767764200   5.143125529194 # ob
  385 746   3  -1.0500  -2.499981516570   8.146975334164  21.560593031626 # ob
  386 747   3  -1.0500  12.302419619546  11.251767764200  19.136875533395 # ob
  387 748   3  -1.0500  14.338018482757   8.146975334164   7.566843033269 # ob
  388 749   3  -1.0500   1.923961100322   6.340607099972   5.149282779768 # ob
  389 750   3  -1.0500  -0.111637761668   9.445399528145  21.555555283813 # ob
  390 751   3  -1.0500  -1.443638900352   6.340607099972  19.143032783968 # ob
  391 752   3  -1.0500  -3.479237762342   9.445399528145   7.561805279613 # ob
  392  25   4  -0.9500  -3.577739353813  11.649181194544  16.640950279505 # oh
  393  25   5   0.4250  -3.195175799472  10.823489902173  16.226367243581 # ho
  394  26   4  -0.9500  -1.542140491823   8.544388766371  10.063887784076 # oh
  395  26   5   0.4250  -1.586784892250   7.718382832472   9.501997020044 # ho
  396  91   6  -0.8476  -4.400253242856   8.898335103324   2.985849033451 # o*
  397  91   7   0.4238  -3.819550293858   8.898335103324   3.799964542423 # h*
  398  91   7   0.4238  -3.819550293858   8.898335103324   2.171733518637 # h*
  399  92   6  -0.8476  -6.435852104846  12.003127531497  23.718989030129 # o*
  400  92   7   0.4238  -5.855149155847  12.003127531497  24.533104544944 # h*
  401  92   7   0.4238  -5.855149155847  12.003127531497  22.904873521158 # h*
  402  93   6  -0.8476  -1.032653242183   8.898335103324  16.979599031809 # o*
  403  93   7   0.4238  -0.451950293184   8.898335103324  17.793714546624 # h*
  404  93   7   0.4238  -0.451950293184   8.898335103324  16.165483516994 # h*
  405  94   6  -0.8476  -3.068252104172  12.003127531497   9.725239031772 # o*
  406  94   7   0.4238  -2.487549155174  12.003127531497  10.539354546587 # h*
  407  94   7   0.4238  -2.487549155174  12.003127531497   8.911123516957 # h*
  408  95   6  -0.8476  -4.655300424684  10.911482513315  11.782880033115 # o*
  409  95   7   0.4238  -4.074597475685  10.911482513315  12.596995542087 # h*
  410  95   7   0.4238  -4.074597475685  10.911482513315  10.968764518300 # h*
  411  96   6  -0.8476  -2.619701562694   7.806690085142  14.917480031111 # o*
  412  96   7   0.4238  -2.038998613696   7.806690085142  15.731595545926 # h*
  413  96   7   0.4238  -2.038998613696   7.806690085142  14.103364516296 # h*
  414  97   6  -0.8476  -1.287975424332  11.023876000501  13.271535154574 # o*
  415  70   7   0.4238  12.763127525340  11.023876000501  14.085650669389 # h*
  416  70   7   0.4238  12.763127525340  11.023876000501  12.457419645603 # h*
  417  98   6  -0.8476  -0.047679052439   7.448397037545  13.439460153736 # o*
  418  98   7   0.4238   0.533023896559   7.448397037545  14.253575668551 # h*
  419  98   7   0.4238   0.533023896559   7.448397037545  12.625344644765 # h*
  420  99   6  -0.8476  -6.767964060961  11.905637049834  13.355497657077 # o*
  421  99   7   0.4238  -6.187261111962  11.905637049834  14.169613171892 # h*
  422  99   7   0.4238  -6.187261111962  11.905637049834  12.541382142262 # h*
  423  27   1   2.1000  -5.146795103147  14.740933496376   4.260679659444 # st
  424 753   1   2.1000  -7.182393966358  17.845725926412  22.441359656001 # st
  425 754   1   2.1000  -8.514395101800  14.740933496376  18.254429657801 # st
  426 755   1   2.1000 -10.549993965011  17.845725926412   8.447609657644 # st
  427  33   1   2.1000  -9.019707074187  17.001222384369  16.264518406919 # st
  428  34   1   2.1000  -6.984108212198  13.896429956196  10.437520908526 # st
  429  29   1   2.1000  -7.534880195105  18.311444790824   4.257880905465 # st
  430  30   1   2.1000  -5.499281331894  15.206652360788  22.444158404137 # st
  431 756   1   2.1000 -10.902480195778  18.311444790824  18.251630903823 # st
  432 757   1   2.1000  -8.866881332567  15.206652360788   8.450408405779 # st
  433 758   2   1.0500  -5.393129413772  14.983107305870   7.338744905365 # cah
  434 759   2   1.0500  -7.428728276983  18.087899735906  19.362174907320 # cah
  435 760   2   1.0500  -8.760729414445  14.983107305870  21.332494903723 # cah
  436 761   2   1.0500 -10.796328277656  18.087899735906   5.368424908962 # cah
  437 762   2   1.0500  -8.678650206949  15.001736060447   5.365626154983 # cah
  438 763   2   1.0500 -10.714249070160  18.106528490483  21.335293657702 # cah
  439 764   2   1.0500  -5.311050206275  15.001736060447  19.359376159184 # cah
  440 765   2   1.0500  -7.346649069486  18.106528490483   7.341543659344 # cah
  441 766   2   1.0500  -8.085650775531  15.412189618995  13.298962905002 # cah
  442  27   4  -0.9500  -5.646029215939  15.523962146453   2.850949280989 # oh
  443  28   4  -0.9500  -3.610430353949  12.419169718280  23.852769279832 # oh
  444 767   3  -1.0500  -9.013629214592  15.523962146453  16.844699279346 # ob
  445 768   3  -1.0500  -6.978030352602  12.419169718280   9.859019281475 # ob
  446 769   3  -1.0500  -4.277150750708  13.518266238293   3.673781782142 # ob
  447 770   3  -1.0500  -6.312749612698  16.623058666466  23.029936784521 # ob
  448 771   3  -1.0500  -7.644750751382  13.518266238293  17.667531780500 # ob
  449 772   3  -1.0500  -9.680349613371  16.623058666466   9.036186780321 # ob
  450 773   3  -1.0500  -4.335949040414  15.784764710524   5.151521779445 # ob
  451 774   3  -1.0500  -2.300350178425  12.679972282351  21.552196781376 # ob
  452 775   3  -1.0500  -7.703549039067  15.784764710524  19.145271783645 # ob
  453 776   3  -1.0500  -5.667950177078  12.679972282351   7.558446783019 # ob
  454 777   3  -1.0500  -6.363716815569  14.213739741861   5.137528032923 # ob
  455 778   3  -1.0500  -8.399315678780  17.318532171897  21.566190533741 # ob
  456 779   3  -1.0500  10.474283183757  14.213739741861  19.131278031280 # ob
  457 780   3  -1.0500   8.438684320546  17.318532171897   7.572440529540 # ob
  458 781   3  -1.0500  -7.037723410890  13.897050914061  12.002861779155 # ob
  459 782   3  -1.0500  -9.073322274101  17.001843344097  14.700856781666 # ob
  460  29   4  -0.9500  -7.016066743690  17.685518637054   2.862424159447 # oh
  461  30   4  -0.9500  -4.980467880479  14.580726207018  23.841854155675 # oh
  462 783   3  -1.0500 -10.383666744364  17.685518637054  16.856174157804 # ob
  463 784   3  -1.0500  -8.348067881153  14.580726207018   9.848104157318 # ob
  464 785   3  -1.0500  -8.606778104981  17.461352622408   5.143125529194 # ob
  465 786   3  -1.0500  -6.571179242992  14.356560194235  21.560593031626 # ob
  466 787   3  -1.0500   8.231221894345  17.461352622408  19.136875533395 # ob
  467 788   3  -1.0500  10.266820756335  14.356560194235   7.566843033269 # ob
  468 789   3  -1.0500  -2.147236624879  12.550191958181   5.149282779768 # ob
  469 790   3  -1.0500  -4.182835488090  15.654984388217  21.555555283813 # ob
  470 791   3  -1.0500  -5.514836625552  12.550191958181  19.143032783968 # ob
  471 792   3  -1.0500  -7.550435488763  15.654984388217   7.561805279613 # ob
  472  31   4  -0.9500 -11.016537080908  17.858766054615   2.647200281148 # oh
  473  31   5   0.4250 -10.633973525346  17.033074760382   2.232617245224 # ho
  474  32   4  -0.9500  -8.980938217697  14.753973624580  24.057637782433 # oh
  475  32   5   0.4250  -9.025582617325  13.927967692544  23.495747018401 # ho
  476  33   4  -0.9500  -7.648937080234  17.858766054615  16.640950279505 # oh
  477  33   5   0.4250  -7.266373524673  17.033074760382  16.226367243581 # ho
  478  34   4  -0.9500  -5.613338217024  14.753973624580  10.063887784076 # oh
  479  34   5   0.4250  -5.657982618672  13.927967692544   9.501997020044 # ho
  480 100   6  -0.8476  -8.471450968057  15.107919961533   2.985849033451 # o*
  481 100   7   0.4238  -7.890748019058  15.107919961533   3.799964542423 # h*
  482 100   7   0.4238  -7.890748019058  15.107919961533   2.171733518637 # h*
  483 101   6  -0.8476 -10.507049831268  18.212712391569  23.718989030129 # o*
  484 101   7   0.4238  -9.926346882269  18.212712391569  24.533104544944 # h*
  485 101   7   0.4238  -9.926346882269  18.212712391569  22.904873521158 # h*
  486 102   6  -0.8476  -5.103850967383  15.107919961533  16.979599031809 # o*
  487 102   7   0.4238  -4.523148018385  15.107919961533  17.793714546624 # h*
  488 102   7   0.4238  -4.523148018385  15.107919961533  16.165483516994 # h*
  489 103   6  -0.8476  -7.139449830594  18.212712391569   9.725239031772 # o*
  490 103   7   0.4238  -6.558746881596  18.212712391569  10.539354546587 # h*
  491 103   7   0.4238  -6.558746881596  18.212712391569   8.911123516957 # h*
  492 104   6  -0.8476  -8.726498151106  17.121067373386  11.782880033115 # o*
  493 104   7   0.4238  -8.145795202107  17.121067373386  12.596995542087 # h*
  494 104   7   0.4238  -8.145795202107  17.121067373386  10.968764518300 # h*
  495 105   6  -0.8476  -6.690899287895  14.016274943351  14.917480031111 # o*
  496 105   7   0.4238  -6.110196338896  14.016274943351  15.731595545926 # h*
  497 105   7   0.4238  -6.110196338896  14.016274943351  14.103364516296 # h*
  498 106   6  -0.8476  -5.359173149532  17.233460858710  13.271535154574 # o*
  499  79   7   0.4238   8.691929800140  17.233460858710  14.085650669389 # h*
  500  79   7   0.4238   8.691929800140  17.233460858710  12.457419645603 # h*
  501 107   6  -0.8476  -4.118876778861  13.657981897617  13.439460153736 # o*
  502 107   7   0.4238  -3.538173829862  13.657981897617  14.253575668551 # h*
  503 107   7   0.4238  -3.538173829862  13.657981897617  12.625344644765 # h*
  504 108   6  -0.8476 -10.839161786161  18.115221908043  13.355497657077 # o*
  505 108   7   0.4238 -10.258458837163  18.115221908043  14.169613171892 # h*
  506 108   7   0.4238 -10.258458837163  18.115221908043  12.541382142262 # h*
  507  35   1   2.1000   9.730800349822   2.321763778095   4.260679659444 # st
  508  44   1   2.1000   7.695201486612   5.426556208131  22.441359656001 # st
  509 793   1   2.1000   6.363200349149   2.321763778095  18.254429657801 # st
  510 794   1   2.1000   4.327601485938   5.426556208131   8.447609657644 # st
  511  41   1   2.1000   5.857888375540   4.582052667951  16.264518406919 # st
  512  42   1   2.1000   7.893487238751   1.477260237916  10.437520908526 # st
  513  37   1   2.1000   7.342715255844   5.892275072544   4.257880905465 # st
  514  38   1   2.1000   9.378314119055   2.787482642508  22.444158404137 # st
  515 795   1   2.1000   3.975115257191   5.892275072544  18.251630903823 # st
  516 796   1   2.1000   6.010714120402   2.787482642508   8.450408405779 # st
  517 797   2   1.0500   9.484466037177   2.563937587590   7.338744905365 # cah
  518 798   2   1.0500   7.448867173966   5.668730017626  19.362174907320 # cah
  519 799   2   1.0500   6.116866038524   2.563937587590  21.332494903723 # cah
  520 800   2   1.0500   4.081267175313   5.668730017626   5.368424908962 # cah
  521 801   2   1.0500   6.198945244000   2.582566342166   5.365626154983 # cah
  522 802   2   1.0500   4.163346380789   5.687358772202  21.335293657702 # cah
  523 803   2   1.0500   9.566545244673   2.582566342166  19.359376159184 # cah
  524 804   2   1.0500   7.530946381463   5.687358772202   7.341543659344 # cah
  525 805   2   1.0500   6.791944674197   2.993019902577  13.298962905002 # cah
  526  35   4  -0.9500   9.231566235809   3.104792430036   2.850949280989 # oh
  527  36   4  -0.9500  -0.946428077803  18.628754576489  23.852769279832 # oh
  528 806   3  -1.0500   5.863966235136   3.104792430036  16.844699279346 # ob
  529 807   3  -1.0500  -4.314028078476  18.628754576489   9.859019281475 # ob
  530 808   3  -1.0500  10.600444700240   1.099096520013   3.673781782142 # ob
  531 809   3  -1.0500   8.564845837030   4.203888950049  23.029936784521 # ob
  532 810   3  -1.0500   7.232844701587   1.099096520013  17.667531780500 # ob
  533 811   3  -1.0500   5.197245838377   4.203888950049   9.036186780321 # ob
  534 812   3  -1.0500  10.541646411334   3.365594994107   5.151521779445 # ob
  535 813   3  -1.0500  12.577245274545   0.260802564071  21.552196781376 # ob
  536 814   3  -1.0500   7.174046410660   3.365594994107  19.145271783645 # ob
  537 815   3  -1.0500   9.209645273871   0.260802564071   7.558446783019 # ob
  538 816   3  -1.0500   8.513878635380   1.794570023581   5.137528032923 # ob
  539 817   3  -1.0500   6.478279772169   4.899362453617  21.566190533741 # ob
  540 818   3  -1.0500   5.146278636727   1.794570023581  19.131278031280 # ob
  541 819   3  -1.0500   3.110679773516   4.899362453617   7.572440529540 # ob
  542 820   3  -1.0500   7.839872040059   1.477881195781  12.002861779155 # ob
  543 821   3  -1.0500   5.804273176848   4.582673625816  14.700856781666 # ob
  544  37   4  -0.9500   7.861528707259   5.266348918774   2.862424159447 # oh
  545  38   4  -0.9500   9.897127570470   2.161556488738  23.841854155675 # oh
  546 822   3  -1.0500   4.493928706585   5.266348918774  16.856174157804 # ob
  547 823   3  -1.0500   6.529527569796   2.161556488738   9.848104157318 # ob
  548 824   3  -1.0500   6.270817344746   5.042182905991   5.143125529194 # ob
  549 825   3  -1.0500   8.306416207957   1.937390475955  21.560593031626 # ob
  550 826   3  -1.0500   2.903217344073   5.042182905991  19.136875533395 # ob
  551 827   3  -1.0500   4.938816207283   1.937390475955   7.566843033269 # ob
  552 828   3  -1.0500  12.730358826070   0.131022239900   5.149282779768 # ob
  553 829   3  -1.0500  10.694759962859   3.235814669936  21.555555283813 # ob
  554 830   3  -1.0500   9.362758827417   0.131022239900  19.143032783968 # ob
  555 831   3  -1.0500   7.327159964206   3.235814669936   7.561805279613 # ob
  556  39   4  -0.9500   3.861058370041   5.439596336335   2.647200281148 # oh
  557  39   5   0.4250   4.243621926402   4.613905043964   2.232617245224 # ho
  558  40   4  -0.9500   5.896657233252   2.334803906299  24.057637782433 # oh
  559  40   5   0.4250   5.852012833624   1.508797974263  23.495747018401 # ho
  560  41   4  -0.9500   7.228658370714   5.439596336335  16.640950279505 # oh
  561  41   5   0.4250   7.611221925055   4.613905043964  16.226367243581 # ho
  562  42   4  -0.9500   9.264257233925   2.334803906299  10.063887784076 # oh
  563  42   5   0.4250   9.219612834297   1.508797974263   9.501997020044 # ho
  564 109   6  -0.8476   6.406144482892   2.688750243252   2.985849033451 # o*
  565 109   7   0.4238   6.986847433911   2.688750243252   3.799964542423 # h*
  566 109   7   0.4238   6.986847433911   2.688750243252   2.171733518637 # h*
  567 110   6  -0.8476   4.370545619681   5.793542673288  23.718989030129 # o*
  568 110   7   0.4238   4.951248570700   5.793542673288  24.533104544944 # h*
  569 110   7   0.4238   4.951248570700   5.793542673288  22.904873521158 # h*
  570 111   6  -0.8476   9.773744483566   2.688750243252  16.979599031809 # o*
  571 111   7   0.4238  10.354447432564   2.688750243252  17.793714546624 # h*
  572 111   7   0.4238  10.354447432564   2.688750243252  16.165483516994 # h*
  573 112   6  -0.8476   7.738145620355   5.793542673288   9.725239031772 # o*
  574 112   7   0.4238   8.318848569353   5.793542673288  10.539354546587 # h*
  575 112   7   0.4238   8.318848569353   5.793542673288   8.911123516957 # h*
  576 113   6  -0.8476   6.151097299843   4.701897655106  11.782880033115 # o*
  577 113   7   0.4238   6.731800250862   4.701897655106  12.596995542087 # h*
  578 113   7   0.4238   6.731800250862   4.701897655106  10.968764518300 # h*
  579 114   6  -0.8476   8.186696163054   1.597105225070  14.917480031111 # o*
  580 114   7   0.4238   8.767399114073   1.597105225070  15.731595545926 # h*
  581 114   7   0.4238   8.767399114073   1.597105225070  14.103364516296 # h*
  582 115   6  -0.8476   9.518422301417   4.814291140430  13.271535154574 # o*
  583  88   7   0.4238   3.363925251089   4.814291140430  14.085650669389 # h*
  584  88   7   0.4238   3.363925251089   4.814291140430  12.457419645603 # h*
  585 116   6  -0.8476  10.758718672088   1.238812179337  13.439460153736 # o*
  586 116   7   0.4238  11.339421621086   1.238812179337  14.253575668551 # h*
  587 116   7   0.4238  11.339421621086   1.238812179337  12.625344644765 # h*
  588 117   6  -0.8476   4.038433663566   5.696052191625  13.355497657077 # o*
  589 117   7   0.4238   4.619136614585   5.696052191625  14.169613171892 # h*
  590 117   7   0.4238   4.619136614585   5.696052191625  12.541382142262 # h*
  591  43   1   2.1000   5.659602623401   8.531348638167   4.260679659444 # st
  592  50   1   2.1000   3.624003761411  11.636141066340  22.441359656001 # st
  593 832   1   2.1000   2.292002622727   8.531348638167  18.254429657801 # st
  594 833   1   2.1000   0.256403760738  11.636141066340   8.447609657644 # st
  595  47   1   2.1000   1.786690650340  10.791637526160  16.264518406919 # st
  596  48   1   2.1000   3.822289513551   7.686845096124  10.437520908526 # st
  597  45   1   2.1000   3.271517530644  12.101859930752   4.257880905465 # st
  598  46   1   2.1000   5.307116392633   8.997067502579  22.444158404137 # st
  599 834   1   2.1000  -0.096082468009  12.101859930752  18.251630903823 # st
  600 835   1   2.1000   1.939516393980   8.997067502579   8.450408405779 # st
  601 836   2   1.0500   5.413268310755   8.773522447662   7.338744905365 # cah
  602 837   2   1.0500   3.377669448765  11.878314875834  19.362174907320 # cah
  603 838   2   1.0500   2.045668312102   8.773522447662  21.332494903723 # cah
  604 839   2   1.0500   0.010069450112  11.878314875834   5.368424908962 # cah
  605 840   2   1.0500   2.127747517578   8.792151202238   5.365626154983 # cah
  606 841   2   1.0500   0.092148655589  11.896943630411  21.335293657702 # cah
  607 842   2   1.0500   5.495347518252   8.792151202238  19.359376159184 # cah
  608 843   2   1.0500   3.459748656262  11.896943630411   7.341543659344 # cah
  609 844   2   1.0500   2.720746948996   9.202604760786  13.298962905002 # cah
  610  43   4  -0.9500   5.160368510609   9.314377288245   2.850949280989 # oh
  611  44   4  -0.9500   7.195967373820   6.209584858209  23.852769279832 # oh
  612 845   3  -1.0500   1.792768509935   9.314377288245  16.844699279346 # ob
  613 846   3  -1.0500   3.828367373146   6.209584858209   9.859019281475 # ob
  614 847   3  -1.0500   6.529246975040   7.308681378222   3.673781782142 # ob
  615 848   3  -1.0500   4.493648111829  10.413473808258  23.029936784521 # ob
  616 849   3  -1.0500   3.161646976387   7.308681378222  17.667531780500 # ob
  617 850   3  -1.0500   1.126048113176  10.413473808258   9.036186780321 # ob
  618 851   3  -1.0500   6.470448686133   9.575179852315   5.151521779445 # ob
  619 852   3  -1.0500   8.506047549344   6.470387422280  21.552196781376 # ob
  620 853   3  -1.0500   3.102848685460   9.575179852315  19.145271783645 # ob
  621 854   3  -1.0500   5.138447548671   6.470387422280   7.558446783019 # ob
  622 855   3  -1.0500   4.442680908958   8.004154883653   5.137528032923 # ob
  623 856   3  -1.0500   2.407082046968  11.108947311825  21.566190533741 # ob
  624 857   3  -1.0500   1.075080910305   8.004154883653  19.131278031280 # ob
  625 858   3  -1.0500  -0.960517951685  11.108947311825   7.572440529540 # ob
  626 859   3  -1.0500   3.768674313637   7.687466055852  12.002861779155 # ob
  627 860   3  -1.0500   1.733075451648  10.792258484025  14.700856781666 # ob
  628  45   4  -0.9500   3.790330982058  11.475933776982   2.862424159447 # oh
  629  46   4  -0.9500   5.825929844048   8.371141348809  23.841854155675 # oh
  630 861   3  -1.0500   0.422730981385  11.475933776982  16.856174157804 # ob
  631 862   3  -1.0500   2.458329843374   8.371141348809   9.848104157318 # ob
  632 863   3  -1.0500   2.199619619546  11.251767764200   5.143125529194 # ob
  633 864   3  -1.0500   4.235218482757   8.146975334164  21.560593031626 # ob
  634 865   3  -1.0500  -1.167980381128  11.251767764200  19.136875533395 # ob
  635 866   3  -1.0500   0.867618482083   8.146975334164   7.566843033269 # ob
  636 867   3  -1.0500   8.659161099648   6.340607099972   5.149282779768 # ob
  637 868   3  -1.0500   6.623562237658   9.445399528145  21.555555283813 # ob
  638 869   3  -1.0500   5.291561100995   6.340607099972  19.143032783968 # ob
  639 870   3  -1.0500   3.255962239005   9.445399528145   7.561805279613 # ob
  640  47   4  -0.9500   3.157460645514  11.649181194544  16.640950279505 # oh
  641  47   5   0.4250   3.540024199854  10.823489902173  16.226367243581 # ho
  642  48   4  -0.9500   5.193059507503   8.544388766371  10.063887784076 # oh
  643  48   5   0.4250   5.148415109097   7.718382832472   9.501997020044 # ho
  644 118   6  -0.8476   2.334946756470   8.898335103324   2.985849033451 # o*
  645 118   7   0.4238   2.915649707489   8.898335103324   3.799964542423 # h*
  646 118   7   0.4238   2.915649707489   8.898335103324   2.171733518637 # h*
  647 119   6  -0.8476   0.299347894481  12.003127531497  23.718989030129 # o*
  648 119   7   0.4238   0.880050845500  12.003127531497  24.533104544944 # h*
  649 119   7   0.4238   0.880050845500  12.003127531497  22.904873521158 # h*
  650 120   6  -0.8476   5.702546757144   8.898335103324  16.979599031809 # o*
  651 120   7   0.4238   6.283249706142   8.898335103324  17.793714546624 # h*
  652 120   7   0.4238   6.283249706142   8.898335103324  16.165483516994 # h*
  653 121   6  -0.8476   3.666947895154  12.003127531497   9.725239031772 # o*
  654 121   7   0.4238   4.247650844153  12.003127531497  10.539354546587 # h*
  655 121   7   0.4238   4.247650844153  12.003127531497   8.911123516957 # h*
  656 122   6  -0.8476   2.079899574643  10.911482513315  11.782880033115 # o*
  657 122   7   0.4238   2.660602525662  10.911482513315  12.596995542087 # h*
  658 122   7   0.4238   2.660602525662  10.911482513315  10.968764518300 # h*
  659 123   6  -0.8476   4.115498436632   7.806690085142  14.917480031111 # o*
  660 123   7   0.4238   4.696201387651   7.806690085142  15.731595545926 # h*
  661 123   7   0.4238   4.696201387651   7.806690085142  14.103364516296 # h*
  662 124   6  -0.8476   5.447224574995  11.023876000501  13.271535154574 # o*
  663  97   7   0.4238  -0.707272475333  11.023876000501  14.085650669389 # h*
  664  97   7   0.4238  -0.707272475333  11.023876000501  12.457419645603 # h*
  665 125   6  -0.8476   6.687520946887   7.448397037545  13.439460153736 # o*
  666 125   7   0.4238   7.268223895886   7.448397037545  14.253575668551 # h*
  667 125   7   0.4238   7.268223895886   7.448397037545  12.625344644765 # h*
  668 126   6  -0.8476  -0.032764061634  11.905637049834  13.355497657077 # o*
  669 126   7   0.4238   0.547938889385  11.905637049834  14.169613171892 # h*
  670 126   7   0.4238   0.547938889385  11.905637049834  12.541382142262 # h*
  671  49   1   2.1000   1.588404898200  14.740933496376   4.260679659444 # st
  672  36   1   2.1000  -0.447193965011  17.845725926412  22.441359656001 # st
  673 871   1   2.1000  -1.779195102473  14.740933496376  18.254429657801 # st
  674 872   1   2.1000  -3.814793965684  17.845725926412   8.447609657644 # st
  675  53   1   2.1000  -2.284507074861  17.001222384369  16.264518406919 # st
  676  54   1   2.1000  -0.248908212871  13.896429956196  10.437520908526 # st
  677  51   1   2.1000  -0.799680195778  18.311444790824   4.257880905465 # st
  678  52   1   2.1000   1.235918667433  15.206652360788  22.444158404137 # st
  679 873   1   2.1000  -4.167280194431  18.311444790824  18.251630903823 # st
  680 874   1   2.1000  -2.131681331220  15.206652360788   8.450408405779 # st
  681 875   2   1.0500   1.342070585555  14.983107305870   7.338744905365 # cah
  682 876   2   1.0500  -0.693528277656  18.087899735906  19.362174907320 # cah
  683 877   2   1.0500  -2.025529413098  14.983107305870  21.332494903723 # cah
  684 878   2   1.0500  -4.061128276309  18.087899735906   5.368424908962 # cah
  685 879   2   1.0500  -1.943450207622  15.001736060447   5.365626154983 # cah
  686 880   2   1.0500  -3.979049070833  18.106528490483  21.335293657702 # cah
  687 881   2   1.0500   1.424149793051  15.001736060447  19.359376159184 # cah
  688 882   2   1.0500  -0.611449070160  18.106528490483   7.341543659344 # cah
  689 883   2   1.0500  -1.350450776204  15.412189618995  13.298962905002 # cah
  690  49   4  -0.9500   1.089170785408  15.523962146453   2.850949280989 # oh
  691  50   4  -0.9500   3.124769647398  12.419169718280  23.852769279832 # oh
  692 884   3  -1.0500  -2.278429215265  15.523962146453  16.844699279346 # ob
  693 885   3  -1.0500  -0.242830353276  12.419169718280   9.859019281475 # ob
  694 886   3  -1.0500   2.458049248618  13.518266238293   3.673781782142 # ob
  695 887   3  -1.0500   0.422450386629  16.623058666466  23.029936784521 # ob
  696 888   3  -1.0500  -0.909550750035  13.518266238293  17.667531780500 # ob
  697 889   3  -1.0500  -2.945149612024  16.623058666466   9.036186780321 # ob
  698 890   3  -1.0500   2.399250960933  15.784764710524   5.151521779445 # ob
  699 891   3  -1.0500   4.434849822922  12.679972282351  21.552196781376 # ob
  700 892   3  -1.0500  -0.968349039741  15.784764710524  19.145271783645 # ob
  701 893   3  -1.0500   1.067249822249  12.679972282351   7.558446783019 # ob
  702 894   3  -1.0500   0.371483183757  14.213739741861   5.137528032923 # ob
  703 895   3  -1.0500  -1.664115679454  17.318532171897  21.566190533741 # ob
  704 896   3  -1.0500  -2.996116814896  14.213739741861  19.131278031280 # ob
  705 897   3  -1.0500  -5.031715678107  17.318532171897   7.572440529540 # ob
  706 898   3  -1.0500  -0.302523411563  13.897050914061  12.002861779155 # ob
  707 899   3  -1.0500  -2.338122274774  17.001843344097  14.700856781666 # ob
  708  51   4  -0.9500  -0.280866744364  17.685518637054   2.862424159447 # oh
  709  52   4  -0.9500   1.754732118847  14.580726207018  23.841854155675 # oh
  710 900   3  -1.0500  -3.648466745037  17.685518637054  16.856174157804 # ob
  711 901   3  -1.0500  -1.612867881826  14.580726207018   9.848104157318 # ob
  712 902   3  -1.0500  -1.871578105655  17.461352622408   5.143125529194 # ob
  713 903   3  -1.0500   0.164020756335  14.356560194235  21.560593031626 # ob
  714 904   3  -1.0500  -5.239178106328  17.461352622408  19.136875533395 # ob
  715 905   3  -1.0500  -3.203579244339  14.356560194235   7.566843033269 # ob
  716 906   3  -1.0500   4.587963374448  12.550191958181   5.149282779768 # ob
  717 907   3  -1.0500   2.552364511237  15.654984388217  21.555555283813 # ob
  718 908   3  -1.0500   1.220363375795  12.550191958181  19.143032783968 # ob
  719 909   3  -1.0500  -0.815235487416  15.654984388217   7.561805279613 # ob
  720  53   4  -0.9500  -0.913737080908  17.858766054615  16.640950279505 # oh
  721  53   5   0.4250  -0.531173525346  17.033074760382  16.226367243581 # ho
  722  54   4  -0.9500   1.121861782303  14.753973624580  10.063887784076 # oh
  723  54   5   0.4250   1.077217382675  13.927967692544   9.501997020044 # ho
  724 127   6  -0.8476  -1.736250968730  15.107919961533   2.985849033451 # o*
  725 127   7   0.4238  -1.155548017711  15.107919961533   3.799964542423 # h*
  726 127   7   0.4238  -1.155548017711  15.107919961533   2.171733518637 # h*
  727 128   6  -0.8476  -3.771849831941  18.212712391569  23.718989030129 # o*
  728 128   7   0.4238  -3.191146880922  18.212712391569  24.533104544944 # h*
  729 128   7   0.4238  -3.191146880922  18.212712391569  22.904873521158 # h*
  730 129   6  -0.8476   1.631349031943  15.107919961533  16.979599031809 # o*
  731 129   7   0.4238   2.212051980942  15.107919961533  17.793714546624 # h*
  732 129   7   0.4238   2.212051980942  15.107919961533  16.165483516994 # h*
  733 130   6  -0.8476  -0.404249831268  18.212712391569   9.725239031772 # o*
  734 130   7   0.4238   0.176453117731  18.212712391569  10.539354546587 # h*
  735 130   7   0.4238   0.176453117731  18.212712391569   8.911123516957 # h*
  736 131   6  -0.8476  -1.991298151779  17.121067373386  11.782880033115 # o*
  737 131   7   0.4238  -1.410595200760  17.121067373386  12.596995542087 # h*
  738 131   7   0.4238  -1.410595200760  17.121067373386  10.968764518300 # h*
  739 132   6  -0.8476   0.044300711432  14.016274943351  14.917480031111 # o*
  740 132   7   0.4238   0.625003662451  14.016274943351  15.731595545926 # h*
  741 132   7   0.4238   0.625003662451  14.016274943351  14.103364516296 # h*
  742 133   6  -0.8476   1.376026849794  17.233460858710  13.271535154574 # o*
  743 106   7   0.4238  -4.778470200534  17.233460858710  14.085650669389 # h*
  744 106   7   0.4238  -4.778470200534  17.233460858710  12.457419645603 # h*
  745 134   6  -0.8476   2.616323220466  13.657981897617  13.439460153736 # o*
  746 134   7   0.4238   3.197026169464  13.657981897617  14.253575668551 # h*
  747 134   7   0.4238   3.197026169464  13.657981897617  12.625344644765 # h*
  748 135   6  -0.8476  -4.103961786835  18.115221908043  13.355497657077 # o*
  749 135   7   0.4238  -3.523258835816  18.115221908043  14.169613171892 # h*
  750 135   7   0.4238  -3.523258835816  18.115221908043  12.541382142262 # h*
  751   6   5   0.4250  14.638274155319   6.209584858209  24.559876063141 # ho
  752   8   5   0.4250  13.268236625548   8.371141348809  24.548960938984 # ho
  753  22   5   0.4250   1.167874154646   6.209584858209  24.559876063141 # ho
  754  24   5   0.4250  -0.202163373105   8.371141348809  24.548960938984 # ho
  755  28   5   0.4250  -2.903323571776  12.419169718280  24.559876063141 # ho
  756  30   5   0.4250  -4.273361098306  14.580726207018  24.548960938984 # ho
  757  36   5   0.4250  -0.239321295629  18.628754576489  24.559876063141 # ho
  758  38   5   0.4250  10.604234352643   2.161556488738  24.548960938984 # ho
  759  44   5   0.4250   7.903074155993   6.209584858209  24.559876063141 # ho
  760  46   5   0.4250   6.533036626221   8.371141348809  24.548960938984 # ho
  761  50   5   0.4250   3.831876429571  12.419169718280  24.559876063141 # ho
  762  52   5   0.4250   2.461838901021  14.580726207018  24.548960938984 # ho
  763   5   5   0.4250  11.188461727762   9.314377288245   2.143842497680 # ho
  764   7   5   0.4250   9.818424199212  11.475933776982   2.155317376138 # ho
  765  21   5   0.4250  -2.281938272912   9.314377288245   2.143842497680 # ho
  766  23   5   0.4250  -3.651975799441  11.475933776982   2.155317376138 # ho
  767  27   5   0.4250  -6.353135998112  15.523962146453   2.143842497680 # ho
  768  29   5   0.4250  -7.723173525863  17.685518637054   2.155317376138 # ho
  769  35   5   0.4250   8.524459453636   3.104792430036   2.143842497680 # ho
  770  37   5   0.4250   7.154421925086   5.266348918774   2.155317376138 # ho
  771  43   5   0.4250   4.453261728435   9.314377288245   2.143842497680 # ho
  772  45   5   0.4250   3.083224199885  11.475933776982   2.155317376138 # ho
  773  49   5   0.4250   0.382064003235  15.523962146453   2.143842497680 # ho
  774  51   5   0.4250  -0.987973526537  17.685518637054   2.155317376138 # ho
  775 136   7   0.4238  15.397567698208   3.195227164719  40.029074130949 # h*
  776 136   7   0.4238  13.816188549692   3.195227164719  40.029074130949 # h*
  777 136   6  -0.8476  14.606878124579   2.583009885361  40.029074130949 # o*
  778 137   7   0.4238  -4.930030351464   8.517728472021  40.029074130949 # h*
  779 137   7   0.4238  13.694190500019   8.517728472021  40.029074130949 # h*
  780 137   6  -0.8476  14.484880072886   7.905511192664  40.029074130949 # o*
  781 138   7   0.4238  10.305374271751   5.856477819301  52.714498102735 # h*
  782 138   7   0.4238   8.723995125255   5.856477819301  52.714498102735 # h*
  783 138   6  -0.8476   9.514684699343   5.244260538081  52.714498102735 # o*
  784 139   7   0.4238 -10.164427427594  16.501480433906  32.417819743203 # h*
  785 139   7   0.4238   8.459793423889  16.501480433906  32.417819743203 # h*
  786 139   6  -0.8476   9.250482997977  15.889263152685  32.417819743203 # o*
  787 140   7   0.4238  -1.440432301118   3.195227164719  42.566158922969 # h*
  788 140   7   0.4238  17.183788550365   3.195227164719  42.566158922969 # h*
  789 140   6  -0.8476  17.974478123232   2.583009885361  42.566158922969 # o*
  790 141   7   0.4238  10.407166724666   0.533976510136  37.491989333086 # h*
  791 141   7   0.4238   8.825787576149   0.533976510136  37.491989333086 # h*
  792 141   6  -0.8476  -2.597116027807  18.550513807268  37.491989333086 # o*
  793 142   7   0.4238  -5.052028403158  13.840229779323  40.029074130949 # h*
  794 142   7   0.4238  -6.633407549654  13.840229779323  40.029074130949 # h*
  795 142   6  -0.8476  -5.842717976787  13.228012499966  40.029074130949 # o*
  796 143   7   0.4238  17.142366723992   0.533976510136  42.566158922969 # h*
  797 143   7   0.4238  15.560987575476   0.533976510136  42.566158922969 # h*
  798 143   6  -0.8476   4.138083973540  18.550513807268  42.566158922969 # o*
  799 144   7   0.4238   1.805169647862   8.517728472021  32.417819743203 # h*
  800 144   7   0.4238   0.223790499346   8.517728472021  32.417819743203 # h*
  801 144   6  -0.8476   1.014480074233   7.905511192664  32.417819743203 # o*
  802 145   7   0.4238  13.652768672425   5.856477819301  52.714498102735 # h*
  803 145   7   0.4238  12.071389523908   5.856477819301  52.714498102735 # h*
  804 145   6  -0.8476  12.862079100016   5.244260538081  52.714498102735 # o*
  805 146   7   0.4238  11.907969647862   8.517728472021  40.029074130949 # h*
  806 146   7   0.4238  10.326590499346   8.517728472021  40.029074130949 # h*
  807 146   6  -0.8476  11.117280074233   7.905511192664  40.029074130949 # o*
  808 147   7   0.4238 -10.164427427594  16.501480433906  50.177413310715 # h*
  809 147   7   0.4238   8.459793423889  16.501480433906  50.177413310715 # h*
  810 147   6  -0.8476   9.250482997977  15.889263152685  50.177413310715 # o*
  811 148   7   0.4238   0.060370622078  11.178979126604  40.029074130949 # h*
  812 148   7   0.4238  -1.521008526438  11.178979126604  40.029074130949 # h*
  813 148   6  -0.8476  -0.730318950330  10.566761845383  40.029074130949 # o*
  814 149   7   0.4238  -5.052028403158  13.840229779323  42.566158922969 # h*
  815 149   7   0.4238  -6.633407549654  13.840229779323  42.566158922969 # h*
  816 149   6  -0.8476  -5.842717976787  13.228012499966  42.566158922969 # o*
  817 150   7   0.4238  10.163170622078  11.178979126604  32.417819743203 # h*
  818 150   7   0.4238   8.581791473562  11.178979126604  32.417819743203 # h*
  819 150   6  -0.8476   9.372481049670  10.566761845383  32.417819743203 # o*
  820 151   7   0.4238   6.815776221405  11.178979126604  32.417819743203 # h*
  821 151   7   0.4238   5.234397074909  11.178979126604  32.417819743203 # h*
  822 151   6  -0.8476   6.025086648997  10.566761845383  32.417819743203 # o*
  823 152   7   0.4238   8.662367698882   3.195227164719  50.177413310715 # h*
  824 152   7   0.4238   7.080988550365   3.195227164719  50.177413310715 # h*
  825 152   6  -0.8476   7.871678123232   2.583009885361  50.177413310715 # o*
  826 153   7   0.4238  -8.419628401811  13.840229779323  50.177413310715 # h*
  827 153   7   0.4238  10.204592449673  13.840229779323  50.177413310715 # h*
  828 153   6  -0.8476  10.995282022539  13.228012499966  50.177413310715 # o*
  829 154   7   0.4238  13.794972323319   0.533976510136  40.029074130949 # h*
  830 154   7   0.4238  12.213593176823   0.533976510136  40.029074130949 # h*
  831 154   6  -0.8476   0.790689572866  18.550513807268  40.029074130949 # o*
  832 155   7   0.4238  -3.307229378595  11.178979126604  52.714498102735 # h*
  833 155   7   0.4238  -4.888608525091  11.178979126604  52.714498102735 # h*
  834 155   6  -0.8476  -4.097918951003  10.566761845383  52.714498102735 # o*
  835 156   7   0.4238  12.050173297535   3.195227164719  42.566158922969 # h*
  836 156   7   0.4238  10.468794151039   3.195227164719  42.566158922969 # h*
  837 156   6  -0.8476  11.259483723905   2.583009885361  42.566158922969 # o*
  838 157   7   0.4238  -6.796827428941  16.501480433906  34.954904541066 # h*
  839 157   7   0.4238  -8.378206575438  16.501480433906  34.954904541066 # h*
  840 157   6  -0.8476  -7.587517001350  15.889263152685  34.954904541066 # o*
  841 158   7   0.4238  -3.307229378595  11.178979126604  47.640328512852 # h*
  842 158   7   0.4238  -4.888608525091  11.178979126604  47.640328512852 # h*
  843 158   6  -0.8476  -4.097918951003  10.566761845383  47.640328512852 # o*
  844 159   7   0.4238   3.549968672425   5.856477819301  45.103243720832 # h*
  845 159   7   0.4238   1.968589523908   5.856477819301  45.103243720832 # h*
  846 159   6  -0.8476   2.759279100016   5.244260538081  45.103243720832 # o*
  847 160   7   0.4238   7.039566723992   0.533976510136  37.491989333086 # h*
  848 160   7   0.4238   5.458187575476   0.533976510136  37.491989333086 # h*
  849 160   6  -0.8476  -5.964716026460  18.550513807268  37.491989333086 # o*
  850 161   7   0.4238   6.673572571732  16.501480433906  55.251582900598 # h*
  851 161   7   0.4238   5.092193423215  16.501480433906  55.251582900598 # h*
  852 161   6  -0.8476   5.882882999324  15.889263152685  55.251582900598 # o*
  853 162   7   0.4238  -6.674829377248  11.178979126604  40.029074130949 # h*
  854 162   7   0.4238  11.949391474235  11.178979126604  40.029074130949 # h*
  855 162   6  -0.8476  12.740081048323  10.566761845383  40.029074130949 # o*
  856 163   7   0.4238   0.060370622078  11.178979126604  37.491989333086 # h*
  857 163   7   0.4238  -1.521008526438  11.178979126604  37.491989333086 # h*
  858 163   6  -0.8476  -0.730318950330  10.566761845383  37.491989333086 # o*
  859 164   7   0.4238  -6.674829377248  11.178979126604  45.103243720832 # h*
  860 164   7   0.4238  11.949391474235  11.178979126604  45.103243720832 # h*
  861 164   6  -0.8476  12.740081048323  10.566761845383  45.103243720832 # o*
  862 165   7   0.4238  10.305374271751   5.856477819301  42.566158922969 # h*
  863 165   7   0.4238   8.723995125255   5.856477819301  42.566158922969 # h*
  864 165   6  -0.8476   9.514684699343   5.244260538081  42.566158922969 # o*
  865 166   7   0.4238   3.326178171059  16.501480433906  55.251582900598 # h*
  866 166   7   0.4238   1.744799024562  16.501480433906  55.251582900598 # h*
  867 166   6  -0.8476   2.535488598650  15.889263152685  55.251582900598 # o*
  868 167   7   0.4238   1.683171598189  13.840229779323  40.029074130949 # h*
  869 167   7   0.4238   0.101792449673  13.840229779323  40.029074130949 # h*
  870 167   6  -0.8476   0.892482022539  13.228012499966  40.029074130949 # o*
  871 168   7   0.4238  -1.684428402484  13.840229779323  32.417819743203 # h*
  872 168   7   0.4238  -3.265807551001  13.840229779323  32.417819743203 # h*
  873 168   6  -0.8476  -2.475117976114  13.228012499966  32.417819743203 # o*
  874 169   7   0.4238   5.294767698208   3.195227164719  55.251582900598 # h*
  875 169   7   0.4238   3.713388549692   3.195227164719  55.251582900598 # h*
  876 169   6  -0.8476   4.504078124579   2.583009885361  55.251582900598 # o*
  877 170   7   0.4238   8.560575247189   8.517728472021  29.880734951183 # h*
  878 170   7   0.4238   6.979196100693   8.517728472021  29.880734951183 # h*
  879 170   6  -0.8476   7.769885673559   7.905511192664  29.880734951183 # o*
  880 171   7   0.4238  -4.930030351464   8.517728472021  34.954904541066 # h*
  881 171   7   0.4238  13.694190500019   8.517728472021  34.954904541066 # h*
  882 171   6  -0.8476  14.484880072886   7.905511192664  34.954904541066 # o*
  883 172   7   0.4238   3.671966723319   0.533976510136  45.103243720832 # h*
  884 172   7   0.4238   2.090587576823   0.533976510136  45.103243720832 # h*
  885 172   6  -0.8476  -9.332316027134  18.550513807268  45.103243720832 # o*
  886 173   7   0.4238  -6.796827428941  16.501480433906  50.177413310715 # h*
  887 173   7   0.4238  -8.378206575438  16.501480433906  50.177413310715 # h*
  888 173   6  -0.8476  -7.587517001350  15.889263152685  50.177413310715 # o*
  889 174   7   0.4238  -5.052028403158  13.840229779323  37.491989333086 # h*
  890 174   7   0.4238  -6.633407549654  13.840229779323  37.491989333086 # h*
  891 174   6  -0.8476  -5.842717976787  13.228012499966  37.491989333086 # o*
  892 175   7   0.4238  13.794972323319   0.533976510136  55.251582900598 # h*
  893 175   7   0.4238  12.213593176823   0.533976510136  55.251582900598 # h*
  894 175   6  -0.8476   0.790689572866  18.550513807268  55.251582900598 # o*
  895 176   7   0.4238   0.060370622078  11.178979126604  29.880734951183 # h*
  896 176   7   0.4238  -1.521008526438  11.178979126604  29.880734951183 # h*
  897 176   6  -0.8476  -0.730318950330  10.566761845383  29.880734951183 # o*
  898 177   7   0.4238  10.163170622078  11.178979126604  37.491989333086 # h*
  899 177   7   0.4238   8.581791473562  11.178979126604  37.491989333086 # h*
  900 177   6  -0.8476   9.372481049670  10.566761845383  37.491989333086 # o*
  901 178   7   0.4238  12.050173297535   3.195227164719  34.954904541066 # h*
  902 178   7   0.4238  10.468794151039   3.195227164719  34.954904541066 # h*
  903 178   6  -0.8476  11.259483723905   2.583009885361  34.954904541066 # o*
  904 179   7   0.4238   6.673572571732  16.501480433906  45.103243720832 # h*
  905 179   7   0.4238   5.092193423215  16.501480433906  45.103243720832 # h*
  906 179   6  -0.8476   5.882882999324  15.889263152685  45.103243720832 # o*
  907 180   7   0.4238   3.326178171059  16.501480433906  34.954904541066 # h*
  908 180   7   0.4238   1.744799024562  16.501480433906  34.954904541066 # h*
  909 180   6  -0.8476   2.535488598650  15.889263152685  34.954904541066 # o*
  910 181   7   0.4238   3.671966723319   0.533976510136  42.566158922969 # h*
  911 181   7   0.4238   2.090587576823   0.533976510136  42.566158922969 # h*
  912 181   6  -0.8476  -9.332316027134  18.550513807268  42.566158922969 # o*
  913 182   7   0.4238  -1.562430352811   8.517728472021  47.640328512852 # h*
  914 182   7   0.4238  -3.143809499307   8.517728472021  47.640328512852 # h*
  915 182   6  -0.8476  -2.353119926441   7.905511192664  47.640328512852 # o*
  916 183   7   0.4238   6.673572571732  16.501480433906  50.177413310715 # h*
  917 183   7   0.4238   5.092193423215  16.501480433906  50.177413310715 # h*
  918 183   6  -0.8476   5.882882999324  15.889263152685  50.177413310715 # o*
  919 184   7   0.4238   3.549968672425   5.856477819301  32.417819743203 # h*
  920 184   7   0.4238   1.968589523908   5.856477819301  32.417819743203 # h*
  921 184   6  -0.8476   2.759279100016   5.244260538081  32.417819743203 # o*
  922 185   7   0.4238  10.163170622078  11.178979126604  40.029074130949 # h*
  923 185   7   0.4238   8.581791473562  11.178979126604  40.029074130949 # h*
  924 185   6  -0.8476   9.372481049670  10.566761845383  40.029074130949 # o*
  925 186   7   0.4238   6.917568673098   5.856477819301  29.880734951183 # h*
  926 186   7   0.4238   5.336189524582   5.856477819301  29.880734951183 # h*
  927 186   6  -0.8476   6.126879098669   5.244260538081  29.880734951183 # o*
  928 187   7   0.4238  -8.419628401811  13.840229779323  52.714498102735 # h*
  929 187   7   0.4238  10.204592449673  13.840229779323  52.714498102735 # h*
  930 187   6  -0.8476  10.995282022539  13.228012499966  52.714498102735 # o*
  931 188   7   0.4238  10.305374271751   5.856477819301  40.029074130949 # h*
  932 188   7   0.4238   8.723995125255   5.856477819301  40.029074130949 # h*
  933 188   6  -0.8476   9.514684699343   5.244260538081  40.029074130949 # o*
  934 189   7   0.4238   1.927167697535   3.195227164719  37.491989333086 # h*
  935 189   7   0.4238   0.345788551039   3.195227164719  37.491989333086 # h*
  936 189   6  -0.8476   1.136478123905   2.583009885361  37.491989333086 # o*
  937 190   7   0.4238   1.927167697535   3.195227164719  52.714498102735 # h*
  938 190   7   0.4238   0.345788551039   3.195227164719  52.714498102735 # h*
  939 190   6  -0.8476   1.136478123905   2.583009885361  52.714498102735 # o*
  940 191   7   0.4238   0.060370622078  11.178979126604  34.954904541066 # h*
  941 191   7   0.4238  -1.521008526438  11.178979126604  34.954904541066 # h*
  942 191   6  -0.8476  -0.730318950330  10.566761845383  34.954904541066 # o*
  943 192   7   0.4238   8.418371597516  13.840229779323  55.251582900598 # h*
  944 192   7   0.4238   6.836992448999  13.840229779323  55.251582900598 # h*
  945 192   6  -0.8476   7.627682023886  13.228012499966  55.251582900598 # o*
  946 193   7   0.4238 -10.164427427594  16.501480433906  45.103243720832 # h*
  947 193   7   0.4238   8.459793423889  16.501480433906  45.103243720832 # h*
  948 193   6  -0.8476   9.250482997977  15.889263152685  45.103243720832 # o*
  949 194   7   0.4238  10.407166724666   0.533976510136  47.640328512852 # h*
  950 194   7   0.4238   8.825787576149   0.533976510136  47.640328512852 # h*
  951 194   6  -0.8476  -2.597116027807  18.550513807268  47.640328512852 # o*
  952 195   7   0.4238   3.427970622752  11.178979126604  45.103243720832 # h*
  953 195   7   0.4238   1.846591474235  11.178979126604  45.103243720832 # h*
  954 195   6  -0.8476   2.637281048323  10.566761845383  45.103243720832 # o*
  955 196   7   0.4238   3.549968672425   5.856477819301  42.566158922969 # h*
  956 196   7   0.4238   1.968589523908   5.856477819301  42.566158922969 # h*
  957 196   6  -0.8476   2.759279100016   5.244260538081  42.566158922969 # o*
  958 197   7   0.4238  -6.796827428941  16.501480433906  55.251582900598 # h*
  959 197   7   0.4238  -8.378206575438  16.501480433906  55.251582900598 # h*
  960 197   6  -0.8476  -7.587517001350  15.889263152685  55.251582900598 # o*
  961 198   7   0.4238   6.815776221405  11.178979126604  37.491989333086 # h*
  962 198   7   0.4238   5.234397074909  11.178979126604  37.491989333086 # h*
  963 198   6  -0.8476   6.025086648997  10.566761845383  37.491989333086 # o*
  964 199   7   0.4238   3.326178171059  16.501480433906  40.029074130949 # h*
  965 199   7   0.4238   1.744799024562  16.501480433906  40.029074130949 # h*
  966 199   6  -0.8476   2.535488598650  15.889263152685  40.029074130949 # o*
  967 200   7   0.4238   0.304366724666   0.533976510136  40.029074130949 # h*
  968 200   7   0.4238  18.928587576149   0.533976510136  40.029074130949 # h*
  969 200   6  -0.8476   7.505683972193  18.550513807268  40.029074130949 # o*
  970 201   7   0.4238  -3.307229378595  11.178979126604  42.566158922969 # h*
  971 201   7   0.4238  -4.888608525091  11.178979126604  42.566158922969 # h*
  972 201   6  -0.8476  -4.097918951003  10.566761845383  42.566158922969 # o*
  973 202   7   0.4238   0.182368671751   5.856477819301  47.640328512852 # h*
  974 202   7   0.4238  -1.399010474745   5.856477819301  47.640328512852 # h*
  975 202   6  -0.8476  -0.608320900657   5.244260538081  47.640328512852 # o*
  976 203   7   0.4238   5.294767698208   3.195227164719  40.029074130949 # h*
  977 203   7   0.4238   3.713388549692   3.195227164719  40.029074130949 # h*
  978 203   6  -0.8476   4.504078124579   2.583009885361  40.029074130949 # o*
  979 204   7   0.4238  -6.674829377248  11.178979126604  50.177413310715 # h*
  980 204   7   0.4238  11.949391474235  11.178979126604  50.177413310715 # h*
  981 204   6  -0.8476  12.740081048323  10.566761845383  50.177413310715 # o*
  982 205   7   0.4238   5.070977196842  13.840229779323  29.880734951183 # h*
  983 205   7   0.4238   3.489598050346  13.840229779323  29.880734951183 # h*
  984 205   6  -0.8476   4.280287623213  13.228012499966  29.880734951183 # o*
  985 206   7   0.4238   8.560575247189   8.517728472021  55.251582900598 # h*
  986 206   7   0.4238   6.979196100693   8.517728472021  55.251582900598 # h*
  987 206   6  -0.8476   7.769885673559   7.905511192664  55.251582900598 # o*
  988 207   7   0.4238  -1.562430352811   8.517728472021  32.417819743203 # h*
  989 207   7   0.4238  -3.143809499307   8.517728472021  32.417819743203 # h*
  990 207   6  -0.8476  -2.353119926441   7.905511192664  32.417819743203 # o*
  991 208   7   0.4238  -1.562430352811   8.517728472021  37.491989333086 # h*
  992 208   7   0.4238  -3.143809499307   8.517728472021  37.491989333086 # h*
  993 208   6  -0.8476  -2.353119926441   7.905511192664  37.491989333086 # o*
  994 209   7   0.4238   5.294767698208   3.195227164719  47.640328512852 # h*
  995 209   7   0.4238   3.713388549692   3.195227164719  47.640328512852 # h*
  996 209   6  -0.8476   4.504078124579   2.583009885361  47.640328512852 # o*
  997 210   7   0.4238   3.671966723319   0.533976510136  34.954904541066 # h*
  998 210   7   0.4238   2.090587576823   0.533976510136  34.954904541066 # h*
  999 210   6  -0.8476  -9.332316027134  18.550513807268  34.954904541066 # o*
 1000 211   7   0.4238  12.050173297535   3.195227164719  40.029074130949 # h*
 1001 211   7   0.4238  10.468794151039   3.195227164719  40.029074130949 # h*
 1002 211   6  -0.8476  11.259483723905   2.583009885361  40.029074130949 # o*
 1003 212   7   0.4238   3.427970622752  11.178979126604  47.640328512852 # h*
 1004 212   7   0.4238   1.846591474235  11.178979126604  47.640328512852 # h*
 1005 212   6  -0.8476   2.637281048323  10.566761845383  47.640328512852 # o*
 1006 213   7   0.4238  13.794972323319   0.533976510136  50.177413310715 # h*
 1007 213   7   0.4238  12.213593176823   0.533976510136  50.177413310715 # h*
 1008 213   6  -0.8476   0.790689572866  18.550513807268  50.177413310715 # o*
 1009 214   7   0.4238  -3.185231326902   5.856477819301  52.714498102735 # h*
 1010 214   7   0.4238  15.438989524582   5.856477819301  52.714498102735 # h*
 1011 214   6  -0.8476  16.229679098669   5.244260538081  52.714498102735 # o*
 1012 215   7   0.4238   6.673572571732  16.501480433906  40.029074130949 # h*
 1013 215   7   0.4238   5.092193423215  16.501480433906  40.029074130949 # h*
 1014 215   6  -0.8476   5.882882999324  15.889263152685  40.029074130949 # o*
 1015 216   7   0.4238  -6.796827428941  16.501480433906  37.491989333086 # h*
 1016 216   7   0.4238  -8.378206575438  16.501480433906  37.491989333086 # h*
 1017 216   6  -0.8476  -7.587517001350  15.889263152685  37.491989333086 # o*
 1018 217   7   0.4238   8.560575247189   8.517728472021  32.417819743203 # h*
 1019 217   7   0.4238   6.979196100693   8.517728472021  32.417819743203 # h*
 1020 217   6  -0.8476   7.769885673559   7.905511192664  32.417819743203 # o*
 1021 218   7   0.4238  -3.429227428268  16.501480433906  42.566158922969 # h*
 1022 218   7   0.4238  -5.010606576785  16.501480433906  42.566158922969 # h*
 1023 218   6  -0.8476  -4.219917000676  15.889263152685  42.566158922969 # o*
 1024 219   7   0.4238  13.794972323319   0.533976510136  29.880734951183 # h*
 1025 219   7   0.4238  12.213593176823   0.533976510136  29.880734951183 # h*
 1026 219   6  -0.8476   0.790689572866  18.550513807268  29.880734951183 # o*
 1027 220   7   0.4238   3.671966723319   0.533976510136  47.640328512852 # h*
 1028 220   7   0.4238   2.090587576823   0.533976510136  47.640328512852 # h*
 1029 220   6  -0.8476  -9.332316027134  18.550513807268  47.640328512852 # o*
 1030 221   7   0.4238  -3.429227428268  16.501480433906  37.491989333086 # h*
 1031 221   7   0.4238  -5.010606576785  16.501480433906  37.491989333086 # h*
 1032 221   6  -0.8476  -4.219917000676  15.889263152685  37.491989333086 # o*
 1033 222   7   0.4238   3.427970622752  11.178979126604  32.417819743203 # h*
 1034 222   7   0.4238   1.846591474235  11.178979126604  32.417819743203 # h*
 1035 222   6  -0.8476   2.637281048323  10.566761845383  32.417819743203 # o*
 1036 223   7   0.4238  10.163170622078  11.178979126604  47.640328512852 # h*
 1037 223   7   0.4238   8.581791473562  11.178979126604  47.640328512852 # h*
 1038 223   6  -0.8476   9.372481049670  10.566761845383  47.640328512852 # o*
 1039 224   7   0.4238  -6.674829377248  11.178979126604  37.491989333086 # h*
 1040 224   7   0.4238  11.949391474235  11.178979126604  37.491989333086 # h*
 1041 224   6  -0.8476  12.740081048323  10.566761845383  37.491989333086 # o*
 1042 225   7   0.4238   0.060370622078  11.178979126604  32.417819743203 # h*
 1043 225   7   0.4238  -1.521008526438  11.178979126604  32.417819743203 # h*
 1044 225   6  -0.8476  -0.730318950330  10.566761845383  32.417819743203 # o*
 1045 226   7   0.4238   3.549968672425   5.856477819301  55.251582900598 # h*
 1046 226   7   0.4238   1.968589523908   5.856477819301  55.251582900598 # h*
 1047 226   6  -0.8476   2.759279100016   5.244260538081  55.251582900598 # o*
 1048 227   7   0.4238   5.070977196842  13.840229779323  55.251582900598 # h*
 1049 227   7   0.4238   3.489598050346  13.840229779323  55.251582900598 # h*
 1050 227   6  -0.8476   4.280287623213  13.228012499966  55.251582900598 # o*
 1051 228   7   0.4238  13.794972323319   0.533976510136  32.417819743203 # h*
 1052 228   7   0.4238  12.213593176823   0.533976510136  32.417819743203 # h*
 1053 228   6  -0.8476   0.790689572866  18.550513807268  32.417819743203 # o*
 1054 229   7   0.4238  -6.796827428941  16.501480433906  52.714498102735 # h*
 1055 229   7   0.4238  -8.378206575438  16.501480433906  52.714498102735 # h*
 1056 229   6  -0.8476  -7.587517001350  15.889263152685  52.714498102735 # o*
 1057 230   7   0.4238   5.070977196842  13.840229779323  52.714498102735 # h*
 1058 230   7   0.4238   3.489598050346  13.840229779323  52.714498102735 # h*
 1059 230   6  -0.8476   4.280287623213  13.228012499966  52.714498102735 # o*
 1060 231   7   0.4238   5.294767698208   3.195227164719  29.880734951183 # h*
 1061 231   7   0.4238   3.713388549692   3.195227164719  29.880734951183 # h*
 1062 231   6  -0.8476   4.504078124579   2.583009885361  29.880734951183 # o*
 1063 232   7   0.4238  15.397567698208   3.195227164719  52.714498102735 # h*
 1064 232   7   0.4238  13.816188549692   3.195227164719  52.714498102735 # h*
 1065 232   6  -0.8476  14.606878124579   2.583009885361  52.714498102735 # o*
 1066 233   7   0.4238   0.060370622078  11.178979126604  55.251582900598 # h*
 1067 233   7   0.4238  -1.521008526438  11.178979126604  55.251582900598 # h*
 1068 233   6  -0.8476  -0.730318950330  10.566761845383  55.251582900598 # o*
 1069 234   7   0.4238   3.326178171059  16.501480433906  47.640328512852 # h*
 1070 234   7   0.4238   1.744799024562  16.501480433906  47.640328512852 # h*
 1071 234   6  -0.8476   2.535488598650  15.889263152685  47.640328512852 # o*
 1072 235   7   0.4238   3.326178171059  16.501480433906  42.566158922969 # h*
 1073 235   7   0.4238   1.744799024562  16.501480433906  42.566158922969 # h*
 1074 235   6  -0.8476   2.535488598650  15.889263152685  42.566158922969 # o*
 1075 236   7   0.4238  11.907969647862   8.517728472021  29.880734951183 # h*
 1076 236   7   0.4238  10.326590499346   8.517728472021  29.880734951183 # h*
 1077 236   6  -0.8476  11.117280074233   7.905511192664  29.880734951183 # o*
 1078 237   7   0.4238  -3.429227428268  16.501480433906  55.251582900598 # h*
 1079 237   7   0.4238  -5.010606576785  16.501480433906  55.251582900598 # h*
 1080 237   6  -0.8476  -4.219917000676  15.889263152685  55.251582900598 # o*
 1081 238   7   0.4238   7.039566723992   0.533976510136  42.566158922969 # h*
 1082 238   7   0.4238   5.458187575476   0.533976510136  42.566158922969 # h*
 1083 238   6  -0.8476  -5.964716026460  18.550513807268  42.566158922969 # o*
 1084 239   7   0.4238   3.671966723319   0.533976510136  52.714498102735 # h*
 1085 239   7   0.4238   2.090587576823   0.533976510136  52.714498102735 # h*
 1086 239   6  -0.8476  -9.332316027134  18.550513807268  52.714498102735 # o*
 1087 240   7   0.4238   8.662367698882   3.195227164719  42.566158922969 # h*
 1088 240   7   0.4238   7.080988550365   3.195227164719  42.566158922969 # h*
 1089 240   6  -0.8476   7.871678123232   2.583009885361  42.566158922969 # o*
 1090 241   7   0.4238 -10.164427427594  16.501480433906  40.029074130949 # h*
 1091 241   7   0.4238   8.459793423889  16.501480433906  40.029074130949 # h*
 1092 241   6  -0.8476   9.250482997977  15.889263152685  40.029074130949 # o*
 1093 242   7   0.4238   6.917568673098   5.856477819301  52.714498102735 # h*
 1094 242   7   0.4238   5.336189524582   5.856477819301  52.714498102735 # h*
 1095 242   6  -0.8476   6.126879098669   5.244260538081  52.714498102735 # o*
 1096 243   7   0.4238   8.418371597516  13.840229779323  40.029074130949 # h*
 1097 243   7   0.4238   6.836992448999  13.840229779323  40.029074130949 # h*
 1098 243   6  -0.8476   7.627682023886  13.228012499966  40.029074130949 # o*
 1099 244   7   0.4238   7.039566723992   0.533976510136  52.714498102735 # h*
 1100 244   7   0.4238   5.458187575476   0.533976510136  52.714498102735 # h*
 1101 244   6  -0.8476  -5.964716026460  18.550513807268  52.714498102735 # o*
 1102 245   7   0.4238   8.560575247189   8.517728472021  42.566158922969 # h*
 1103 245   7   0.4238   6.979196100693   8.517728472021  42.566158922969 # h*
 1104 245   6  -0.8476   7.769885673559   7.905511192664  42.566158922969 # o*
 1105 246   7   0.4238  -8.419628401811  13.840229779323  37.491989333086 # h*
 1106 246   7   0.4238  10.204592449673  13.840229779323  37.491989333086 # h*
 1107 246   6  -0.8476  10.995282022539  13.228012499966  37.491989333086 # o*
 1108 247   7   0.4238   8.418371597516  13.840229779323  45.103243720832 # h*
 1109 247   7   0.4238   6.836992448999  13.840229779323  45.103243720832 # h*
 1110 247   6  -0.8476   7.627682023886  13.228012499966  45.103243720832 # o*
 1111 248   7   0.4238  -1.684428402484  13.840229779323  50.177413310715 # h*
 1112 248   7   0.4238  -3.265807551001  13.840229779323  50.177413310715 # h*
 1113 248   6  -0.8476  -2.475117976114  13.228012499966  50.177413310715 # o*
 1114 249   7   0.4238  -1.440432301118   3.195227164719  32.417819743203 # h*
 1115 249   7   0.4238  17.183788550365   3.195227164719  32.417819743203 # h*
 1116 249   6  -0.8476  17.974478123232   2.583009885361  32.417819743203 # o*
 1117 250   7   0.4238 -10.164427427594  16.501480433906  42.566158922969 # h*
 1118 250   7   0.4238   8.459793423889  16.501480433906  42.566158922969 # h*
 1119 250   6  -0.8476   9.250482997977  15.889263152685  42.566158922969 # o*
 1120 251   7   0.4238   3.427970622752  11.178979126604  52.714498102735 # h*
 1121 251   7   0.4238   1.846591474235  11.178979126604  52.714498102735 # h*
 1122 251   6  -0.8476   2.637281048323  10.566761845383  52.714498102735 # o*
 1123 252   7   0.4238 -10.164427427594  16.501480433906  47.640328512852 # h*
 1124 252   7   0.4238   8.459793423889  16.501480433906  47.640328512852 # h*
 1125 252   6  -0.8476   9.250482997977  15.889263152685  47.640328512852 # o*
 1126 253   7   0.4238  13.794972323319   0.533976510136  45.103243720832 # h*
 1127 253   7   0.4238  12.213593176823   0.533976510136  45.103243720832 # h*
 1128 253   6  -0.8476   0.790689572866  18.550513807268  45.103243720832 # o*
 1129 254   7   0.4238  -8.419628401811  13.840229779323  55.251582900598 # h*
 1130 254   7   0.4238  10.204592449673  13.840229779323  55.251582900598 # h*
 1131 254   6  -0.8476  10.995282022539  13.228012499966  55.251582900598 # o*
 1132 255   7   0.4238   6.815776221405  11.178979126604  45.103243720832 # h*
 1133 255   7   0.4238   5.234397074909  11.178979126604  45.103243720832 # h*
 1134 255   6  -0.8476   6.025086648997  10.566761845383  45.103243720832 # o*
 1135 256   7   0.4238   8.662367698882   3.195227164719  47.640328512852 # h*
 1136 256   7   0.4238   7.080988550365   3.195227164719  47.640328512852 # h*
 1137 256   6  -0.8476   7.871678123232   2.583009885361  47.640328512852 # o*
 1138 257   7   0.4238  10.305374271751   5.856477819301  50.177413310715 # h*
 1139 257   7   0.4238   8.723995125255   5.856477819301  50.177413310715 # h*
 1140 257   6  -0.8476   9.514684699343   5.244260538081  50.177413310715 # o*
 1141 258   7   0.4238  10.163170622078  11.178979126604  55.251582900598 # h*
 1142 258   7   0.4238   8.581791473562  11.178979126604  55.251582900598 # h*
 1143 258   6  -0.8476   9.372481049670  10.566761845383  55.251582900598 # o*
 1144 259   7   0.4238  -1.562430352811   8.517728472021  45.103243720832 # h*
 1145 259   7   0.4238  -3.143809499307   8.517728472021  45.103243720832 # h*
 1146 259   6  -0.8476  -2.353119926441   7.905511192664  45.103243720832 # o*
 1147 260   7   0.4238  -6.674829377248  11.178979126604  29.880734951183 # h*
 1148 260   7   0.4238  11.949391474235  11.178979126604  29.880734951183 # h*
 1149 260   6  -0.8476  12.740081048323  10.566761845383  29.880734951183 # o*
 1150 261   7   0.4238  11.907969647862   8.517728472021  42.566158922969 # h*
 1151 261   7   0.4238  10.326590499346   8.517728472021  42.566158922969 # h*
 1152 261   6  -0.8476  11.117280074233   7.905511192664  42.566158922969 # o*
 1153 262   7   0.4238  -4.930030351464   8.517728472021  45.103243720832 # h*
 1154 262   7   0.4238  13.694190500019   8.517728472021  45.103243720832 # h*
 1155 262   6  -0.8476  14.484880072886   7.905511192664  45.103243720832 # o*
 1156 263   7   0.4238  15.397567698208   3.195227164719  42.566158922969 # h*
 1157 263   7   0.4238  13.816188549692   3.195227164719  42.566158922969 # h*
 1158 263   6  -0.8476  14.606878124579   2.583009885361  42.566158922969 # o*
 1159 264   7   0.4238  -1.684428402484  13.840229779323  42.566158922969 # h*
 1160 264   7   0.4238  -3.265807551001  13.840229779323  42.566158922969 # h*
 1161 264   6  -0.8476  -2.475117976114  13.228012499966  42.566158922969 # o*
 1162 265   7   0.4238  12.050173297535   3.195227164719  45.103243720832 # h*
 1163 265   7   0.4238  10.468794151039   3.195227164719  45.103243720832 # h*
 1164 265   6  -0.8476  11.259483723905   2.583009885361  45.103243720832 # o*
 1165 266   7   0.4238  15.397567698208   3.195227164719  29.880734951183 # h*
 1166 266   7   0.4238  13.816188549692   3.195227164719  29.880734951183 # h*
 1167 266   6  -0.8476  14.606878124579   2.583009885361  29.880734951183 # o*
 1168 267   7   0.4238  10.163170622078  11.178979126604  45.103243720832 # h*
 1169 267   7   0.4238   8.581791473562  11.178979126604  45.103243720832 # h*
 1170 267   6  -0.8476   9.372481049670  10.566761845383  45.103243720832 # o*
 1171 268   7   0.4238   1.805169647862   8.517728472021  45.103243720832 # h*
 1172 268   7   0.4238   0.223790499346   8.517728472021  45.103243720832 # h*
 1173 268   6  -0.8476   1.014480074233   7.905511192664  45.103243720832 # o*
 1174 269   7   0.4238  -4.930030351464   8.517728472021  50.177413310715 # h*
 1175 269   7   0.4238  13.694190500019   8.517728472021  50.177413310715 # h*
 1176 269   6  -0.8476  14.484880072886   7.905511192664  50.177413310715 # o*
 1177 270   7   0.4238  10.407166724666   0.533976510136  55.251582900598 # h*
 1178 270   7   0.4238   8.825787576149   0.533976510136  55.251582900598 # h*
 1179 270   6  -0.8476  -2.597116027807  18.550513807268  55.251582900598 # o*
 1180 271   7   0.4238   1.805169647862   8.517728472021  50.177413310715 # h*
 1181 271   7   0.4238   0.223790499346   8.517728472021  50.177413310715 # h*
 1182 271   6  -0.8476   1.014480074233   7.905511192664  50.177413310715 # o*
 1183 272   7   0.4238   8.560575247189   8.517728472021  34.954904541066 # h*
 1184 272   7   0.4238   6.979196100693   8.517728472021  34.954904541066 # h*
 1185 272   6  -0.8476   7.769885673559   7.905511192664  34.954904541066 # o*
 1186 273   7   0.4238  -6.674829377248  11.178979126604  34.954904541066 # h*
 1187 273   7   0.4238  11.949391474235  11.178979126604  34.954904541066 # h*
 1188 273   6  -0.8476  12.740081048323  10.566761845383  34.954904541066 # o*
 1189 274   7   0.4238  -3.185231326902   5.856477819301  34.954904541066 # h*
 1190 274   7   0.4238  15.438989524582   5.856477819301  34.954904541066 # h*
 1191 274   6  -0.8476  16.229679098669   5.244260538081  34.954904541066 # o*
 1192 275   7   0.4238   6.673572571732  16.501480433906  32.417819743203 # h*
 1193 275   7   0.4238   5.092193423215  16.501480433906  32.417819743203 # h*
 1194 275   6  -0.8476   5.882882999324  15.889263152685  32.417819743203 # o*
 1195 276   7   0.4238  -1.562430352811   8.517728472021  50.177413310715 # h*
 1196 276   7   0.4238  -3.143809499307   8.517728472021  50.177413310715 # h*
 1197 276   6  -0.8476  -2.353119926441   7.905511192664  50.177413310715 # o*
 1198 277   7   0.4238   0.304366724666   0.533976510136  50.177413310715 # h*
 1199 277   7   0.4238  18.928587576149   0.533976510136  50.177413310715 # h*
 1200 277   6  -0.8476   7.505683972193  18.550513807268  50.177413310715 # o*
 1201 278   7   0.4238   0.304366724666   0.533976510136  45.103243720832 # h*
 1202 278   7   0.4238  18.928587576149   0.533976510136  45.103243720832 # h*
 1203 278   6  -0.8476   7.505683972193  18.550513807268  45.103243720832 # o*
 1204 279   7   0.4238  -8.419628401811  13.840229779323  34.954904541066 # h*
 1205 279   7   0.4238  10.204592449673  13.840229779323  34.954904541066 # h*
 1206 279   6  -0.8476  10.995282022539  13.228012499966  34.954904541066 # o*
 1207 280   7   0.4238   3.549968672425   5.856477819301  50.177413310715 # h*
 1208 280   7   0.4238   1.968589523908   5.856477819301  50.177413310715 # h*
 1209 280   6  -0.8476   2.759279100016   5.244260538081  50.177413310715 # o*
 1210 281   7   0.4238  10.305374271751   5.856477819301  55.251582900598 # h*
 1211 281   7   0.4238   8.723995125255   5.856477819301  55.251582900598 # h*
 1212 281   6  -0.8476   9.514684699343   5.244260538081  55.251582900598 # o*
 1213 282   7   0.4238  13.652768672425   5.856477819301  32.417819743203 # h*
 1214 282   7   0.4238  12.071389523908   5.856477819301  32.417819743203 # h*
 1215 282   6  -0.8476  12.862079100016   5.244260538081  32.417819743203 # o*
 1216 283   7   0.4238  -1.562430352811   8.517728472021  55.251582900598 # h*
 1217 283   7   0.4238  -3.143809499307   8.517728472021  55.251582900598 # h*
 1218 283   6  -0.8476  -2.353119926441   7.905511192664  55.251582900598 # o*
 1219 284   7   0.4238   5.070977196842  13.840229779323  37.491989333086 # h*
 1220 284   7   0.4238   3.489598050346  13.840229779323  37.491989333086 # h*
 1221 284   6  -0.8476   4.280287623213  13.228012499966  37.491989333086 # o*
 1222 285   7   0.4238   1.683171598189  13.840229779323  52.714498102735 # h*
 1223 285   7   0.4238   0.101792449673  13.840229779323  52.714498102735 # h*
 1224 285   6  -0.8476   0.892482022539  13.228012499966  52.714498102735 # o*
 1225 286   7   0.4238  17.142366723992   0.533976510136  34.954904541066 # h*
 1226 286   7   0.4238  15.560987575476   0.533976510136  34.954904541066 # h*
 1227 286   6  -0.8476   4.138083973540  18.550513807268  34.954904541066 # o*
 1228 287   7   0.4238   6.917568673098   5.856477819301  42.566158922969 # h*
 1229 287   7   0.4238   5.336189524582   5.856477819301  42.566158922969 # h*
 1230 287   6  -0.8476   6.126879098669   5.244260538081  42.566158922969 # o*
 1231 288   7   0.4238  -6.674829377248  11.178979126604  52.714498102735 # h*
 1232 288   7   0.4238  11.949391474235  11.178979126604  52.714498102735 # h*
 1233 288   6  -0.8476  12.740081048323  10.566761845383  52.714498102735 # o*
 1234 289   7   0.4238  13.652768672425   5.856477819301  34.954904541066 # h*
 1235 289   7   0.4238  12.071389523908   5.856477819301  34.954904541066 # h*
 1236 289   6  -0.8476  12.862079100016   5.244260538081  34.954904541066 # o*
 1237 290   7   0.4238   1.683171598189  13.840229779323  37.491989333086 # h*
 1238 290   7   0.4238   0.101792449673  13.840229779323  37.491989333086 # h*
 1239 290   6  -0.8476   0.892482022539  13.228012499966  37.491989333086 # o*
 1240 291   7   0.4238   8.662367698882   3.195227164719  34.954904541066 # h*
 1241 291   7   0.4238   7.080988550365   3.195227164719  34.954904541066 # h*
 1242 291   6  -0.8476   7.871678123232   2.583009885361  34.954904541066 # o*
 1243 292   7   0.4238   1.683171598189  13.840229779323  45.103243720832 # h*
 1244 292   7   0.4238   0.101792449673  13.840229779323  45.103243720832 # h*
 1245 292   6  -0.8476   0.892482022539  13.228012499966  45.103243720832 # o*
 1246 293   7   0.4238   5.172769648536   8.517728472021  52.714498102735 # h*
 1247 293   7   0.4238   3.591390500019   8.517728472021  52.714498102735 # h*
 1248 293   6  -0.8476   4.382080072886   7.905511192664  52.714498102735 # o*
 1249 294   7   0.4238   7.039566723992   0.533976510136  40.029074130949 # h*
 1250 294   7   0.4238   5.458187575476   0.533976510136  40.029074130949 # h*
 1251 294   6  -0.8476  -5.964716026460  18.550513807268  40.029074130949 # o*
 1252 295   7   0.4238   6.917568673098   5.856477819301  37.491989333086 # h*
 1253 295   7   0.4238   5.336189524582   5.856477819301  37.491989333086 # h*
 1254 295   6  -0.8476   6.126879098669   5.244260538081  37.491989333086 # o*
 1255 296   7   0.4238   0.182368671751   5.856477819301  29.880734951183 # h*
 1256 296   7   0.4238  -1.399010474745   5.856477819301  29.880734951183 # h*
 1257 296   6  -0.8476  -0.608320900657   5.244260538081  29.880734951183 # o*
 1258 297   7   0.4238  -5.052028403158  13.840229779323  52.714498102735 # h*
 1259 297   7   0.4238  -6.633407549654  13.840229779323  52.714498102735 # h*
 1260 297   6  -0.8476  -5.842717976787  13.228012499966  52.714498102735 # o*
 1261 298   7   0.4238  -0.061627427594  16.501480433906  40.029074130949 # h*
 1262 298   7   0.4238  -1.643006576111  16.501480433906  40.029074130949 # h*
 1263 298   6  -0.8476  -0.852317002023  15.889263152685  40.029074130949 # o*
 1264 299   7   0.4238   0.182368671751   5.856477819301  32.417819743203 # h*
 1265 299   7   0.4238  -1.399010474745   5.856477819301  32.417819743203 # h*
 1266 299   6  -0.8476  -0.608320900657   5.244260538081  32.417819743203 # o*
 1267 300   7   0.4238  -5.052028403158  13.840229779323  45.103243720832 # h*
 1268 300   7   0.4238  -6.633407549654  13.840229779323  45.103243720832 # h*
 1269 300   6  -0.8476  -5.842717976787  13.228012499966  45.103243720832 # o*
 1270 301   7   0.4238   8.418371597516  13.840229779323  34.954904541066 # h*
 1271 301   7   0.4238   6.836992448999  13.840229779323  34.954904541066 # h*
 1272 301   6  -0.8476   7.627682023886  13.228012499966  34.954904541066 # o*
 1273 302   7   0.4238   6.673572571732  16.501480433906  34.954904541066 # h*
 1274 302   7   0.4238   5.092193423215  16.501480433906  34.954904541066 # h*
 1275 302   6  -0.8476   5.882882999324  15.889263152685  34.954904541066 # o*
 1276 303   7   0.4238   3.671966723319   0.533976510136  29.880734951183 # h*
 1277 303   7   0.4238   2.090587576823   0.533976510136  29.880734951183 # h*
 1278 303   6  -0.8476  -9.332316027134  18.550513807268  29.880734951183 # o*
 1279 304   7   0.4238   3.427970622752  11.178979126604  37.491989333086 # h*
 1280 304   7   0.4238   1.846591474235  11.178979126604  37.491989333086 # h*
 1281 304   6  -0.8476   2.637281048323  10.566761845383  37.491989333086 # o*
 1282 305   7   0.4238   5.294767698208   3.195227164719  34.954904541066 # h*
 1283 305   7   0.4238   3.713388549692   3.195227164719  34.954904541066 # h*
 1284 305   6  -0.8476   4.504078124579   2.583009885361  34.954904541066 # o*
 1285 306   7   0.4238  10.163170622078  11.178979126604  29.880734951183 # h*
 1286 306   7   0.4238   8.581791473562  11.178979126604  29.880734951183 # h*
 1287 306   6  -0.8476   9.372481049670  10.566761845383  29.880734951183 # o*
 1288 307   7   0.4238   6.815776221405  11.178979126604  29.880734951183 # h*
 1289 307   7   0.4238   5.234397074909  11.178979126604  29.880734951183 # h*
 1290 307   6  -0.8476   6.025086648997  10.566761845383  29.880734951183 # o*
 1291 308   7   0.4238  -0.061627427594  16.501480433906  37.491989333086 # h*
 1292 308   7   0.4238  -1.643006576111  16.501480433906  37.491989333086 # h*
 1293 308   6  -0.8476  -0.852317002023  15.889263152685  37.491989333086 # o*
 1294 309   7   0.4238   5.294767698208   3.195227164719  32.417819743203 # h*
 1295 309   7   0.4238   3.713388549692   3.195227164719  32.417819743203 # h*
 1296 309   6  -0.8476   4.504078124579   2.583009885361  32.417819743203 # o*
 1297 310   7   0.4238   8.560575247189   8.517728472021  47.640328512852 # h*
 1298 310   7   0.4238   6.979196100693   8.517728472021  47.640328512852 # h*
 1299 310   6  -0.8476   7.769885673559   7.905511192664  47.640328512852 # o*
 1300 311   7   0.4238   6.917568673098   5.856477819301  34.954904541066 # h*
 1301 311   7   0.4238   5.336189524582   5.856477819301  34.954904541066 # h*
 1302 311   6  -0.8476   6.126879098669   5.244260538081  34.954904541066 # o*
 1303 312   7   0.4238  17.142366723992   0.533976510136  47.640328512852 # h*
 1304 312   7   0.4238  15.560987575476   0.533976510136  47.640328512852 # h*
 1305 312   6  -0.8476   4.138083973540  18.550513807268  47.640328512852 # o*
 1306 313   7   0.4238   5.172769648536   8.517728472021  32.417819743203 # h*
 1307 313   7   0.4238   3.591390500019   8.517728472021  32.417819743203 # h*
 1308 313   6  -0.8476   4.382080072886   7.905511192664  32.417819743203 # o*
 1309 314   7   0.4238   8.418371597516  13.840229779323  42.566158922969 # h*
 1310 314   7   0.4238   6.836992448999  13.840229779323  42.566158922969 # h*
 1311 314   6  -0.8476   7.627682023886  13.228012499966  42.566158922969 # o*
 1312 315   7   0.4238  -6.674829377248  11.178979126604  55.251582900598 # h*
 1313 315   7   0.4238  11.949391474235  11.178979126604  55.251582900598 # h*
 1314 315   6  -0.8476  12.740081048323  10.566761845383  55.251582900598 # o*
 1315 316   7   0.4238   8.418371597516  13.840229779323  37.491989333086 # h*
 1316 316   7   0.4238   6.836992448999  13.840229779323  37.491989333086 # h*
 1317 316   6  -0.8476   7.627682023886  13.228012499966  37.491989333086 # o*
 1318 317   7   0.4238   5.172769648536   8.517728472021  50.177413310715 # h*
 1319 317   7   0.4238   3.591390500019   8.517728472021  50.177413310715 # h*
 1320 317   6  -0.8476   4.382080072886   7.905511192664  50.177413310715 # o*
 1321 318   7   0.4238  -3.307229378595  11.178979126604  32.417819743203 # h*
 1322 318   7   0.4238  -4.888608525091  11.178979126604  32.417819743203 # h*
 1323 318   6  -0.8476  -4.097918951003  10.566761845383  32.417819743203 # o*
 1324 319   7   0.4238  -1.562430352811   8.517728472021  42.566158922969 # h*
 1325 319   7   0.4238  -3.143809499307   8.517728472021  42.566158922969 # h*
 1326 319   6  -0.8476  -2.353119926441   7.905511192664  42.566158922969 # o*
 1327 320   7   0.4238   3.427970622752  11.178979126604  34.954904541066 # h*
 1328 320   7   0.4238   1.846591474235  11.178979126604  34.954904541066 # h*
 1329 320   6  -0.8476   2.637281048323  10.566761845383  34.954904541066 # o*
 1330 321   7   0.4238  10.163170622078  11.178979126604  34.954904541066 # h*
 1331 321   7   0.4238   8.581791473562  11.178979126604  34.954904541066 # h*
 1332 321   6  -0.8476   9.372481049670  10.566761845383  34.954904541066 # o*
 1333 322   7   0.4238  13.652768672425   5.856477819301  37.491989333086 # h*
 1334 322   7   0.4238  12.071389523908   5.856477819301  37.491989333086 # h*
 1335 322   6  -0.8476  12.862079100016   5.244260538081  37.491989333086 # o*
 1336 323   7   0.4238   1.805169647862   8.517728472021  37.491989333086 # h*
 1337 323   7   0.4238   0.223790499346   8.517728472021  37.491989333086 # h*
 1338 323   6  -0.8476   1.014480074233   7.905511192664  37.491989333086 # o*
 1339 324   7   0.4238   3.427970622752  11.178979126604  50.177413310715 # h*
 1340 324   7   0.4238   1.846591474235  11.178979126604  50.177413310715 # h*
 1341 324   6  -0.8476   2.637281048323  10.566761845383  50.177413310715 # o*
 1342 325   7   0.4238  -5.052028403158  13.840229779323  29.880734951183 # h*
 1343 325   7   0.4238  -6.633407549654  13.840229779323  29.880734951183 # h*
 1344 325   6  -0.8476  -5.842717976787  13.228012499966  29.880734951183 # o*
 1345 326   7   0.4238   3.671966723319   0.533976510136  32.417819743203 # h*
 1346 326   7   0.4238   2.090587576823   0.533976510136  32.417819743203 # h*
 1347 326   6  -0.8476  -9.332316027134  18.550513807268  32.417819743203 # o*
 1348 327   7   0.4238  -8.419628401811  13.840229779323  29.880734951183 # h*
 1349 327   7   0.4238  10.204592449673  13.840229779323  29.880734951183 # h*
 1350 327   6  -0.8476  10.995282022539  13.228012499966  29.880734951183 # o*
 1351 328   7   0.4238   1.927167697535   3.195227164719  45.103243720832 # h*
 1352 328   7   0.4238   0.345788551039   3.195227164719  45.103243720832 # h*
 1353 328   6  -0.8476   1.136478123905   2.583009885361  45.103243720832 # o*
 1354 329   7   0.4238  11.907969647862   8.517728472021  32.417819743203 # h*
 1355 329   7   0.4238  10.326590499346   8.517728472021  32.417819743203 # h*
 1356 329   6  -0.8476  11.117280074233   7.905511192664  32.417819743203 # o*
 1357 330   7   0.4238  -3.429227428268  16.501480433906  40.029074130949 # h*
 1358 330   7   0.4238  -5.010606576785  16.501480433906  40.029074130949 # h*
 1359 330   6  -0.8476  -4.219917000676  15.889263152685  40.029074130949 # o*
 1360 331   7   0.4238  -3.429227428268  16.501480433906  52.714498102735 # h*
 1361 331   7   0.4238  -5.010606576785  16.501480433906  52.714498102735 # h*
 1362 331   6  -0.8476  -4.219917000676  15.889263152685  52.714498102735 # o*
 1363 332   7   0.4238  -1.440432301118   3.195227164719  50.177413310715 # h*
 1364 332   7   0.4238  17.183788550365   3.195227164719  50.177413310715 # h*
 1365 332   6  -0.8476  17.974478123232   2.583009885361  50.177413310715 # o*
 1366 333   7   0.4238  10.407166724666   0.533976510136  32.417819743203 # h*
 1367 333   7   0.4238   8.825787576149   0.533976510136  32.417819743203 # h*
 1368 333   6  -0.8476  -2.597116027807  18.550513807268  32.417819743203 # o*
 1369 334   7   0.4238  -1.440432301118   3.195227164719  47.640328512852 # h*
 1370 334   7   0.4238  17.183788550365   3.195227164719  47.640328512852 # h*
 1371 334   6  -0.8476  17.974478123232   2.583009885361  47.640328512852 # o*
 1372 335   7   0.4238  -1.562430352811   8.517728472021  40.029074130949 # h*
 1373 335   7   0.4238  -3.143809499307   8.517728472021  40.029074130949 # h*
 1374 335   6  -0.8476  -2.353119926441   7.905511192664  40.029074130949 # o*
 1375 336   7   0.4238   0.060370622078  11.178979126604  52.714498102735 # h*
 1376 336   7   0.4238  -1.521008526438  11.178979126604  52.714498102735 # h*
 1377 336   6  -0.8476  -0.730318950330  10.566761845383  52.714498102735 # o*
 1378 337   7   0.4238   8.418371597516  13.840229779323  32.417819743203 # h*
 1379 337   7   0.4238   6.836992448999  13.840229779323  32.417819743203 # h*
 1380 337   6  -0.8476   7.627682023886  13.228012499966  32.417819743203 # o*
 1381 338   7   0.4238   3.326178171059  16.501480433906  45.103243720832 # h*
 1382 338   7   0.4238   1.744799024562  16.501480433906  45.103243720832 # h*
 1383 338   6  -0.8476   2.535488598650  15.889263152685  45.103243720832 # o*
 1384 339   7   0.4238  -3.307229378595  11.178979126604  45.103243720832 # h*
 1385 339   7   0.4238  -4.888608525091  11.178979126604  45.103243720832 # h*
 1386 339   6  -0.8476  -4.097918951003  10.566761845383  45.103243720832 # o*
 1387 340   7   0.4238   5.070977196842  13.840229779323  47.640328512852 # h*
 1388 340   7   0.4238   3.489598050346  13.840229779323  47.640328512852 # h*
 1389 340   6  -0.8476   4.280287623213  13.228012499966  47.640328512852 # o*
 1390 341   7   0.4238  -1.684428402484  13.840229779323  47.640328512852 # h*
 1391 341   7   0.4238  -3.265807551001  13.840229779323  47.640328512852 # h*
 1392 341   6  -0.8476  -2.475117976114  13.228012499966  47.640328512852 # o*
 1393 342   7   0.4238   0.304366724666   0.533976510136  55.251582900598 # h*
 1394 342   7   0.4238  18.928587576149   0.533976510136  55.251582900598 # h*
 1395 342   6  -0.8476   7.505683972193  18.550513807268  55.251582900598 # o*
 1396 343   7   0.4238   5.172769648536   8.517728472021  37.491989333086 # h*
 1397 343   7   0.4238   3.591390500019   8.517728472021  37.491989333086 # h*
 1398 343   6  -0.8476   4.382080072886   7.905511192664  37.491989333086 # o*
 1399 344   7   0.4238   5.294767698208   3.195227164719  52.714498102735 # h*
 1400 344   7   0.4238   3.713388549692   3.195227164719  52.714498102735 # h*
 1401 344   6  -0.8476   4.504078124579   2.583009885361  52.714498102735 # o*
 1402 345   7   0.4238   3.671966723319   0.533976510136  37.491989333086 # h*
 1403 345   7   0.4238   2.090587576823   0.533976510136  37.491989333086 # h*
 1404 345   6  -0.8476  -9.332316027134  18.550513807268  37.491989333086 # o*
 1405 346   7   0.4238  10.407166724666   0.533976510136  50.177413310715 # h*
 1406 346   7   0.4238   8.825787576149   0.533976510136  50.177413310715 # h*
 1407 346   6  -0.8476  -2.597116027807  18.550513807268  50.177413310715 # o*
 1408 347   7   0.4238  17.142366723992   0.533976510136  29.880734951183 # h*
 1409 347   7   0.4238  15.560987575476   0.533976510136  29.880734951183 # h*
 1410 347   6  -0.8476   4.138083973540  18.550513807268  29.880734951183 # o*
 1411 348   7   0.4238  13.794972323319   0.533976510136  34.954904541066 # h*
 1412 348   7   0.4238  12.213593176823   0.533976510136  34.954904541066 # h*
 1413 348   6  -0.8476   0.790689572866  18.550513807268  34.954904541066 # o*
 1414 349   7   0.4238  17.142366723992   0.533976510136  45.103243720832 # h*
 1415 349   7   0.4238  15.560987575476   0.533976510136  45.103243720832 # h*
 1416 349   6  -0.8476   4.138083973540  18.550513807268  45.103243720832 # o*
 1417 350   7   0.4238   1.683171598189  13.840229779323  55.251582900598 # h*
 1418 350   7   0.4238   0.101792449673  13.840229779323  55.251582900598 # h*
 1419 350   6  -0.8476   0.892482022539  13.228012499966  55.251582900598 # o*
 1420 351   7   0.4238 -10.164427427594  16.501480433906  37.491989333086 # h*
 1421 351   7   0.4238   8.459793423889  16.501480433906  37.491989333086 # h*
 1422 351   6  -0.8476   9.250482997977  15.889263152685  37.491989333086 # o*
 1423 352   7   0.4238   1.805169647862   8.517728472021  29.880734951183 # h*
 1424 352   7   0.4238   0.223790499346   8.517728472021  29.880734951183 # h*
 1425 352   6  -0.8476   1.014480074233   7.905511192664  29.880734951183 # o*
 1426 353   7   0.4238  -3.307229378595  11.178979126604  55.251582900598 # h*
 1427 353   7   0.4238  -4.888608525091  11.178979126604  55.251582900598 # h*
 1428 353   6  -0.8476  -4.097918951003  10.566761845383  55.251582900598 # o*
 1429 354   7   0.4238   1.927167697535   3.195227164719  47.640328512852 # h*
 1430 354   7   0.4238   0.345788551039   3.195227164719  47.640328512852 # h*
 1431 354   6  -0.8476   1.136478123905   2.583009885361  47.640328512852 # o*
 1432 355   7   0.4238  13.652768672425   5.856477819301  47.640328512852 # h*
 1433 355   7   0.4238  12.071389523908   5.856477819301  47.640328512852 # h*
 1434 355   6  -0.8476  12.862079100016   5.244260538081  47.640328512852 # o*
 1435 356   7   0.4238  10.163170622078  11.178979126604  52.714498102735 # h*
 1436 356   7   0.4238   8.581791473562  11.178979126604  52.714498102735 # h*
 1437 356   6  -0.8476   9.372481049670  10.566761845383  52.714498102735 # o*
 1438 357   7   0.4238  10.305374271751   5.856477819301  45.103243720832 # h*
 1439 357   7   0.4238   8.723995125255   5.856477819301  45.103243720832 # h*
 1440 357   6  -0.8476   9.514684699343   5.244260538081  45.103243720832 # o*
 1441 358   7   0.4238  12.050173297535   3.195227164719  29.880734951183 # h*
 1442 358   7   0.4238  10.468794151039   3.195227164719  29.880734951183 # h*
 1443 358   6  -0.8476  11.259483723905   2.583009885361  29.880734951183 # o*
 1444 359   7   0.4238   0.060370622078  11.178979126604  47.640328512852 # h*
 1445 359   7   0.4238  -1.521008526438  11.178979126604  47.640328512852 # h*
 1446 359   6  -0.8476  -0.730318950330  10.566761845383  47.640328512852 # o*
 1447 360   7   0.4238  -1.684428402484  13.840229779323  55.251582900598 # h*
 1448 360   7   0.4238  -3.265807551001  13.840229779323  55.251582900598 # h*
 1449 360   6  -0.8476  -2.475117976114  13.228012499966  55.251582900598 # o*
 1450 361   7   0.4238  13.794972323319   0.533976510136  37.491989333086 # h*
 1451 361   7   0.4238  12.213593176823   0.533976510136  37.491989333086 # h*
 1452 361   6  -0.8476   0.790689572866  18.550513807268  37.491989333086 # o*
 1453 362   7   0.4238   1.927167697535   3.195227164719  32.417819743203 # h*
 1454 362   7   0.4238   0.345788551039   3.195227164719  32.417819743203 # h*
 1455 362   6  -0.8476   1.136478123905   2.583009885361  32.417819743203 # o*
 1456 363   7   0.4238  10.163170622078  11.178979126604  50.177413310715 # h*
 1457 363   7   0.4238   8.581791473562  11.178979126604  50.177413310715 # h*
 1458 363   6  -0.8476   9.372481049670  10.566761845383  50.177413310715 # o*
 1459 364   7   0.4238   0.060370622078  11.178979126604  42.566158922969 # h*
 1460 364   7   0.4238  -1.521008526438  11.178979126604  42.566158922969 # h*
 1461 364   6  -0.8476  -0.730318950330  10.566761845383  42.566158922969 # o*
 1462 365   7   0.4238  -1.440432301118   3.195227164719  52.714498102735 # h*
 1463 365   7   0.4238  17.183788550365   3.195227164719  52.714498102735 # h*
 1464 365   6  -0.8476  17.974478123232   2.583009885361  52.714498102735 # o*
 1465 366   7   0.4238   0.304366724666   0.533976510136  37.491989333086 # h*
 1466 366   7   0.4238  18.928587576149   0.533976510136  37.491989333086 # h*
 1467 366   6  -0.8476   7.505683972193  18.550513807268  37.491989333086 # o*
 1468 367   7   0.4238   3.671966723319   0.533976510136  50.177413310715 # h*
 1469 367   7   0.4238   2.090587576823   0.533976510136  50.177413310715 # h*
 1470 367   6  -0.8476  -9.332316027134  18.550513807268  50.177413310715 # o*
 1471 368   7   0.4238  11.907969647862   8.517728472021  34.954904541066 # h*
 1472 368   7   0.4238  10.326590499346   8.517728472021  34.954904541066 # h*
 1473 368   6  -0.8476  11.117280074233   7.905511192664  34.954904541066 # o*
 1474 369   7   0.4238  -5.052028403158  13.840229779323  55.251582900598 # h*
 1475 369   7   0.4238  -6.633407549654  13.840229779323  55.251582900598 # h*
 1476 369   6  -0.8476  -5.842717976787  13.228012499966  55.251582900598 # o*
 1477 370   7   0.4238   1.683171598189  13.840229779323  32.417819743203 # h*
 1478 370   7   0.4238   0.101792449673  13.840229779323  32.417819743203 # h*
 1479 370   6  -0.8476   0.892482022539  13.228012499966  32.417819743203 # o*
 1480 371   7   0.4238  -6.796827428941  16.501480433906  45.103243720832 # h*
 1481 371   7   0.4238  -8.378206575438  16.501480433906  45.103243720832 # h*
 1482 371   6  -0.8476  -7.587517001350  15.889263152685  45.103243720832 # o*
 1483 372   7   0.4238  -4.930030351464   8.517728472021  47.640328512852 # h*
 1484 372   7   0.4238  13.694190500019   8.517728472021  47.640328512852 # h*
 1485 372   6  -0.8476  14.484880072886   7.905511192664  47.640328512852 # o*
 1486 373   7   0.4238  -3.185231326902   5.856477819301  32.417819743203 # h*
 1487 373   7   0.4238  15.438989524582   5.856477819301  32.417819743203 # h*
 1488 373   6  -0.8476  16.229679098669   5.244260538081  32.417819743203 # o*
 1489 374   7   0.4238 -10.164427427594  16.501480433906  29.880734951183 # h*
 1490 374   7   0.4238   8.459793423889  16.501480433906  29.880734951183 # h*
 1491 374   6  -0.8476   9.250482997977  15.889263152685  29.880734951183 # o*
 1492 375   7   0.4238   3.671966723319   0.533976510136  55.251582900598 # h*
 1493 375   7   0.4238   2.090587576823   0.533976510136  55.251582900598 # h*
 1494 375   6  -0.8476  -9.332316027134  18.550513807268  55.251582900598 # o*
 1495 376   7   0.4238  11.907969647862   8.517728472021  37.491989333086 # h*
 1496 376   7   0.4238  10.326590499346   8.517728472021  37.491989333086 # h*
 1497 376   6  -0.8476  11.117280074233   7.905511192664  37.491989333086 # o*
 1498 377   7   0.4238   8.418371597516  13.840229779323  50.177413310715 # h*
 1499 377   7   0.4238   6.836992448999  13.840229779323  50.177413310715 # h*
 1500 377   6  -0.8476   7.627682023886  13.228012499966  50.177413310715 # o*
 1501 378   7   0.4238   3.549968672425   5.856477819301  37.491989333086 # h*
 1502 378   7   0.4238   1.968589523908   5.856477819301  37.491989333086 # h*
 1503 378   6  -0.8476   2.759279100016   5.244260538081  37.491989333086 # o*
 1504 379   7   0.4238   6.917568673098   5.856477819301  47.640328512852 # h*
 1505 379   7   0.4238   5.336189524582   5.856477819301  47.640328512852 # h*
 1506 379   6  -0.8476   6.126879098669   5.244260538081  47.640328512852 # o*
 1507 380   7   0.4238   0.304366724666   0.533976510136  32.417819743203 # h*
 1508 380   7   0.4238  18.928587576149   0.533976510136  32.417819743203 # h*
 1509 380   6  -0.8476   7.505683972193  18.550513807268  32.417819743203 # o*
 1510 381   7   0.4238  -5.052028403158  13.840229779323  32.417819743203 # h*
 1511 381   7   0.4238  -6.633407549654  13.840229779323  32.417819743203 # h*
 1512 381   6  -0.8476  -5.842717976787  13.228012499966  32.417819743203 # o*
 1513 382   7   0.4238  -3.307229378595  11.178979126604  40.029074130949 # h*
 1514 382   7   0.4238  -4.888608525091  11.178979126604  40.029074130949 # h*
 1515 382   6  -0.8476  -4.097918951003  10.566761845383  40.029074130949 # o*
 1516 383   7   0.4238  -0.061627427594  16.501480433906  29.880734951183 # h*
 1517 383   7   0.4238  -1.643006576111  16.501480433906  29.880734951183 # h*
 1518 383   6  -0.8476  -0.852317002023  15.889263152685  29.880734951183 # o*
 1519 384   7   0.4238  -1.562430352811   8.517728472021  29.880734951183 # h*
 1520 384   7   0.4238  -3.143809499307   8.517728472021  29.880734951183 # h*
 1521 384   6  -0.8476  -2.353119926441   7.905511192664  29.880734951183 # o*
 1522 385   7   0.4238   6.815776221405  11.178979126604  50.177413310715 # h*
 1523 385   7   0.4238   5.234397074909  11.178979126604  50.177413310715 # h*
 1524 385   6  -0.8476   6.025086648997  10.566761845383  50.177413310715 # o*
 1525 386   7   0.4238   6.815776221405  11.178979126604  40.029074130949 # h*
 1526 386   7   0.4238   5.234397074909  11.178979126604  40.029074130949 # h*
 1527 386   6  -0.8476   6.025086648997  10.566761845383  40.029074130949 # o*
 1528 387   7   0.4238   1.927167697535   3.195227164719  42.566158922969 # h*
 1529 387   7   0.4238   0.345788551039   3.195227164719  42.566158922969 # h*
 1530 387   6  -0.8476   1.136478123905   2.583009885361  42.566158922969 # o*
 1531 388   7   0.4238   8.662367698882   3.195227164719  32.417819743203 # h*
 1532 388   7   0.4238   7.080988550365   3.195227164719  32.417819743203 # h*
 1533 388   6  -0.8476   7.871678123232   2.583009885361  32.417819743203 # o*
 1534 389   7   0.4238  11.907969647862   8.517728472021  52.714498102735 # h*
 1535 389   7   0.4238  10.326590499346   8.517728472021  52.714498102735 # h*
 1536 389   6  -0.8476  11.117280074233   7.905511192664  52.714498102735 # o*
 1537 390   7   0.4238  15.397567698208   3.195227164719  55.251582900598 # h*
 1538 390   7   0.4238  13.816188549692   3.195227164719  55.251582900598 # h*
 1539 390   6  -0.8476  14.606878124579   2.583009885361  55.251582900598 # o*
 1540 391   7   0.4238  -1.440432301118   3.195227164719  55.251582900598 # h*
 1541 391   7   0.4238  17.183788550365   3.195227164719  55.251582900598 # h*
 1542 391   6  -0.8476  17.974478123232   2.583009885361  55.251582900598 # o*
 1543 392   7   0.4238   5.172769648536   8.517728472021  40.029074130949 # h*
 1544 392   7   0.4238   3.591390500019   8.517728472021  40.029074130949 # h*
 1545 392   6  -0.8476   4.382080072886   7.905511192664  40.029074130949 # o*
 1546 393   7   0.4238  11.907969647862   8.517728472021  45.103243720832 # h*
 1547 393   7   0.4238  10.326590499346   8.517728472021  45.103243720832 # h*
 1548 393   6  -0.8476  11.117280074233   7.905511192664  45.103243720832 # o*
 1549 394   7   0.4238   8.662367698882   3.195227164719  29.880734951183 # h*
 1550 394   7   0.4238   7.080988550365   3.195227164719  29.880734951183 # h*
 1551 394   6  -0.8476   7.871678123232   2.583009885361  29.880734951183 # o*
 1552 395   7   0.4238  -6.796827428941  16.501480433906  40.029074130949 # h*
 1553 395   7   0.4238  -8.378206575438  16.501480433906  40.029074130949 # h*
 1554 395   6  -0.8476  -7.587517001350  15.889263152685  40.029074130949 # o*
 1555 396   7   0.4238  17.142366723992   0.533976510136  52.714498102735 # h*
 1556 396   7   0.4238  15.560987575476   0.533976510136  52.714498102735 # h*
 1557 396   6  -0.8476   4.138083973540  18.550513807268  52.714498102735 # o*
 1558 397   7   0.4238  -3.185231326902   5.856477819301  40.029074130949 # h*
 1559 397   7   0.4238  15.438989524582   5.856477819301  40.029074130949 # h*
 1560 397   6  -0.8476  16.229679098669   5.244260538081  40.029074130949 # o*
 1561 398   7   0.4238  -3.185231326902   5.856477819301  47.640328512852 # h*
 1562 398   7   0.4238  15.438989524582   5.856477819301  47.640328512852 # h*
 1563 398   6  -0.8476  16.229679098669   5.244260538081  47.640328512852 # o*
 1564 399   7   0.4238   1.805169647862   8.517728472021  34.954904541066 # h*
 1565 399   7   0.4238   0.223790499346   8.517728472021  34.954904541066 # h*
 1566 399   6  -0.8476   1.014480074233   7.905511192664  34.954904541066 # o*
 1567 400   7   0.4238  -0.061627427594  16.501480433906  47.640328512852 # h*
 1568 400   7   0.4238  -1.643006576111  16.501480433906  47.640328512852 # h*
 1569 400   6  -0.8476  -0.852317002023  15.889263152685  47.640328512852 # o*
 1570 401   7   0.4238   5.172769648536   8.517728472021  42.566158922969 # h*
 1571 401   7   0.4238   3.591390500019   8.517728472021  42.566158922969 # h*
 1572 401   6  -0.8476   4.382080072886   7.905511192664  42.566158922969 # o*
 1573 402   7   0.4238   5.172769648536   8.517728472021  45.103243720832 # h*
 1574 402   7   0.4238   3.591390500019   8.517728472021  45.103243720832 # h*
 1575 402   6  -0.8476   4.382080072886   7.905511192664  45.103243720832 # o*
 1576 403   7   0.4238   5.070977196842  13.840229779323  32.417819743203 # h*
 1577 403   7   0.4238   3.489598050346  13.840229779323  32.417819743203 # h*
 1578 403   6  -0.8476   4.280287623213  13.228012499966  32.417819743203 # o*
 1579 404   7   0.4238  -8.419628401811  13.840229779323  45.103243720832 # h*
 1580 404   7   0.4238  10.204592449673  13.840229779323  45.103243720832 # h*
 1581 404   6  -0.8476  10.995282022539  13.228012499966  45.103243720832 # o*
 1582 405   7   0.4238   5.172769648536   8.517728472021  34.954904541066 # h*
 1583 405   7   0.4238   3.591390500019   8.517728472021  34.954904541066 # h*
 1584 405   6  -0.8476   4.382080072886   7.905511192664  34.954904541066 # o*
 1585 406   7   0.4238  10.305374271751   5.856477819301  34.954904541066 # h*
 1586 406   7   0.4238   8.723995125255   5.856477819301  34.954904541066 # h*
 1587 406   6  -0.8476   9.514684699343   5.244260538081  34.954904541066 # o*
 1588 407   7   0.4238  10.305374271751   5.856477819301  32.417819743203 # h*
 1589 407   7   0.4238   8.723995125255   5.856477819301  32.417819743203 # h*
 1590 407   6  -0.8476   9.514684699343   5.244260538081  32.417819743203 # o*
 1591 408   7   0.4238   6.673572571732  16.501480433906  37.491989333086 # h*
 1592 408   7   0.4238   5.092193423215  16.501480433906  37.491989333086 # h*
 1593 408   6  -0.8476   5.882882999324  15.889263152685  37.491989333086 # o*
 1594 409   7   0.4238  12.050173297535   3.195227164719  37.491989333086 # h*
 1595 409   7   0.4238  10.468794151039   3.195227164719  37.491989333086 # h*
 1596 409   6  -0.8476  11.259483723905   2.583009885361  37.491989333086 # o*
 1597 410   7   0.4238   1.683171598189  13.840229779323  47.640328512852 # h*
 1598 410   7   0.4238   0.101792449673  13.840229779323  47.640328512852 # h*
 1599 410   6  -0.8476   0.892482022539  13.228012499966  47.640328512852 # o*
 1600 411   7   0.4238  13.652768672425   5.856477819301  40.029074130949 # h*
 1601 411   7   0.4238  12.071389523908   5.856477819301  40.029074130949 # h*
 1602 411   6  -0.8476  12.862079100016   5.244260538081  40.029074130949 # o*
 1603 412   7   0.4238  -8.419628401811  13.840229779323  42.566158922969 # h*
 1604 412   7   0.4238  10.204592449673  13.840229779323  42.566158922969 # h*
 1605 412   6  -0.8476  10.995282022539  13.228012499966  42.566158922969 # o*
 1606 413   7   0.4238   1.805169647862   8.517728472021  52.714498102735 # h*
 1607 413   7   0.4238   0.223790499346   8.517728472021  52.714498102735 # h*
 1608 413   6  -0.8476   1.014480074233   7.905511192664  52.714498102735 # o*
 1609 414   7   0.4238  -3.185231326902   5.856477819301  50.177413310715 # h*
 1610 414   7   0.4238  15.438989524582   5.856477819301  50.177413310715 # h*
 1611 414   6  -0.8476  16.229679098669   5.244260538081  50.177413310715 # o*
 1612 415   7   0.4238   6.673572571732  16.501480433906  52.714498102735 # h*
 1613 415   7   0.4238   5.092193423215  16.501480433906  52.714498102735 # h*
 1614 415   6  -0.8476   5.882882999324  15.889263152685  52.714498102735 # o*
 1615 416   7   0.4238  10.305374271751   5.856477819301  29.880734951183 # h*
 1616 416   7   0.4238   8.723995125255   5.856477819301  29.880734951183 # h*
 1617 416   6  -0.8476   9.514684699343   5.244260538081  29.880734951183 # o*
 1618 417   7   0.4238  -0.061627427594  16.501480433906  55.251582900598 # h*
 1619 417   7   0.4238  -1.643006576111  16.501480433906  55.251582900598 # h*
 1620 417   6  -0.8476  -0.852317002023  15.889263152685  55.251582900598 # o*
 1621 418   7   0.4238   3.326178171059  16.501480433906  50.177413310715 # h*
 1622 418   7   0.4238   1.744799024562  16.501480433906  50.177413310715 # h*
 1623 418   6  -0.8476   2.535488598650  15.889263152685  50.177413310715 # o*
 1624 419   7   0.4238  15.397567698208   3.195227164719  32.417819743203 # h*
 1625 419   7   0.4238  13.816188549692   3.195227164719  32.417819743203 # h*
 1626 419   6  -0.8476  14.606878124579   2.583009885361  32.417819743203 # o*
 1627 420   7   0.4238   1.683171598189  13.840229779323  42.566158922969 # h*
 1628 420   7   0.4238   0.101792449673  13.840229779323  42.566158922969 # h*
 1629 420   6  -0.8476   0.892482022539  13.228012499966  42.566158922969 # o*
 1630 421   7   0.4238   3.427970622752  11.178979126604  42.566158922969 # h*
 1631 421   7   0.4238   1.846591474235  11.178979126604  42.566158922969 # h*
 1632 421   6  -0.8476   2.637281048323  10.566761845383  42.566158922969 # o*
 1633 422   7   0.4238   6.917568673098   5.856477819301  45.103243720832 # h*
 1634 422   7   0.4238   5.336189524582   5.856477819301  45.103243720832 # h*
 1635 422   6  -0.8476   6.126879098669   5.244260538081  45.103243720832 # o*
 1636 423   7   0.4238   0.060370622078  11.178979126604  50.177413310715 # h*
 1637 423   7   0.4238  -1.521008526438  11.178979126604  50.177413310715 # h*
 1638 423   6  -0.8476  -0.730318950330  10.566761845383  50.177413310715 # o*
 1639 424   7   0.4238  -1.684428402484  13.840229779323  45.103243720832 # h*
 1640 424   7   0.4238  -3.265807551001  13.840229779323  45.103243720832 # h*
 1641 424   6  -0.8476  -2.475117976114  13.228012499966  45.103243720832 # o*
 1642 425   7   0.4238   7.039566723992   0.533976510136  34.954904541066 # h*
 1643 425   7   0.4238   5.458187575476   0.533976510136  34.954904541066 # h*
 1644 425   6  -0.8476  -5.964716026460  18.550513807268  34.954904541066 # o*
 1645 426   7   0.4238  11.907969647862   8.517728472021  50.177413310715 # h*
 1646 426   7   0.4238  10.326590499346   8.517728472021  50.177413310715 # h*
 1647 426   6  -0.8476  11.117280074233   7.905511192664  50.177413310715 # o*
 1648 427   7   0.4238  13.652768672425   5.856477819301  55.251582900598 # h*
 1649 427   7   0.4238  12.071389523908   5.856477819301  55.251582900598 # h*
 1650 427   6  -0.8476  12.862079100016   5.244260538081  55.251582900598 # o*
 1651 428   7   0.4238   8.418371597516  13.840229779323  29.880734951183 # h*
 1652 428   7   0.4238   6.836992448999  13.840229779323  29.880734951183 # h*
 1653 428   6  -0.8476   7.627682023886  13.228012499966  29.880734951183 # o*
 1654 429   7   0.4238   5.070977196842  13.840229779323  42.566158922969 # h*
 1655 429   7   0.4238   3.489598050346  13.840229779323  42.566158922969 # h*
 1656 429   6  -0.8476   4.280287623213  13.228012499966  42.566158922969 # o*
 1657 430   7   0.4238  10.407166724666   0.533976510136  42.566158922969 # h*
 1658 430   7   0.4238   8.825787576149   0.533976510136  42.566158922969 # h*
 1659 430   6  -0.8476  -2.597116027807  18.550513807268  42.566158922969 # o*
 1660 431   7   0.4238   0.304366724666   0.533976510136  42.566158922969 # h*
 1661 431   7   0.4238  18.928587576149   0.533976510136  42.566158922969 # h*
 1662 431   6  -0.8476   7.505683972193  18.550513807268  42.566158922969 # o*
 1663 432   7   0.4238   3.326178171059  16.501480433906  32.417819743203 # h*
 1664 432   7   0.4238   1.744799024562  16.501480433906  32.417819743203 # h*
 1665 432   6  -0.8476   2.535488598650  15.889263152685  32.417819743203 # o*
 1666 433   7   0.4238   6.917568673098   5.856477819301  50.177413310715 # h*
 1667 433   7   0.4238   5.336189524582   5.856477819301  50.177413310715 # h*
 1668 433   6  -0.8476   6.126879098669   5.244260538081  50.177413310715 # o*
 1669 434   7   0.4238   5.172769648536   8.517728472021  47.640328512852 # h*
 1670 434   7   0.4238   3.591390500019   8.517728472021  47.640328512852 # h*
 1671 434   6  -0.8476   4.382080072886   7.905511192664  47.640328512852 # o*
 1672 435   7   0.4238   1.927167697535   3.195227164719  40.029074130949 # h*
 1673 435   7   0.4238   0.345788551039   3.195227164719  40.029074130949 # h*
 1674 435   6  -0.8476   1.136478123905   2.583009885361  40.029074130949 # o*
 1675 436   7   0.4238  10.407166724666   0.533976510136  29.880734951183 # h*
 1676 436   7   0.4238   8.825787576149   0.533976510136  29.880734951183 # h*
 1677 436   6  -0.8476  -2.597116027807  18.550513807268  29.880734951183 # o*
 1678 437   7   0.4238   3.427970622752  11.178979126604  55.251582900598 # h*
 1679 437   7   0.4238   1.846591474235  11.178979126604  55.251582900598 # h*
 1680 437   6  -0.8476   2.637281048323  10.566761845383  55.251582900598 # o*
 1681 438   7   0.4238   8.662367698882   3.195227164719  40.029074130949 # h*
 1682 438   7   0.4238   7.080988550365   3.195227164719  40.029074130949 # h*
 1683 438   6  -0.8476   7.871678123232   2.583009885361  40.029074130949 # o*
 1684 439   7   0.4238   0.182368671751   5.856477819301  40.029074130949 # h*
 1685 439   7   0.4238  -1.399010474745   5.856477819301  40.029074130949 # h*
 1686 439   6  -0.8476  -0.608320900657   5.244260538081  40.029074130949 # o*
 1687 440   7   0.4238  13.794972323319   0.533976510136  42.566158922969 # h*
 1688 440   7   0.4238  12.213593176823   0.533976510136  42.566158922969 # h*
 1689 440   6  -0.8476   0.790689572866  18.550513807268  42.566158922969 # o*
 1690 441   7   0.4238  10.407166724666   0.533976510136  40.029074130949 # h*
 1691 441   7   0.4238   8.825787576149   0.533976510136  40.029074130949 # h*
 1692 441   6  -0.8476  -2.597116027807  18.550513807268  40.029074130949 # o*
 1693 442   7   0.4238  12.050173297535   3.195227164719  55.251582900598 # h*
 1694 442   7   0.4238  10.468794151039   3.195227164719  55.251582900598 # h*
 1695 442   6  -0.8476  11.259483723905   2.583009885361  55.251582900598 # o*
 1696 443   7   0.4238   1.805169647862   8.517728472021  42.566158922969 # h*
 1697 443   7   0.4238   0.223790499346   8.517728472021  42.566158922969 # h*
 1698 443   6  -0.8476   1.014480074233   7.905511192664  42.566158922969 # o*
 1699 444   7   0.4238   1.683171598189  13.840229779323  29.880734951183 # h*
 1700 444   7   0.4238   0.101792449673  13.840229779323  29.880734951183 # h*
 1701 444   6  -0.8476   0.892482022539  13.228012499966  29.880734951183 # o*
 1702 445   7   0.4238   6.917568673098   5.856477819301  40.029074130949 # h*
 1703 445   7   0.4238   5.336189524582   5.856477819301  40.029074130949 # h*
 1704 445   6  -0.8476   6.126879098669   5.244260538081  40.029074130949 # o*
 1705 446   7   0.4238   0.060370622078  11.178979126604  45.103243720832 # h*
 1706 446   7   0.4238  -1.521008526438  11.178979126604  45.103243720832 # h*
 1707 446   6  -0.8476  -0.730318950330  10.566761845383  45.103243720832 # o*
 1708 447   7   0.4238  -1.684428402484  13.840229779323  37.491989333086 # h*
 1709 447   7   0.4238  -3.265807551001  13.840229779323  37.491989333086 # h*
 1710 447   6  -0.8476  -2.475117976114  13.228012499966  37.491989333086 # o*
 1711 448   7   0.4238   7.039566723992   0.533976510136  55.251582900598 # h*
 1712 448   7   0.4238   5.458187575476   0.533976510136  55.251582900598 # h*
 1713 448   6  -0.8476  -5.964716026460  18.550513807268  55.251582900598 # o*
 1714 449   7   0.4238   7.039566723992   0.533976510136  47.640328512852 # h*
 1715 449   7   0.4238   5.458187575476   0.533976510136  47.640328512852 # h*
 1716 449   6  -0.8476  -5.964716026460  18.550513807268  47.640328512852 # o*
 1717 450   7   0.4238   0.304366724666   0.533976510136  29.880734951183 # h*
 1718 450   7   0.4238  18.928587576149   0.533976510136  29.880734951183 # h*
 1719 450   6  -0.8476   7.505683972193  18.550513807268  29.880734951183 # o*
 1720 451   7   0.4238  13.794972323319   0.533976510136  47.640328512852 # h*
 1721 451   7   0.4238  12.213593176823   0.533976510136  47.640328512852 # h*
 1722 451   6  -0.8476   0.790689572866  18.550513807268  47.640328512852 # o*
 1723 452   7   0.4238   3.427970622752  11.178979126604  40.029074130949 # h*
 1724 452   7   0.4238   1.846591474235  11.178979126604  40.029074130949 # h*
 1725 452   6  -0.8476   2.637281048323  10.566761845383  40.029074130949 # o*
 1726 453   7   0.4238  -0.061627427594  16.501480433906  34.954904541066 # h*
 1727 453   7   0.4238  -1.643006576111  16.501480433906  34.954904541066 # h*
 1728 453   6  -0.8476  -0.852317002023  15.889263152685  34.954904541066 # o*
 1729 454   7   0.4238  -3.429227428268  16.501480433906  29.880734951183 # h*
 1730 454   7   0.4238  -5.010606576785  16.501480433906  29.880734951183 # h*
 1731 454   6  -0.8476  -4.219917000676  15.889263152685  29.880734951183 # o*
 1732 455   7   0.4238 -10.164427427594  16.501480433906  55.251582900598 # h*
 1733 455   7   0.4238   8.459793423889  16.501480433906  55.251582900598 # h*
 1734 455   6  -0.8476   9.250482997977  15.889263152685  55.251582900598 # o*
 1735 456   7   0.4238   0.182368671751   5.856477819301  45.103243720832 # h*
 1736 456   7   0.4238  -1.399010474745   5.856477819301  45.103243720832 # h*
 1737 456   6  -0.8476  -0.608320900657   5.244260538081  45.103243720832 # o*
 1738 457   7   0.4238   8.560575247189   8.517728472021  50.177413310715 # h*
 1739 457   7   0.4238   6.979196100693   8.517728472021  50.177413310715 # h*
 1740 457   6  -0.8476   7.769885673559   7.905511192664  50.177413310715 # o*
 1741 458   7   0.4238  -1.684428402484  13.840229779323  52.714498102735 # h*
 1742 458   7   0.4238  -3.265807551001  13.840229779323  52.714498102735 # h*
 1743 458   6  -0.8476  -2.475117976114  13.228012499966  52.714498102735 # o*
 1744 459   7   0.4238   5.070977196842  13.840229779323  50.177413310715 # h*
 1745 459   7   0.4238   3.489598050346  13.840229779323  50.177413310715 # h*
 1746 459   6  -0.8476   4.280287623213  13.228012499966  50.177413310715 # o*
 1747 460   7   0.4238   5.294767698208   3.195227164719  50.177413310715 # h*
 1748 460   7   0.4238   3.713388549692   3.195227164719  50.177413310715 # h*
 1749 460   6  -0.8476   4.504078124579   2.583009885361  50.177413310715 # o*
 1750 461   7   0.4238   0.304366724666   0.533976510136  34.954904541066 # h*
 1751 461   7   0.4238  18.928587576149   0.533976510136  34.954904541066 # h*
 1752 461   6  -0.8476   7.505683972193  18.550513807268  34.954904541066 # o*
 1753 462   7   0.4238   1.683171598189  13.840229779323  50.177413310715 # h*
 1754 462   7   0.4238   0.101792449673  13.840229779323  50.177413310715 # h*
 1755 462   6  -0.8476   0.892482022539  13.228012499966  50.177413310715 # o*
 1756 463   7   0.4238  12.050173297535   3.195227164719  47.640328512852 # h*
 1757 463   7   0.4238  10.468794151039   3.195227164719  47.640328512852 # h*
 1758 463   6  -0.8476  11.259483723905   2.583009885361  47.640328512852 # o*
 1759 464   7   0.4238  -4.930030351464   8.517728472021  42.566158922969 # h*
 1760 464   7   0.4238  13.694190500019   8.517728472021  42.566158922969 # h*
 1761 464   6  -0.8476  14.484880072886   7.905511192664  42.566158922969 # o*
 1762 465   7   0.4238  -3.429227428268  16.501480433906  47.640328512852 # h*
 1763 465   7   0.4238  -5.010606576785  16.501480433906  47.640328512852 # h*
 1764 465   6  -0.8476  -4.219917000676  15.889263152685  47.640328512852 # o*
 1765 466   7   0.4238  -3.307229378595  11.178979126604  34.954904541066 # h*
 1766 466   7   0.4238  -4.888608525091  11.178979126604  34.954904541066 # h*
 1767 466   6  -0.8476  -4.097918951003  10.566761845383  34.954904541066 # o*
 1768 467   7   0.4238   6.815776221405  11.178979126604  42.566158922969 # h*
 1769 467   7   0.4238   5.234397074909  11.178979126604  42.566158922969 # h*
 1770 467   6  -0.8476   6.025086648997  10.566761845383  42.566158922969 # o*
 1771 468   7   0.4238  -1.440432301118   3.195227164719  29.880734951183 # h*
 1772 468   7   0.4238  17.183788550365   3.195227164719  29.880734951183 # h*
 1773 468   6  -0.8476  17.974478123232   2.583009885361  29.880734951183 # o*
 1774 469   7   0.4238   8.418371597516  13.840229779323  47.640328512852 # h*
 1775 469   7   0.4238   6.836992448999  13.840229779323  47.640328512852 # h*
 1776 469   6  -0.8476   7.627682023886  13.228012499966  47.640328512852 # o*
 1777 470   7   0.4238   5.294767698208   3.195227164719  45.103243720832 # h*
 1778 470   7   0.4238   3.713388549692   3.195227164719  45.103243720832 # h*
 1779 470   6  -0.8476   4.504078124579   2.583009885361  45.103243720832 # o*
 1780 471   7   0.4238   7.039566723992   0.533976510136  32.417819743203 # h*
 1781 471   7   0.4238   5.458187575476   0.533976510136  32.417819743203 # h*
 1782 471   6  -0.8476  -5.964716026460  18.550513807268  32.417819743203 # o*
 1783 472   7   0.4238   0.182368671751   5.856477819301  37.491989333086 # h*
 1784 472   7   0.4238  -1.399010474745   5.856477819301  37.491989333086 # h*
 1785 472   6  -0.8476  -0.608320900657   5.244260538081  37.491989333086 # o*
 1786 473   7   0.4238  13.652768672425   5.856477819301  29.880734951183 # h*
 1787 473   7   0.4238  12.071389523908   5.856477819301  29.880734951183 # h*
 1788 473   6  -0.8476  12.862079100016   5.244260538081  29.880734951183 # o*
 1789 474   7   0.4238   5.070977196842  13.840229779323  34.954904541066 # h*
 1790 474   7   0.4238   3.489598050346  13.840229779323  34.954904541066 # h*
 1791 474   6  -0.8476   4.280287623213  13.228012499966  34.954904541066 # o*
 1792 475   7   0.4238   8.560575247189   8.517728472021  52.714498102735 # h*
 1793 475   7   0.4238   6.979196100693   8.517728472021  52.714498102735 # h*
 1794 475   6  -0.8476   7.769885673559   7.905511192664  52.714498102735 # o*
 1795 476   7   0.4238  -3.307229378595  11.178979126604  50.177413310715 # h*
 1796 476   7   0.4238  -4.888608525091  11.178979126604  50.177413310715 # h*
 1797 476   6  -0.8476  -4.097918951003  10.566761845383  50.177413310715 # o*
 1798 477   7   0.4238   7.039566723992   0.533976510136  29.880734951183 # h*
 1799 477   7   0.4238   5.458187575476   0.533976510136  29.880734951183 # h*
 1800 477   6  -0.8476  -5.964716026460  18.550513807268  29.880734951183 # o*
 1801 478   7   0.4238   3.427970622752  11.178979126604  29.880734951183 # h*
 1802 478   7   0.4238   1.846591474235  11.178979126604  29.880734951183 # h*
 1803 478   6  -0.8476   2.637281048323  10.566761845383  29.880734951183 # o*
 1804 479   7   0.4238  -0.061627427594  16.501480433906  50.177413310715 # h*
 1805 479   7   0.4238  -1.643006576111  16.501480433906  50.177413310715 # h*
 1806 479   6  -0.8476  -0.852317002023  15.889263152685  50.177413310715 # o*
 1807 480   7   0.4238   6.673572571732  16.501480433906  47.640328512852 # h*
 1808 480   7   0.4238   5.092193423215  16.501480433906  47.640328512852 # h*
 1809 480   6  -0.8476   5.882882999324  15.889263152685  47.640328512852 # o*
 1810 481   7   0.4238  -3.185231326902   5.856477819301  42.566158922969 # h*
 1811 481   7   0.4238  15.438989524582   5.856477819301  42.566158922969 # h*
 1812 481   6  -0.8476  16.229679098669   5.244260538081  42.566158922969 # o*
 1813 482   7   0.4238   6.673572571732  16.501480433906  42.566158922969 # h*
 1814 482   7   0.4238   5.092193423215  16.501480433906  42.566158922969 # h*
 1815 482   6  -0.8476   5.882882999324  15.889263152685  42.566158922969 # o*
 1816 483   7   0.4238  -3.307229378595  11.178979126604  37.491989333086 # h*
 1817 483   7   0.4238  -4.888608525091  11.178979126604  37.491989333086 # h*
 1818 483   6  -0.8476  -4.097918951003  10.566761845383  37.491989333086 # o*
 1819 484   7   0.4238   8.662367698882   3.195227164719  45.103243720832 # h*
 1820 484   7   0.4238   7.080988550365   3.195227164719  45.103243720832 # h*
 1821 484   6  -0.8476   7.871678123232   2.583009885361  45.103243720832 # o*
 1822 485   7   0.4238   0.182368671751   5.856477819301  50.177413310715 # h*
 1823 485   7   0.4238  -1.399010474745   5.856477819301  50.177413310715 # h*
 1824 485   6  -0.8476  -0.608320900657   5.244260538081  50.177413310715 # o*
 1825 486   7   0.4238  -6.674829377248  11.178979126604  42.566158922969 # h*
 1826 486   7   0.4238  11.949391474235  11.178979126604  42.566158922969 # h*
 1827 486   6  -0.8476  12.740081048323  10.566761845383  42.566158922969 # o*
 1828 487   7   0.4238  -3.429227428268  16.501480433906  45.103243720832 # h*
 1829 487   7   0.4238  -5.010606576785  16.501480433906  45.103243720832 # h*
 1830 487   6  -0.8476  -4.219917000676  15.889263152685  45.103243720832 # o*
 1831 488   7   0.4238  -1.684428402484  13.840229779323  29.880734951183 # h*
 1832 488   7   0.4238  -3.265807551001  13.840229779323  29.880734951183 # h*
 1833 488   6  -0.8476  -2.475117976114  13.228012499966  29.880734951183 # o*
 1834 489   7   0.4238  -0.061627427594  16.501480433906  32.417819743203 # h*
 1835 489   7   0.4238  -1.643006576111  16.501480433906  32.417819743203 # h*
 1836 489   6  -0.8476  -0.852317002023  15.889263152685  32.417819743203 # o*
 1837 490   7   0.4238   5.294767698208   3.195227164719  37.491989333086 # h*
 1838 490   7   0.4238   3.713388549692   3.195227164719  37.491989333086 # h*
 1839 490   6  -0.8476   4.504078124579   2.583009885361  37.491989333086 # o*
 1840 491   7   0.4238  -5.052028403158  13.840229779323  47.640328512852 # h*
 1841 491   7   0.4238  -6.633407549654  13.840229779323  47.640328512852 # h*
 1842 491   6  -0.8476  -5.842717976787  13.228012499966  47.640328512852 # o*
 1843 492   7   0.4238  12.050173297535   3.195227164719  50.177413310715 # h*
 1844 492   7   0.4238  10.468794151039   3.195227164719  50.177413310715 # h*
 1845 492   6  -0.8476  11.259483723905   2.583009885361  50.177413310715 # o*
 1846 493   7   0.4238  -6.674829377248  11.178979126604  32.417819743203 # h*
 1847 493   7   0.4238  11.949391474235  11.178979126604  32.417819743203 # h*
 1848 493   6  -0.8476  12.740081048323  10.566761845383  32.417819743203 # o*
 1849 494   7   0.4238  13.652768672425   5.856477819301  45.103243720832 # h*
 1850 494   7   0.4238  12.071389523908   5.856477819301  45.103243720832 # h*
 1851 494   6  -0.8476  12.862079100016   5.244260538081  45.103243720832 # o*
 1852 495   7   0.4238  15.397567698208   3.195227164719  50.177413310715 # h*
 1853 495   7   0.4238  13.816188549692   3.195227164719  50.177413310715 # h*
 1854 495   6  -0.8476  14.606878124579   2.583009885361  50.177413310715 # o*
 1855 496   7   0.4238  -3.185231326902   5.856477819301  55.251582900598 # h*
 1856 496   7   0.4238  15.438989524582   5.856477819301  55.251582900598 # h*
 1857 496   6  -0.8476  16.229679098669   5.244260538081  55.251582900598 # o*
 1858 497   7   0.4238   5.294767698208   3.195227164719  42.566158922969 # h*
 1859 497   7   0.4238   3.713388549692   3.195227164719  42.566158922969 # h*
 1860 497   6  -0.8476   4.504078124579   2.583009885361  42.566158922969 # o*
 1861 498   7   0.4238  -8.419628401811  13.840229779323  47.640328512852 # h*
 1862 498   7   0.4238  10.204592449673  13.840229779323  47.640328512852 # h*
 1863 498   6  -0.8476  10.995282022539  13.228012499966  47.640328512852 # o*
 1864 499   7   0.4238   3.549968672425   5.856477819301  47.640328512852 # h*
 1865 499   7   0.4238   1.968589523908   5.856477819301  47.640328512852 # h*
 1866 499   6  -0.8476   2.759279100016   5.244260538081  47.640328512852 # o*
 1867 500   7   0.4238   3.326178171059  16.501480433906  37.491989333086 # h*
 1868 500   7   0.4238   1.744799024562  16.501480433906  37.491989333086 # h*
 1869 500   6  -0.8476   2.535488598650  15.889263152685  37.491989333086 # o*
 1870 501   7   0.4238  -5.052028403158  13.840229779323  34.954904541066 # h*
 1871 501   7   0.4238  -6.633407549654  13.840229779323  34.954904541066 # h*
 1872 501   6  -0.8476  -5.842717976787  13.228012499966  34.954904541066 # o*
 1873 502   7   0.4238   8.662367698882   3.195227164719  37.491989333086 # h*
 1874 502   7   0.4238   7.080988550365   3.195227164719  37.491989333086 # h*
 1875 502   6  -0.8476   7.871678123232   2.583009885361  37.491989333086 # o*
 1876 503   7   0.4238  -1.440432301118   3.195227164719  34.954904541066 # h*
 1877 503   7   0.4238  17.183788550365   3.195227164719  34.954904541066 # h*
 1878 503   6  -0.8476  17.974478123232   2.583009885361  34.954904541066 # o*
 1879 504   7   0.4238   0.182368671751   5.856477819301  52.714498102735 # h*
 1880 504   7   0.4238  -1.399010474745   5.856477819301  52.714498102735 # h*
 1881 504   6  -0.8476  -0.608320900657   5.244260538081  52.714498102735 # o*
 1882 505   7   0.4238   1.683171598189  13.840229779323  34.954904541066 # h*
 1883 505   7   0.4238   0.101792449673  13.840229779323  34.954904541066 # h*
 1884 505   6  -0.8476   0.892482022539  13.228012499966  34.954904541066 # o*
 1885 506   7   0.4238  -3.185231326902   5.856477819301  29.880734951183 # h*
 1886 506   7   0.4238  15.438989524582   5.856477819301  29.880734951183 # h*
 1887 506   6  -0.8476  16.229679098669   5.244260538081  29.880734951183 # o*
 1888 507   7   0.4238   6.917568673098   5.856477819301  55.251582900598 # h*
 1889 507   7   0.4238   5.336189524582   5.856477819301  55.251582900598 # h*
 1890 507   6  -0.8476   6.126879098669   5.244260538081  55.251582900598 # o*
 1891 508   7   0.4238  -3.307229378595  11.178979126604  29.880734951183 # h*
 1892 508   7   0.4238  -4.888608525091  11.178979126604  29.880734951183 # h*
 1893 508   6  -0.8476  -4.097918951003  10.566761845383  29.880734951183 # o*
 1894 509   7   0.4238   8.560575247189   8.517728472021  40.029074130949 # h*
 1895 509   7   0.4238   6.979196100693   8.517728472021  40.029074130949 # h*
 1896 509   6  -0.8476   7.769885673559   7.905511192664  40.029074130949 # o*
 1897 510   7   0.4238  15.397567698208   3.195227164719  34.954904541066 # h*
 1898 510   7   0.4238  13.816188549692   3.195227164719  34.954904541066 # h*
 1899 510   6  -0.8476  14.606878124579   2.583009885361  34.954904541066 # o*
 1900 511   7   0.4238   6.917568673098   5.856477819301  32.417819743203 # h*
 1901 511   7   0.4238   5.336189524582   5.856477819301  32.417819743203 # h*
 1902 511   6  -0.8476   6.126879098669   5.244260538081  32.417819743203 # o*
 1903 512   7   0.4238   6.815776221405  11.178979126604  52.714498102735 # h*
 1904 512   7   0.4238   5.234397074909  11.178979126604  52.714498102735 # h*
 1905 512   6  -0.8476   6.025086648997  10.566761845383  52.714498102735 # o*
 1906 513   7   0.4238  -8.419628401811  13.840229779323  40.029074130949 # h*
 1907 513   7   0.4238  10.204592449673  13.840229779323  40.029074130949 # h*
 1908 513   6  -0.8476  10.995282022539  13.228012499966  40.029074130949 # o*
 1909 514   7   0.4238   8.560575247189   8.517728472021  37.491989333086 # h*
 1910 514   7   0.4238   6.979196100693   8.517728472021  37.491989333086 # h*
 1911 514   6  -0.8476   7.769885673559   7.905511192664  37.491989333086 # o*
 1912 515   7   0.4238  -0.061627427594  16.501480433906  52.714498102735 # h*
 1913 515   7   0.4238  -1.643006576111  16.501480433906  52.714498102735 # h*
 1914 515   6  -0.8476  -0.852317002023  15.889263152685  52.714498102735 # o*
 1915 516   7   0.4238   0.182368671751   5.856477819301  55.251582900598 # h*
 1916 516   7   0.4238  -1.399010474745   5.856477819301  55.251582900598 # h*
 1917 516   6  -0.8476  -0.608320900657   5.244260538081  55.251582900598 # o*
 1918 517   7   0.4238 -10.164427427594  16.501480433906  52.714498102735 # h*
 1919 517   7   0.4238   8.459793423889  16.501480433906  52.714498102735 # h*
 1920 517   6  -0.8476   9.250482997977  15.889263152685  52.714498102735 # o*
 1921 518   7   0.4238   7.039566723992   0.533976510136  50.177413310715 # h*
 1922 518   7   0.4238   5.458187575476   0.533976510136  50.177413310715 # h*
 1923 518   6  -0.8476  -5.964716026460  18.550513807268  50.177413310715 # o*
 1924 519   7   0.4238  -1.684428402484  13.840229779323  40.029074130949 # h*
 1925 519   7   0.4238  -3.265807551001  13.840229779323  40.029074130949 # h*
 1926 519   6  -0.8476  -2.475117976114  13.228012499966  40.029074130949 # o*
 1927 520   7   0.4238   3.549968672425   5.856477819301  34.954904541066 # h*
 1928 520   7   0.4238   1.968589523908   5.856477819301  34.954904541066 # h*
 1929 520   6  -0.8476   2.759279100016   5.244260538081  34.954904541066 # o*
 1930 521   7   0.4238  -6.796827428941  16.501480433906  47.640328512852 # h*
 1931 521   7   0.4238  -8.378206575438  16.501480433906  47.640328512852 # h*
 1932 521   6  -0.8476  -7.587517001350  15.889263152685  47.640328512852 # o*
 1933 522   7   0.4238   0.304366724666   0.533976510136  52.714498102735 # h*
 1934 522   7   0.4238  18.928587576149   0.533976510136  52.714498102735 # h*
 1935 522   6  -0.8476   7.505683972193  18.550513807268  52.714498102735 # o*
 1936 523   7   0.4238   0.182368671751   5.856477819301  42.566158922969 # h*
 1937 523   7   0.4238  -1.399010474745   5.856477819301  42.566158922969 # h*
 1938 523   6  -0.8476  -0.608320900657   5.244260538081  42.566158922969 # o*
 1939 524   7   0.4238   5.070977196842  13.840229779323  45.103243720832 # h*
 1940 524   7   0.4238   3.489598050346  13.840229779323  45.103243720832 # h*
 1941 524   6  -0.8476   4.280287623213  13.228012499966  45.103243720832 # o*
 1942 525   7   0.4238   5.070977196842  13.840229779323  40.029074130949 # h*
 1943 525   7   0.4238   3.489598050346  13.840229779323  40.029074130949 # h*
 1944 525   6  -0.8476   4.280287623213  13.228012499966  40.029074130949 # o*
 1945 526   7   0.4238  -3.429227428268  16.501480433906  34.954904541066 # h*
 1946 526   7   0.4238  -5.010606576785  16.501480433906  34.954904541066 # h*
 1947 526   6  -0.8476  -4.219917000676  15.889263152685  34.954904541066 # o*
 1948 527   7   0.4238  10.305374271751   5.856477819301  37.491989333086 # h*
 1949 527   7   0.4238   8.723995125255   5.856477819301  37.491989333086 # h*
 1950 527   6  -0.8476   9.514684699343   5.244260538081  37.491989333086 # o*
 1951 528   7   0.4238  10.305374271751   5.856477819301  47.640328512852 # h*
 1952 528   7   0.4238   8.723995125255   5.856477819301  47.640328512852 # h*
 1953 528   6  -0.8476   9.514684699343   5.244260538081  47.640328512852 # o*
 1954 529   7   0.4238   5.172769648536   8.517728472021  29.880734951183 # h*
 1955 529   7   0.4238   3.591390500019   8.517728472021  29.880734951183 # h*
 1956 529   6  -0.8476   4.382080072886   7.905511192664  29.880734951183 # o*
 1957 530   7   0.4238   6.673572571732  16.501480433906  29.880734951183 # h*
 1958 530   7   0.4238   5.092193423215  16.501480433906  29.880734951183 # h*
 1959 530   6  -0.8476   5.882882999324  15.889263152685  29.880734951183 # o*
 1960 531   7   0.4238   1.805169647862   8.517728472021  47.640328512852 # h*
 1961 531   7   0.4238   0.223790499346   8.517728472021  47.640328512852 # h*
 1962 531   6  -0.8476   1.014480074233   7.905511192664  47.640328512852 # o*
 1963 532   7   0.4238  -6.796827428941  16.501480433906  42.566158922969 # h*
 1964 532   7   0.4238  -8.378206575438  16.501480433906  42.566158922969 # h*
 1965 532   6  -0.8476  -7.587517001350  15.889263152685  42.566158922969 # o*
 1966 533   7   0.4238   0.182368671751   5.856477819301  34.954904541066 # h*
 1967 533   7   0.4238  -1.399010474745   5.856477819301  34.954904541066 # h*
 1968 533   6  -0.8476  -0.608320900657   5.244260538081  34.954904541066 # o*
 1969 534   7   0.4238   3.549968672425   5.856477819301  52.714498102735 # h*
 1970 534   7   0.4238   1.968589523908   5.856477819301  52.714498102735 # h*
 1971 534   6  -0.8476   2.759279100016   5.244260538081  52.714498102735 # o*
 1972 535   7   0.4238   1.927167697535   3.195227164719  29.880734951183 # h*
 1973 535   7   0.4238   0.345788551039   3.195227164719  29.880734951183 # h*
 1974 535   6  -0.8476   1.136478123905   2.583009885361  29.880734951183 # o*

Bonds

    1   1    38    85 # oh-ho
    2   1    39    86 # oh-ho
    3   1    54    55 # oh-ho
    4   1    56    57 # oh-ho
    5   1   106   763 # oh-ho
    6   1   107   751 # oh-ho
    7   1   124   764 # oh-ho
    8   1   125   752 # oh-ho
    9   1   136   137 # oh-ho
   10   1   138   139 # oh-ho
   11   1   204   251 # oh-ho
   12   1   205   252 # oh-ho
   13   1   220   221 # oh-ho
   14   1   222   223 # oh-ho
   15   1   290   341 # oh-ho
   16   1   291   342 # oh-ho
   17   1   306   307 # oh-ho
   18   1   308   309 # oh-ho
   19   1   310   311 # oh-ho
   20   1   312   313 # oh-ho
   21   1   362   765 # oh-ho
   22   1   363   753 # oh-ho
   23   1   380   766 # oh-ho
   24   1   381   754 # oh-ho
   25   1   392   393 # oh-ho
   26   1   394   395 # oh-ho
   27   1   442   767 # oh-ho
   28   1   443   755 # oh-ho
   29   1   460   768 # oh-ho
   30   1   461   756 # oh-ho
   31   1   472   473 # oh-ho
   32   1   474   475 # oh-ho
   33   1   476   477 # oh-ho
   34   1   478   479 # oh-ho
   35   1   526   769 # oh-ho
   36   1   527   757 # oh-ho
   37   1   544   770 # oh-ho
   38   1   545   758 # oh-ho
   39   1   556   557 # oh-ho
   40   1   558   559 # oh-ho
   41   1   560   561 # oh-ho
   42   1   562   563 # oh-ho
   43   1   610   771 # oh-ho
   44   1   611   759 # oh-ho
   45   1   628   772 # oh-ho
   46   1   629   760 # oh-ho
   47   1   640   641 # oh-ho
   48   1   642   643 # oh-ho
   49   1   690   773 # oh-ho
   50   1   691   761 # oh-ho
   51   1   708   774 # oh-ho
   52   1   709   762 # oh-ho
   53   1   720   721 # oh-ho
   54   1   722   723 # oh-ho
   55   2    58    59 # o*-h*
   56   2    58    60 # o*-h*
   57   2    61    62 # o*-h*
   58   2    61    63 # o*-h*
   59   2    64    65 # o*-h*
   60   2    64    66 # o*-h*
   61   2    67    68 # o*-h*
   62   2    67    69 # o*-h*
   63   2    70    71 # o*-h*
   64   2    70    72 # o*-h*
   65   2    73    74 # o*-h*
   66   2    73    75 # o*-h*
   67   2    76   333 # o*-h*
   68   2    76   334 # o*-h*
   69   2    79    80 # o*-h*
   70   2    79    81 # o*-h*
   71   2    82    83 # o*-h*
   72   2    82    84 # o*-h*
   73   2   140   141 # o*-h*
   74   2   140   142 # o*-h*
   75   2   143   144 # o*-h*
   76   2   143   145 # o*-h*
   77   2   146   147 # o*-h*
   78   2   146   148 # o*-h*
   79   2   149   150 # o*-h*
   80   2   149   151 # o*-h*
   81   2   152   153 # o*-h*
   82   2   152   154 # o*-h*
   83   2   155   156 # o*-h*
   84   2   155   157 # o*-h*
   85   2   158   415 # o*-h*
   86   2   158   416 # o*-h*
   87   2   161   162 # o*-h*
   88   2   161   163 # o*-h*
   89   2   164   165 # o*-h*
   90   2   164   166 # o*-h*
   91   2   224   225 # o*-h*
   92   2   224   226 # o*-h*
   93   2   227   228 # o*-h*
   94   2   227   229 # o*-h*
   95   2   230   231 # o*-h*
   96   2   230   232 # o*-h*
   97   2   233   234 # o*-h*
   98   2   233   235 # o*-h*
   99   2   236   237 # o*-h*
  100   2   236   238 # o*-h*
  101   2   239   240 # o*-h*
  102   2   239   241 # o*-h*
  103   2   242   499 # o*-h*
  104   2   242   500 # o*-h*
  105   2   245   246 # o*-h*
  106   2   245   247 # o*-h*
  107   2   248   249 # o*-h*
  108   2   248   250 # o*-h*
  109   2   314   315 # o*-h*
  110   2   314   316 # o*-h*
  111   2   317   318 # o*-h*
  112   2   317   319 # o*-h*
  113   2   320   321 # o*-h*
  114   2   320   322 # o*-h*
  115   2   323   324 # o*-h*
  116   2   323   325 # o*-h*
  117   2   326   327 # o*-h*
  118   2   326   328 # o*-h*
  119   2   329   330 # o*-h*
  120   2   329   331 # o*-h*
  121   2   332   583 # o*-h*
  122   2   332   584 # o*-h*
  123   2   335   336 # o*-h*
  124   2   335   337 # o*-h*
  125   2   338   339 # o*-h*
  126   2   338   340 # o*-h*
  127   2   396   397 # o*-h*
  128   2   396   398 # o*-h*
  129   2   399   400 # o*-h*
  130   2   399   401 # o*-h*
  131   2   402   403 # o*-h*
  132   2   402   404 # o*-h*
  133   2   405   406 # o*-h*
  134   2   405   407 # o*-h*
  135   2   408   409 # o*-h*
  136   2   408   410 # o*-h*
  137   2   411   412 # o*-h*
  138   2   411   413 # o*-h*
  139   2   414   663 # o*-h*
  140   2   414   664 # o*-h*
  141   2   417   418 # o*-h*
  142   2   417   419 # o*-h*
  143   2   420   421 # o*-h*
  144   2   420   422 # o*-h*
  145   2   480   481 # o*-h*
  146   2   480   482 # o*-h*
  147   2   483   484 # o*-h*
  148   2   483   485 # o*-h*
  149   2   486   487 # o*-h*
  150   2   486   488 # o*-h*
  151   2   489   490 # o*-h*
  152   2   489   491 # o*-h*
  153   2   492   493 # o*-h*
  154   2   492   494 # o*-h*
  155   2   495   496 # o*-h*
  156   2   495   497 # o*-h*
  157   2   498   743 # o*-h*
  158   2   498   744 # o*-h*
  159   2   501   502 # o*-h*
  160   2   501   503 # o*-h*
  161   2   504   505 # o*-h*
  162   2   504   506 # o*-h*
  163   2   564   565 # o*-h*
  164   2   564   566 # o*-h*
  165   2   567   568 # o*-h*
  166   2   567   569 # o*-h*
  167   2   570   571 # o*-h*
  168   2   570   572 # o*-h*
  169   2   573   574 # o*-h*
  170   2   573   575 # o*-h*
  171   2   576   577 # o*-h*
  172   2   576   578 # o*-h*
  173   2   579   580 # o*-h*
  174   2   579   581 # o*-h*
  175   2   582    77 # o*-h*
  176   2   582    78 # o*-h*
  177   2   585   586 # o*-h*
  178   2   585   587 # o*-h*
  179   2   588   589 # o*-h*
  180   2   588   590 # o*-h*
  181   2   644   645 # o*-h*
  182   2   644   646 # o*-h*
  183   2   647   648 # o*-h*
  184   2   647   649 # o*-h*
  185   2   650   651 # o*-h*
  186   2   650   652 # o*-h*
  187   2   653   654 # o*-h*
  188   2   653   655 # o*-h*
  189   2   656   657 # o*-h*
  190   2   656   658 # o*-h*
  191   2   659   660 # o*-h*
  192   2   659   661 # o*-h*
  193   2   662   159 # o*-h*
  194   2   662   160 # o*-h*
  195   2   665   666 # o*-h*
  196   2   665   667 # o*-h*
  197   2   668   669 # o*-h*
  198   2   668   670 # o*-h*
  199   2   724   725 # o*-h*
  200   2   724   726 # o*-h*
  201   2   727   728 # o*-h*
  202   2   727   729 # o*-h*
  203   2   730   731 # o*-h*
  204   2   730   732 # o*-h*
  205   2   733   734 # o*-h*
  206   2   733   735 # o*-h*
  207   2   736   737 # o*-h*
  208   2   736   738 # o*-h*
  209   2   739   740 # o*-h*
  210   2   739   741 # o*-h*
  211   2   742   243 # o*-h*
  212   2   742   244 # o*-h*
  213   2   745   746 # o*-h*
  214   2   745   747 # o*-h*
  215   2   748   749 # o*-h*
  216   2   748   750 # o*-h*
  217   2   777   775 # o*-h*
  218   2   777   776 # o*-h*
  219   2   780   778 # o*-h*
  220   2   780   779 # o*-h*
  221   2   783   781 # o*-h*
  222   2   783   782 # o*-h*
  223   2   786   784 # o*-h*
  224   2   786   785 # o*-h*
  225   2   789   787 # o*-h*
  226   2   789   788 # o*-h*
  227   2   792   790 # o*-h*
  228   2   792   791 # o*-h*
  229   2   795   793 # o*-h*
  230   2   795   794 # o*-h*
  231   2   798   796 # o*-h*
  232   2   798   797 # o*-h*
  233   2   801   799 # o*-h*
  234   2   801   800 # o*-h*
  235   2   804   802 # o*-h*
  236   2   804   803 # o*-h*
  237   2   807   805 # o*-h*
  238   2   807   806 # o*-h*
  239   2   810   808 # o*-h*
  240   2   810   809 # o*-h*
  241   2   813   811 # o*-h*
  242   2   813   812 # o*-h*
  243   2   816   814 # o*-h*
  244   2   816   815 # o*-h*
  245   2   819   817 # o*-h*
  246   2   819   818 # o*-h*
  247   2   822   820 # o*-h*
  248   2   822   821 # o*-h*
  249   2   825   823 # o*-h*
  250   2   825   824 # o*-h*
  251   2   828   826 # o*-h*
  252   2   828   827 # o*-h*
  253   2   831   829 # o*-h*
  254   2   831   830 # o*-h*
  255   2   834   832 # o*-h*
  256   2   834   833 # o*-h*
  257   2   837   835 # o*-h*
  258   2   837   836 # o*-h*
  259   2   840   838 # o*-h*
  260   2   840   839 # o*-h*
  261   2   843   841 # o*-h*
  262   2   843   842 # o*-h*
  263   2   846   844 # o*-h*
  264   2   846   845 # o*-h*
  265   2   849   847 # o*-h*
  266   2   849   848 # o*-h*
  267   2   852   850 # o*-h*
  268   2   852   851 # o*-h*
  269   2   855   853 # o*-h*
  270   2   855   854 # o*-h*
  271   2   858   856 # o*-h*
  272   2   858   857 # o*-h*
  273   2   861   859 # o*-h*
  274   2   861   860 # o*-h*
  275   2   864   862 # o*-h*
  276   2   864   863 # o*-h*
  277   2   867   865 # o*-h*
  278   2   867   866 # o*-h*
  279   2   870   868 # o*-h*
  280   2   870   869 # o*-h*
  281   2   873   871 # o*-h*
  282   2   873   872 # o*-h*
  283   2   876   874 # o*-h*
  284   2   876   875 # o*-h*
  285   2   879   877 # o*-h*
  286   2   879   878 # o*-h*
  287   2   882   880 # o*-h*
  288   2   882   881 # o*-h*
  289   2   885   883 # o*-h*
  290   2   885   884 # o*-h*
  291   2   888   886 # o*-h*
  292   2   888   887 # o*-h*
  293   2   891   889 # o*-h*
  294   2   891   890 # o*-h*
  295   2   894   892 # o*-h*
  296   2   894   893 # o*-h*
  297   2   897   895 # o*-h*
  298   2   897   896 # o*-h*
  299   2   900   898 # o*-h*
  300   2   900   899 # o*-h*
  301   2   903   901 # o*-h*
  302   2   903   902 # o*-h*
  303   2   906   904 # o*-h*
  304   2   906   905 # o*-h*
  305   2   909   907 # o*-h*
  306   2   909   908 # o*-h*
  307   2   912   910 # o*-h*
  308   2   912   911 # o*-h*
  309   2   915   913 # o*-h*
  310   2   915   914 # o*-h*
  311   2   918   916 # o*-h*
  312   2   918   917 # o*-h*
  313   2   921   919 # o*-h*
  314   2   921   920 # o*-h*
  315   2   924   922 # o*-h*
  316   2   924   923 # o*-h*
  317   2   927   925 # o*-h*
  318   2   927   926 # o*-h*
  319   2   930   928 # o*-h*
  320   2   930   929 # o*-h*
  321   2   933   931 # o*-h*
  322   2   933   932 # o*-h*
  323   2   936   934 # o*-h*
  324   2   936   935 # o*-h*
  325   2   939   937 # o*-h*
  326   2   939   938 # o*-h*
  327   2   942   940 # o*-h*
  328   2   942   941 # o*-h*
  329   2   945   943 # o*-h*
  330   2   945   944 # o*-h*
  331   2   948   946 # o*-h*
  332   2   948   947 # o*-h*
  333   2   951   949 # o*-h*
  334   2   951   950 # o*-h*
  335   2   954   952 # o*-h*
  336   2   954   953 # o*-h*
  337   2   957   955 # o*-h*
  338   2   957   956 # o*-h*
  339   2   960   958 # o*-h*
  340   2   960   959 # o*-h*
  341   2   963   961 # o*-h*
  342   2   963   962 # o*-h*
  343   2   966   964 # o*-h*
  344   2   966   965 # o*-h*
  345   2   969   967 # o*-h*
  346   2   969   968 # o*-h*
  347   2   972   970 # o*-h*
  348   2   972   971 # o*-h*
  349   2   975   973 # o*-h*
  350   2   975   974 # o*-h*
  351   2   978   976 # o*-h*
  352   2   978   977 # o*-h*
  353   2   981   979 # o*-h*
  354   2   981   980 # o*-h*
  355   2   984   982 # o*-h*
  356   2   984   983 # o*-h*
  357   2   987   985 # o*-h*
  358   2   987   986 # o*-h*
  359   2   990   988 # o*-h*
  360   2   990   989 # o*-h*
  361   2   993   991 # o*-h*
  362   2   993   992 # o*-h*
  363   2   996   994 # o*-h*
  364   2   996   995 # o*-h*
  365   2   999   997 # o*-h*
  366   2   999   998 # o*-h*
  367   2  1002  1000 # o*-h*
  368   2  1002  1001 # o*-h*
  369   2  1005  1003 # o*-h*
  370   2  1005  1004 # o*-h*
  371   2  1008  1006 # o*-h*
  372   2  1008  1007 # o*-h*
  373   2  1011  1009 # o*-h*
  374   2  1011  1010 # o*-h*
  375   2  1014  1012 # o*-h*
  376   2  1014  1013 # o*-h*
  377   2  1017  1015 # o*-h*
  378   2  1017  1016 # o*-h*
  379   2  1020  1018 # o*-h*
  380   2  1020  1019 # o*-h*
  381   2  1023  1021 # o*-h*
  382   2  1023  1022 # o*-h*
  383   2  1026  1024 # o*-h*
  384   2  1026  1025 # o*-h*
  385   2  1029  1027 # o*-h*
  386   2  1029  1028 # o*-h*
  387   2  1032  1030 # o*-h*
  388   2  1032  1031 # o*-h*
  389   2  1035  1033 # o*-h*
  390   2  1035  1034 # o*-h*
  391   2  1038  1036 # o*-h*
  392   2  1038  1037 # o*-h*
  393   2  1041  1039 # o*-h*
  394   2  1041  1040 # o*-h*
  395   2  1044  1042 # o*-h*
  396   2  1044  1043 # o*-h*
  397   2  1047  1045 # o*-h*
  398   2  1047  1046 # o*-h*
  399   2  1050  1048 # o*-h*
  400   2  1050  1049 # o*-h*
  401   2  1053  1051 # o*-h*
  402   2  1053  1052 # o*-h*
  403   2  1056  1054 # o*-h*
  404   2  1056  1055 # o*-h*
  405   2  1059  1057 # o*-h*
  406   2  1059  1058 # o*-h*
  407   2  1062  1060 # o*-h*
  408   2  1062  1061 # o*-h*
  409   2  1065  1063 # o*-h*
  410   2  1065  1064 # o*-h*
  411   2  1068  1066 # o*-h*
  412   2  1068  1067 # o*-h*
  413   2  1071  1069 # o*-h*
  414   2  1071  1070 # o*-h*
  415   2  1074  1072 # o*-h*
  416   2  1074  1073 # o*-h*
  417   2  1077  1075 # o*-h*
  418   2  1077  1076 # o*-h*
  419   2  1080  1078 # o*-h*
  420   2  1080  1079 # o*-h*
  421   2  1083  1081 # o*-h*
  422   2  1083  1082 # o*-h*
  423   2  1086  1084 # o*-h*
  424   2  1086  1085 # o*-h*
  425   2  1089  1087 # o*-h*
  426   2  1089  1088 # o*-h*
  427   2  1092  1090 # o*-h*
  428   2  1092  1091 # o*-h*
  429   2  1095  1093 # o*-h*
  430   2  1095  1094 # o*-h*
  431   2  1098  1096 # o*-h*
  432   2  1098  1097 # o*-h*
  433   2  1101  1099 # o*-h*
  434   2  1101  1100 # o*-h*
  435   2  1104  1102 # o*-h*
  436   2  1104  1103 # o*-h*
  437   2  1107  1105 # o*-h*
  438   2  1107  1106 # o*-h*
  439   2  1110  1108 # o*-h*
  440   2  1110  1109 # o*-h*
  441   2  1113  1111 # o*-h*
  442   2  1113  1112 # o*-h*
  443   2  1116  1114 # o*-h*
  444   2  1116  1115 # o*-h*
  445   2  1119  1117 # o*-h*
  446   2  1119  1118 # o*-h*
  447   2  1122  1120 # o*-h*
  448   2  1122  1121 # o*-h*
  449   2  1125  1123 # o*-h*
  450   2  1125  1124 # o*-h*
  451   2  1128  1126 # o*-h*
  452   2  1128  1127 # o*-h*
  453   2  1131  1129 # o*-h*
  454   2  1131  1130 # o*-h*
  455   2  1134  1132 # o*-h*
  456   2  1134  1133 # o*-h*
  457   2  1137  1135 # o*-h*
  458   2  1137  1136 # o*-h*
  459   2  1140  1138 # o*-h*
  460   2  1140  1139 # o*-h*
  461   2  1143  1141 # o*-h*
  462   2  1143  1142 # o*-h*
  463   2  1146  1144 # o*-h*
  464   2  1146  1145 # o*-h*
  465   2  1149  1147 # o*-h*
  466   2  1149  1148 # o*-h*
  467   2  1152  1150 # o*-h*
  468   2  1152  1151 # o*-h*
  469   2  1155  1153 # o*-h*
  470   2  1155  1154 # o*-h*
  471   2  1158  1156 # o*-h*
  472   2  1158  1157 # o*-h*
  473   2  1161  1159 # o*-h*
  474   2  1161  1160 # o*-h*
  475   2  1164  1162 # o*-h*
  476   2  1164  1163 # o*-h*
  477   2  1167  1165 # o*-h*
  478   2  1167  1166 # o*-h*
  479   2  1170  1168 # o*-h*
  480   2  1170  1169 # o*-h*
  481   2  1173  1171 # o*-h*
  482   2  1173  1172 # o*-h*
  483   2  1176  1174 # o*-h*
  484   2  1176  1175 # o*-h*
  485   2  1179  1177 # o*-h*
  486   2  1179  1178 # o*-h*
  487   2  1182  1180 # o*-h*
  488   2  1182  1181 # o*-h*
  489   2  1185  1183 # o*-h*
  490   2  1185  1184 # o*-h*
  491   2  1188  1186 # o*-h*
  492   2  1188  1187 # o*-h*
  493   2  1191  1189 # o*-h*
  494   2  1191  1190 # o*-h*
  495   2  1194  1192 # o*-h*
  496   2  1194  1193 # o*-h*
  497   2  1197  1195 # o*-h*
  498   2  1197  1196 # o*-h*
  499   2  1200  1198 # o*-h*
  500   2  1200  1199 # o*-h*
  501   2  1203  1201 # o*-h*
  502   2  1203  1202 # o*-h*
  503   2  1206  1204 # o*-h*
  504   2  1206  1205 # o*-h*
  505   2  1209  1207 # o*-h*
  506   2  1209  1208 # o*-h*
  507   2  1212  1210 # o*-h*
  508   2  1212  1211 # o*-h*
  509   2  1215  1213 # o*-h*
  510   2  1215  1214 # o*-h*
  511   2  1218  1216 # o*-h*
  512   2  1218  1217 # o*-h*
  513   2  1221  1219 # o*-h*
  514   2  1221  1220 # o*-h*
  515   2  1224  1222 # o*-h*
  516   2  1224  1223 # o*-h*
  517   2  1227  1225 # o*-h*
  518   2  1227  1226 # o*-h*
  519   2  1230  1228 # o*-h*
  520   2  1230  1229 # o*-h*
  521   2  1233  1231 # o*-h*
  522   2  1233  1232 # o*-h*
  523   2  1236  1234 # o*-h*
  524   2  1236  1235 # o*-h*
  525   2  1239  1237 # o*-h*
  526   2  1239  1238 # o*-h*
  527   2  1242  1240 # o*-h*
  528   2  1242  1241 # o*-h*
  529   2  1245  1243 # o*-h*
  530   2  1245  1244 # o*-h*
  531   2  1248  1246 # o*-h*
  532   2  1248  1247 # o*-h*
  533   2  1251  1249 # o*-h*
  534   2  1251  1250 # o*-h*
  535   2  1254  1252 # o*-h*
  536   2  1254  1253 # o*-h*
  537   2  1257  1255 # o*-h*
  538   2  1257  1256 # o*-h*
  539   2  1260  1258 # o*-h*
  540   2  1260  1259 # o*-h*
  541   2  1263  1261 # o*-h*
  542   2  1263  1262 # o*-h*
  543   2  1266  1264 # o*-h*
  544   2  1266  1265 # o*-h*
  545   2  1269  1267 # o*-h*
  546   2  1269  1268 # o*-h*
  547   2  1272  1270 # o*-h*
  548   2  1272  1271 # o*-h*
  549   2  1275  1273 # o*-h*
  550   2  1275  1274 # o*-h*
  551   2  1278  1276 # o*-h*
  552   2  1278  1277 # o*-h*
  553   2  1281  1279 # o*-h*
  554   2  1281  1280 # o*-h*
  555   2  1284  1282 # o*-h*
  556   2  1284  1283 # o*-h*
  557   2  1287  1285 # o*-h*
  558   2  1287  1286 # o*-h*
  559   2  1290  1288 # o*-h*
  560   2  1290  1289 # o*-h*
  561   2  1293  1291 # o*-h*
  562   2  1293  1292 # o*-h*
  563   2  1296  1294 # o*-h*
  564   2  1296  1295 # o*-h*
  565   2  1299  1297 # o*-h*
  566   2  1299  1298 # o*-h*
  567   2  1302  1300 # o*-h*
  568   2  1302  1301 # o*-h*
  569   2  1305  1303 # o*-h*
  570   2  1305  1304 # o*-h*
  571   2  1308  1306 # o*-h*
  572   2  1308  1307 # o*-h*
  573   2  1311  1309 # o*-h*
  574   2  1311  1310 # o*-h*
  575   2  1314  1312 # o*-h*
  576   2  1314  1313 # o*-h*
  577   2  1317  1315 # o*-h*
  578   2  1317  1316 # o*-h*
  579   2  1320  1318 # o*-h*
  580   2  1320  1319 # o*-h*
  581   2  1323  1321 # o*-h*
  582   2  1323  1322 # o*-h*
  583   2  1326  1324 # o*-h*
  584   2  1326  1325 # o*-h*
  585   2  1329  1327 # o*-h*
  586   2  1329  1328 # o*-h*
  587   2  1332  1330 # o*-h*
  588   2  1332  1331 # o*-h*
  589   2  1335  1333 # o*-h*
  590   2  1335  1334 # o*-h*
  591   2  1338  1336 # o*-h*
  592   2  1338  1337 # o*-h*
  593   2  1341  1339 # o*-h*
  594   2  1341  1340 # o*-h*
  595   2  1344  1342 # o*-h*
  596   2  1344  1343 # o*-h*
  597   2  1347  1345 # o*-h*
  598   2  1347  1346 # o*-h*
  599   2  1350  1348 # o*-h*
  600   2  1350  1349 # o*-h*
  601   2  1353  1351 # o*-h*
  602   2  1353  1352 # o*-h*
  603   2  1356  1354 # o*-h*
  604   2  1356  1355 # o*-h*
  605   2  1359  1357 # o*-h*
  606   2  1359  1358 # o*-h*
  607   2  1362  1360 # o*-h*
  608   2  1362  1361 # o*-h*
  609   2  1365  1363 # o*-h*
  610   2  1365  1364 # o*-h*
  611   2  1368  1366 # o*-h*
  612   2  1368  1367 # o*-h*
  613   2  1371  1369 # o*-h*
  614   2  1371  1370 # o*-h*
  615   2  1374  1372 # o*-h*
  616   2  1374  1373 # o*-h*
  617   2  1377  1375 # o*-h*
  618   2  1377  1376 # o*-h*
  619   2  1380  1378 # o*-h*
  620   2  1380  1379 # o*-h*
  621   2  1383  1381 # o*-h*
  622   2  1383  1382 # o*-h*
  623   2  1386  1384 # o*-h*
  624   2  1386  1385 # o*-h*
  625   2  1389  1387 # o*-h*
  626   2  1389  1388 # o*-h*
  627   2  1392  1390 # o*-h*
  628   2  1392  1391 # o*-h*
  629   2  1395  1393 # o*-h*
  630   2  1395  1394 # o*-h*
  631   2  1398  1396 # o*-h*
  632   2  1398  1397 # o*-h*
  633   2  1401  1399 # o*-h*
  634   2  1401  1400 # o*-h*
  635   2  1404  1402 # o*-h*
  636   2  1404  1403 # o*-h*
  637   2  1407  1405 # o*-h*
  638   2  1407  1406 # o*-h*
  639   2  1410  1408 # o*-h*
  640   2  1410  1409 # o*-h*
  641   2  1413  1411 # o*-h*
  642   2  1413  1412 # o*-h*
  643   2  1416  1414 # o*-h*
  644   2  1416  1415 # o*-h*
  645   2  1419  1417 # o*-h*
  646   2  1419  1418 # o*-h*
  647   2  1422  1420 # o*-h*
  648   2  1422  1421 # o*-h*
  649   2  1425  1423 # o*-h*
  650   2  1425  1424 # o*-h*
  651   2  1428  1426 # o*-h*
  652   2  1428  1427 # o*-h*
  653   2  1431  1429 # o*-h*
  654   2  1431  1430 # o*-h*
  655   2  1434  1432 # o*-h*
  656   2  1434  1433 # o*-h*
  657   2  1437  1435 # o*-h*
  658   2  1437  1436 # o*-h*
  659   2  1440  1438 # o*-h*
  660   2  1440  1439 # o*-h*
  661   2  1443  1441 # o*-h*
  662   2  1443  1442 # o*-h*
  663   2  1446  1444 # o*-h*
  664   2  1446  1445 # o*-h*
  665   2  1449  1447 # o*-h*
  666   2  1449  1448 # o*-h*
  667   2  1452  1450 # o*-h*
  668   2  1452  1451 # o*-h*
  669   2  1455  1453 # o*-h*
  670   2  1455  1454 # o*-h*
  671   2  1458  1456 # o*-h*
  672   2  1458  1457 # o*-h*
  673   2  1461  1459 # o*-h*
  674   2  1461  1460 # o*-h*
  675   2  1464  1462 # o*-h*
  676   2  1464  1463 # o*-h*
  677   2  1467  1465 # o*-h*
  678   2  1467  1466 # o*-h*
  679   2  1470  1468 # o*-h*
  680   2  1470  1469 # o*-h*
  681   2  1473  1471 # o*-h*
  682   2  1473  1472 # o*-h*
  683   2  1476  1474 # o*-h*
  684   2  1476  1475 # o*-h*
  685   2  1479  1477 # o*-h*
  686   2  1479  1478 # o*-h*
  687   2  1482  1480 # o*-h*
  688   2  1482  1481 # o*-h*
  689   2  1485  1483 # o*-h*
  690   2  1485  1484 # o*-h*
  691   2  1488  1486 # o*-h*
  692   2  1488  1487 # o*-h*
  693   2  1491  1489 # o*-h*
  694   2  1491  1490 # o*-h*
  695   2  1494  1492 # o*-h*
  696   2  1494  1493 # o*-h*
  697   2  1497  1495 # o*-h*
  698   2  1497  1496 # o*-h*
  699   2  1500  1498 # o*-h*
  700   2  1500  1499 # o*-h*
  701   2  1503  1501 # o*-h*
  702   2  1503  1502 # o*-h*
  703   2  1506  1504 # o*-h*
  704   2  1506  1505 # o*-h*
  705   2  1509  1507 # o*-h*
  706   2  1509  1508 # o*-h*
  707   2  1512  1510 # o*-h*
  708   2  1512  1511 # o*-h*
  709   2  1515  1513 # o*-h*
  710   2  1515  1514 # o*-h*
  711   2  1518  1516 # o*-h*
  712   2  1518  1517 # o*-h*
  713   2  1521  1519 # o*-h*
  714   2  1521  1520 # o*-h*
  715   2  1524  1522 # o*-h*
  716   2  1524  1523 # o*-h*
  717   2  1527  1525 # o*-h*
  718   2  1527  1526 # o*-h*
  719   2  1530  1528 # o*-h*
  720   2  1530  1529 # o*-h*
  721   2  1533  1531 # o*-h*
  722   2  1533  1532 # o*-h*
  723   2  1536  1534 # o*-h*
  724   2  1536  1535 # o*-h*
  725   2  1539  1537 # o*-h*
  726   2  1539  1538 # o*-h*
  727   2  1542  1540 # o*-h*
  728   2  1542  1541 # o*-h*
  729   2  1545  1543 # o*-h*
  730   2  1545  1544 # o*-h*
  731   2  1548  1546 # o*-h*
  732   2  1548  1547 # o*-h*
  733   2  1551  1549 # o*-h*
  734   2  1551  1550 # o*-h*
  735   2  1554  1552 # o*-h*
  736   2  1554  1553 # o*-h*
  737   2  1557  1555 # o*-h*
  738   2  1557  1556 # o*-h*
  739   2  1560  1558 # o*-h*
  740   2  1560  1559 # o*-h*
  741   2  1563  1561 # o*-h*
  742   2  1563  1562 # o*-h*
  743   2  1566  1564 # o*-h*
  744   2  1566  1565 # o*-h*
  745   2  1569  1567 # o*-h*
  746   2  1569  1568 # o*-h*
  747   2  1572  1570 # o*-h*
  748   2  1572  1571 # o*-h*
  749   2  1575  1573 # o*-h*
  750   2  1575  1574 # o*-h*
  751   2  1578  1576 # o*-h*
  752   2  1578  1577 # o*-h*
  753   2  1581  1579 # o*-h*
  754   2  1581  1580 # o*-h*
  755   2  1584  1582 # o*-h*
  756   2  1584  1583 # o*-h*
  757   2  1587  1585 # o*-h*
  758   2  1587  1586 # o*-h*
  759   2  1590  1588 # o*-h*
  760   2  1590  1589 # o*-h*
  761   2  1593  1591 # o*-h*
  762   2  1593  1592 # o*-h*
  763   2  1596  1594 # o*-h*
  764   2  1596  1595 # o*-h*
  765   2  1599  1597 # o*-h*
  766   2  1599  1598 # o*-h*
  767   2  1602  1600 # o*-h*
  768   2  1602  1601 # o*-h*
  769   2  1605  1603 # o*-h*
  770   2  1605  1604 # o*-h*
  771   2  1608  1606 # o*-h*
  772   2  1608  1607 # o*-h*
  773   2  1611  1609 # o*-h*
  774   2  1611  1610 # o*-h*
  775   2  1614  1612 # o*-h*
  776   2  1614  1613 # o*-h*
  777   2  1617  1615 # o*-h*
  778   2  1617  1616 # o*-h*
  779   2  1620  1618 # o*-h*
  780   2  1620  1619 # o*-h*
  781   2  1623  1621 # o*-h*
  782   2  1623  1622 # o*-h*
  783   2  1626  1624 # o*-h*
  784   2  1626  1625 # o*-h*
  785   2  1629  1627 # o*-h*
  786   2  1629  1628 # o*-h*
  787   2  1632  1630 # o*-h*
  788   2  1632  1631 # o*-h*
  789   2  1635  1633 # o*-h*
  790   2  1635  1634 # o*-h*
  791   2  1638  1636 # o*-h*
  792   2  1638  1637 # o*-h*
  793   2  1641  1639 # o*-h*
  794   2  1641  1640 # o*-h*
  795   2  1644  1642 # o*-h*
  796   2  1644  1643 # o*-h*
  797   2  1647  1645 # o*-h*
  798   2  1647  1646 # o*-h*
  799   2  1650  1648 # o*-h*
  800   2  1650  1649 # o*-h*
  801   2  1653  1651 # o*-h*
  802   2  1653  1652 # o*-h*
  803   2  1656  1654 # o*-h*
  804   2  1656  1655 # o*-h*
  805   2  1659  1657 # o*-h*
  806   2  1659  1658 # o*-h*
  807   2  1662  1660 # o*-h*
  808   2  1662  1661 # o*-h*
  809   2  1665  1663 # o*-h*
  810   2  1665  1664 # o*-h*
  811   2  1668  1666 # o*-h*
  812   2  1668  1667 # o*-h*
  813   2  1671  1669 # o*-h*
  814   2  1671  1670 # o*-h*
  815   2  1674  1672 # o*-h*
  816   2  1674  1673 # o*-h*
  817   2  1677  1675 # o*-h*
  818   2  1677  1676 # o*-h*
  819   2  1680  1678 # o*-h*
  820   2  1680  1679 # o*-h*
  821   2  1683  1681 # o*-h*
  822   2  1683  1682 # o*-h*
  823   2  1686  1684 # o*-h*
  824   2  1686  1685 # o*-h*
  825   2  1689  1687 # o*-h*
  826   2  1689  1688 # o*-h*
  827   2  1692  1690 # o*-h*
  828   2  1692  1691 # o*-h*
  829   2  1695  1693 # o*-h*
  830   2  1695  1694 # o*-h*
  831   2  1698  1696 # o*-h*
  832   2  1698  1697 # o*-h*
  833   2  1701  1699 # o*-h*
  834   2  1701  1700 # o*-h*
  835   2  1704  1702 # o*-h*
  836   2  1704  1703 # o*-h*
  837   2  1707  1705 # o*-h*
  838   2  1707  1706 # o*-h*
  839   2  1710  1708 # o*-h*
  840   2  1710  1709 # o*-h*
  841   2  1713  1711 # o*-h*
  842   2  1713  1712 # o*-h*
  843   2  1716  1714 # o*-h*
  844   2  1716  1715 # o*-h*
  845   2  1719  1717 # o*-h*
  846   2  1719  1718 # o*-h*
  847   2  1722  1720 # o*-h*
  848   2  1722  1721 # o*-h*
  849   2  1725  1723 # o*-h*
  850   2  1725  1724 # o*-h*
  851   2  1728  1726 # o*-h*
  852   2  1728  1727 # o*-h*
  853   2  1731  1729 # o*-h*
  854   2  1731  1730 # o*-h*
  855   2  1734  1732 # o*-h*
  856   2  1734  1733 # o*-h*
  857   2  1737  1735 # o*-h*
  858   2  1737  1736 # o*-h*
  859   2  1740  1738 # o*-h*
  860   2  1740  1739 # o*-h*
  861   2  1743  1741 # o*-h*
  862   2  1743  1742 # o*-h*
  863   2  1746  1744 # o*-h*
  864   2  1746  1745 # o*-h*
  865   2  1749  1747 # o*-h*
  866   2  1749  1748 # o*-h*
  867   2  1752  1750 # o*-h*
  868   2  1752  1751 # o*-h*
  869   2  1755  1753 # o*-h*
  870   2  1755  1754 # o*-h*
  871   2  1758  1756 # o*-h*
  872   2  1758  1757 # o*-h*
  873   2  1761  1759 # o*-h*
  874   2  1761  1760 # o*-h*
  875   2  1764  1762 # o*-h*
  876   2  1764  1763 # o*-h*
  877   2  1767  1765 # o*-h*
  878   2  1767  1766 # o*-h*
  879   2  1770  1768 # o*-h*
  880   2  1770  1769 # o*-h*
  881   2  1773  1771 # o*-h*
  882   2  1773  1772 # o*-h*
  883   2  1776  1774 # o*-h*
  884   2  1776  1775 # o*-h*
  885   2  1779  1777 # o*-h*
  886   2  1779  1778 # o*-h*
  887   2  1782  1780 # o*-h*
  888   2  1782  1781 # o*-h*
  889   2  1785  1783 # o*-h*
  890   2  1785  1784 # o*-h*
  891   2  1788  1786 # o*-h*
  892   2  1788  1787 # o*-h*
  893   2  1791  1789 # o*-h*
  894   2  1791  1790 # o*-h*
  895   2  1794  1792 # o*-h*
  896   2  1794  1793 # o*-h*
  897   2  1797  1795 # o*-h*
  898   2  1797  1796 # o*-h*
  899   2  1800  1798 # o*-h*
  900   2  1800  1799 # o*-h*
  901   2  1803  1801 # o*-h*
  902   2  1803  1802 # o*-h*
  903   2  1806  1804 # o*-h*
  904   2  1806  1805 # o*-h*
  905   2  1809  1807 # o*-h*
  906   2  1809  1808 # o*-h*
  907   2  1812  1810 # o*-h*
  908   2  1812  1811 # o*-h*
  909   2  1815  1813 # o*-h*
  910   2  1815  1814 # o*-h*
  911   2  1818  1816 # o*-h*
  912   2  1818  1817 # o*-h*
  913   2  1821  1819 # o*-h*
  914   2  1821  1820 # o*-h*
  915   2  1824  1822 # o*-h*
  916   2  1824  1823 # o*-h*
  917   2  1827  1825 # o*-h*
  918   2  1827  1826 # o*-h*
  919   2  1830  1828 # o*-h*
  920   2  1830  1829 # o*-h*
  921   2  1833  1831 # o*-h*
  922   2  1833  1832 # o*-h*
  923   2  1836  1834 # o*-h*
  924   2  1836  1835 # o*-h*
  925   2  1839  1837 # o*-h*
  926   2  1839  1838 # o*-h*
  927   2  1842  1840 # o*-h*
  928   2  1842  1841 # o*-h*
  929   2  1845  1843 # o*-h*
  930   2  1845  1844 # o*-h*
  931   2  1848  1846 # o*-h*
  932   2  1848  1847 # o*-h*
  933   2  1851  1849 # o*-h*
  934   2  1851  1850 # o*-h*
  935   2  1854  1852 # o*-h*
  936   2  1854  1853 # o*-h*
  937   2  1857  1855 # o*-h*
  938   2  1857  1856 # o*-h*
  939   2  1860  1858 # o*-h*
  940   2  1860  1859 # o*-h*
  941   2  1863  1861 # o*-h*
  942   2  1863  1862 # o*-h*
  943   2  1866  1864 # o*-h*
  944   2  1866  1865 # o*-h*
  945   2  1869  1867 # o*-h*
  946   2  1869  1868 # o*-h*
  947   2  1872  1870 # o*-h*
  948   2  1872  1871 # o*-h*
  949   2  1875  1873 # o*-h*
  950   2  1875  1874 # o*-h*
  951   2  1878  1876 # o*-h*
  952   2  1878  1877 # o*-h*
  953   2  1881  1879 # o*-h*
  954   2  1881  1880 # o*-h*
  955   2  1884  1882 # o*-h*
  956   2  1884  1883 # o*-h*
  957   2  1887  1885 # o*-h*
  958   2  1887  1886 # o*-h*
  959   2  1890  1888 # o*-h*
  960   2  1890  1889 # o*-h*
  961   2  1893  1891 # o*-h*
  962   2  1893  1892 # o*-h*
  963   2  1896  1894 # o*-h*
  964   2  1896  1895 # o*-h*
  965   2  1899  1897 # o*-h*
  966   2  1899  1898 # o*-h*
  967   2  1902  1900 # o*-h*
  968   2  1902  1901 # o*-h*
  969   2  1905  1903 # o*-h*
  970   2  1905  1904 # o*-h*
  971   2  1908  1906 # o*-h*
  972   2  1908  1907 # o*-h*
  973   2  1911  1909 # o*-h*
  974   2  1911  1910 # o*-h*
  975   2  1914  1912 # o*-h*
  976   2  1914  1913 # o*-h*
  977   2  1917  1915 # o*-h*
  978   2  1917  1916 # o*-h*
  979   2  1920  1918 # o*-h*
  980   2  1920  1919 # o*-h*
  981   2  1923  1921 # o*-h*
  982   2  1923  1922 # o*-h*
  983   2  1926  1924 # o*-h*
  984   2  1926  1925 # o*-h*
  985   2  1929  1927 # o*-h*
  986   2  1929  1928 # o*-h*
  987   2  1932  1930 # o*-h*
  988   2  1932  1931 # o*-h*
  989   2  1935  1933 # o*-h*
  990   2  1935  1934 # o*-h*
  991   2  1938  1936 # o*-h*
  992   2  1938  1937 # o*-h*
  993   2  1941  1939 # o*-h*
  994   2  1941  1940 # o*-h*
  995   2  1944  1942 # o*-h*
  996   2  1944  1943 # o*-h*
  997   2  1947  1945 # o*-h*
  998   2  1947  1946 # o*-h*
  999   2  1950  1948 # o*-h*
 1000   2  1950  1949 # o*-h*
 1001   2  1953  1951 # o*-h*
 1002   2  1953  1952 # o*-h*
 1003   2  1956  1954 # o*-h*
 1004   2  1956  1955 # o*-h*
 1005   2  1959  1957 # o*-h*
 1006   2  1959  1958 # o*-h*
 1007   2  1962  1960 # o*-h*
 1008   2  1962  1961 # o*-h*
 1009   2  1965  1963 # o*-h*
 1010   2  1965  1964 # o*-h*
 1011   2  1968  1966 # o*-h*
 1012   2  1968  1967 # o*-h*
 1013   2  1971  1969 # o*-h*
 1014   2  1971  1970 # o*-h*
 1015   2  1974  1972 # o*-h*
 1016   2  1974  1973 # o*-h*

Angles

    1   1     6    38    85 # st-oh-ho
    2   1     5    39    86 # st-oh-ho
    3   1     7    54    55 # st-oh-ho
    4   1     8    56    57 # st-oh-ho
    5   1    87   106   763 # st-oh-ho
    6   1     2   107   751 # st-oh-ho
    7   1    93   124   764 # st-oh-ho
    8   1    94   125   752 # st-oh-ho
    9   1    91   136   137 # st-oh-ho
   10   1    92   138   139 # st-oh-ho
   11   1   172   204   251 # st-oh-ho
   12   1   171   205   252 # st-oh-ho
   13   1   173   220   221 # st-oh-ho
   14   1   174   222   223 # st-oh-ho
   15   1   258   290   341 # st-oh-ho
   16   1   257   291   342 # st-oh-ho
   17   1     5   306   307 # st-oh-ho
   18   1     6   308   309 # st-oh-ho
   19   1   259   310   311 # st-oh-ho
   20   1   260   312   313 # st-oh-ho
   21   1   343   362   765 # st-oh-ho
   22   1   254   363   753 # st-oh-ho
   23   1   349   380   766 # st-oh-ho
   24   1   350   381   754 # st-oh-ho
   25   1   347   392   393 # st-oh-ho
   26   1   348   394   395 # st-oh-ho
   27   1   423   442   767 # st-oh-ho
   28   1   344   443   755 # st-oh-ho
   29   1   429   460   768 # st-oh-ho
   30   1   430   461   756 # st-oh-ho
   31   1   171   472   473 # st-oh-ho
   32   1   172   474   475 # st-oh-ho
   33   1   427   476   477 # st-oh-ho
   34   1   428   478   479 # st-oh-ho
   35   1   507   526   769 # st-oh-ho
   36   1   672   527   757 # st-oh-ho
   37   1   513   544   770 # st-oh-ho
   38   1   514   545   758 # st-oh-ho
   39   1   257   556   557 # st-oh-ho
   40   1   258   558   559 # st-oh-ho
   41   1   511   560   561 # st-oh-ho
   42   1   512   562   563 # st-oh-ho
   43   1   591   610   771 # st-oh-ho
   44   1   508   611   759 # st-oh-ho
   45   1   597   628   772 # st-oh-ho
   46   1   598   629   760 # st-oh-ho
   47   1   595   640   641 # st-oh-ho
   48   1   596   642   643 # st-oh-ho
   49   1   671   690   773 # st-oh-ho
   50   1   592   691   761 # st-oh-ho
   51   1   677   708   774 # st-oh-ho
   52   1   678   709   762 # st-oh-ho
   53   1   675   720   721 # st-oh-ho
   54   1   676   722   723 # st-oh-ho
   55   2    59    58    60 # h*-o*-h*
   56   2    63    61    62 # h*-o*-h*
   57   2    66    64    65 # h*-o*-h*
   58   2    68    67    69 # h*-o*-h*
   59   2    71    70    72 # h*-o*-h*
   60   2    75    73    74 # h*-o*-h*
   61   2   334    76   333 # h*-o*-h*
   62   2    81    79    80 # h*-o*-h*
   63   2    84    82    83 # h*-o*-h*
   64   2   141   140   142 # h*-o*-h*
   65   2   145   143   144 # h*-o*-h*
   66   2   148   146   147 # h*-o*-h*
   67   2   151   149   150 # h*-o*-h*
   68   2   153   152   154 # h*-o*-h*
   69   2   157   155   156 # h*-o*-h*
   70   2   416   158   415 # h*-o*-h*
   71   2   163   161   162 # h*-o*-h*
   72   2   166   164   165 # h*-o*-h*
   73   2   225   224   226 # h*-o*-h*
   74   2   229   227   228 # h*-o*-h*
   75   2   232   230   231 # h*-o*-h*
   76   2   235   233   234 # h*-o*-h*
   77   2   237   236   238 # h*-o*-h*
   78   2   241   239   240 # h*-o*-h*
   79   2   500   242   499 # h*-o*-h*
   80   2   247   245   246 # h*-o*-h*
   81   2   250   248   249 # h*-o*-h*
   82   2   315   314   316 # h*-o*-h*
   83   2   319   317   318 # h*-o*-h*
   84   2   321   320   322 # h*-o*-h*
   85   2   325   323   324 # h*-o*-h*
   86   2   327   326   328 # h*-o*-h*
   87   2   331   329   330 # h*-o*-h*
   88   2   584   332   583 # h*-o*-h*
   89   2   337   335   336 # h*-o*-h*
   90   2   340   338   339 # h*-o*-h*
   91   2   397   396   398 # h*-o*-h*
   92   2   401   399   400 # h*-o*-h*
   93   2   404   402   403 # h*-o*-h*
   94   2   407   405   406 # h*-o*-h*
   95   2   409   408   410 # h*-o*-h*
   96   2   413   411   412 # h*-o*-h*
   97   2   664   414   663 # h*-o*-h*
   98   2   419   417   418 # h*-o*-h*
   99   2   422   420   421 # h*-o*-h*
  100   2   481   480   482 # h*-o*-h*
  101   2   485   483   484 # h*-o*-h*
  102   2   488   486   487 # h*-o*-h*
  103   2   491   489   490 # h*-o*-h*
  104   2   493   492   494 # h*-o*-h*
  105   2   497   495   496 # h*-o*-h*
  106   2   744   498   743 # h*-o*-h*
  107   2   503   501   502 # h*-o*-h*
  108   2   505   504   506 # h*-o*-h*
  109   2   565   564   566 # h*-o*-h*
  110   2   569   567   568 # h*-o*-h*
  111   2   571   570   572 # h*-o*-h*
  112   2   574   573   575 # h*-o*-h*
  113   2   577   576   578 # h*-o*-h*
  114   2   581   579   580 # h*-o*-h*
  115   2    78   582    77 # h*-o*-h*
  116   2   587   585   586 # h*-o*-h*
  117   2   590   588   589 # h*-o*-h*
  118   2   645   644   646 # h*-o*-h*
  119   2   649   647   648 # h*-o*-h*
  120   2   652   650   651 # h*-o*-h*
  121   2   655   653   654 # h*-o*-h*
  122   2   657   656   658 # h*-o*-h*
  123   2   661   659   660 # h*-o*-h*
  124   2   160   662   159 # h*-o*-h*
  125   2   667   665   666 # h*-o*-h*
  126   2   669   668   670 # h*-o*-h*
  127   2   725   724   726 # h*-o*-h*
  128   2   729   727   728 # h*-o*-h*
  129   2   732   730   731 # h*-o*-h*
  130   2   735   733   734 # h*-o*-h*
  131   2   737   736   738 # h*-o*-h*
  132   2   741   739   740 # h*-o*-h*
  133   2   244   742   243 # h*-o*-h*
  134   2   747   745   746 # h*-o*-h*
  135   2   750   748   749 # h*-o*-h*
  136   2   775   777   776 # h*-o*-h*
  137   2   779   780   778 # h*-o*-h*
  138   2   781   783   782 # h*-o*-h*
  139   2   785   786   784 # h*-o*-h*
  140   2   788   789   787 # h*-o*-h*
  141   2   791   792   790 # h*-o*-h*
  142   2   794   795   793 # h*-o*-h*
  143   2   796   798   797 # h*-o*-h*
  144   2   799   801   800 # h*-o*-h*
  145   2   802   804   803 # h*-o*-h*
  146   2   805   807   806 # h*-o*-h*
  147   2   809   810   808 # h*-o*-h*
  148   2   811   813   812 # h*-o*-h*
  149   2   815   816   814 # h*-o*-h*
  150   2   817   819   818 # h*-o*-h*
  151   2   820   822   821 # h*-o*-h*
  152   2   824   825   823 # h*-o*-h*
  153   2   827   828   826 # h*-o*-h*
  154   2   830   831   829 # h*-o*-h*
  155   2   832   834   833 # h*-o*-h*
  156   2   836   837   835 # h*-o*-h*
  157   2   838   840   839 # h*-o*-h*
  158   2   841   843   842 # h*-o*-h*
  159   2   844   846   845 # h*-o*-h*
  160   2   847   849   848 # h*-o*-h*
  161   2   850   852   851 # h*-o*-h*
  162   2   854   855   853 # h*-o*-h*
  163   2   856   858   857 # h*-o*-h*
  164   2   860   861   859 # h*-o*-h*
  165   2   862   864   863 # h*-o*-h*
  166   2   865   867   866 # h*-o*-h*
  167   2   869   870   868 # h*-o*-h*
  168   2   871   873   872 # h*-o*-h*
  169   2   874   876   875 # h*-o*-h*
  170   2   878   879   877 # h*-o*-h*
  171   2   881   882   880 # h*-o*-h*
  172   2   884   885   883 # h*-o*-h*
  173   2   886   888   887 # h*-o*-h*
  174   2   890   891   889 # h*-o*-h*
  175   2   893   894   892 # h*-o*-h*
  176   2   895   897   896 # h*-o*-h*
  177   2   898   900   899 # h*-o*-h*
  178   2   902   903   901 # h*-o*-h*
  179   2   904   906   905 # h*-o*-h*
  180   2   907   909   908 # h*-o*-h*
  181   2   911   912   910 # h*-o*-h*
  182   2   914   915   913 # h*-o*-h*
  183   2   916   918   917 # h*-o*-h*
  184   2   919   921   920 # h*-o*-h*
  185   2   922   924   923 # h*-o*-h*
  186   2   926   927   925 # h*-o*-h*
  187   2   929   930   928 # h*-o*-h*
  188   2   931   933   932 # h*-o*-h*
  189   2   935   936   934 # h*-o*-h*
  190   2   938   939   937 # h*-o*-h*
  191   2   940   942   941 # h*-o*-h*
  192   2   943   945   944 # h*-o*-h*
  193   2   947   948   946 # h*-o*-h*
  194   2   950   951   949 # h*-o*-h*
  195   2   953   954   952 # h*-o*-h*
  196   2   955   957   956 # h*-o*-h*
  197   2   958   960   959 # h*-o*-h*
  198   2   961   963   962 # h*-o*-h*
  199   2   964   966   965 # h*-o*-h*
  200   2   968   969   967 # h*-o*-h*
  201   2   970   972   971 # h*-o*-h*
  202   2   973   975   974 # h*-o*-h*
  203   2   976   978   977 # h*-o*-h*
  204   2   980   981   979 # h*-o*-h*
  205   2   983   984   982 # h*-o*-h*
  206   2   986   987   985 # h*-o*-h*
  207   2   989   990   988 # h*-o*-h*
  208   2   992   993   991 # h*-o*-h*
  209   2   994   996   995 # h*-o*-h*
  210   2   998   999   997 # h*-o*-h*
  211   2  1001  1002  1000 # h*-o*-h*
  212   2  1004  1005  1003 # h*-o*-h*
  213   2  1007  1008  1006 # h*-o*-h*
  214   2  1010  1011  1009 # h*-o*-h*
  215   2  1012  1014  1013 # h*-o*-h*
  216   2  1015  1017  1016 # h*-o*-h*
  217   2  1019  1020  1018 # h*-o*-h*
  218   2  1021  1023  1022 # h*-o*-h*
  219   2  1025  1026  1024 # h*-o*-h*
  220   2  1028  1029  1027 # h*-o*-h*
  221   2  1030  1032  1031 # h*-o*-h*
  222   2  1034  1035  1033 # h*-o*-h*
  223   2  1036  1038  1037 # h*-o*-h*
  224   2  1040  1041  1039 # h*-o*-h*
  225   2  1042  1044  1043 # h*-o*-h*
  226   2  1045  1047  1046 # h*-o*-h*
  227   2  1049  1050  1048 # h*-o*-h*
  228   2  1052  1053  1051 # h*-o*-h*
  229   2  1054  1056  1055 # h*-o*-h*
  230   2  1058  1059  1057 # h*-o*-h*
  231   2  1060  1062  1061 # h*-o*-h*
  232   2  1063  1065  1064 # h*-o*-h*
  233   2  1066  1068  1067 # h*-o*-h*
  234   2  1069  1071  1070 # h*-o*-h*
  235   2  1072  1074  1073 # h*-o*-h*
  236   2  1075  1077  1076 # h*-o*-h*
  237   2  1078  1080  1079 # h*-o*-h*
  238   2  1081  1083  1082 # h*-o*-h*
  239   2  1085  1086  1084 # h*-o*-h*
  240   2  1088  1089  1087 # h*-o*-h*
  241   2  1091  1092  1090 # h*-o*-h*
  242   2  1094  1095  1093 # h*-o*-h*
  243   2  1096  1098  1097 # h*-o*-h*
  244   2  1099  1101  1100 # h*-o*-h*
  245   2  1103  1104  1102 # h*-o*-h*
  246   2  1106  1107  1105 # h*-o*-h*
  247   2  1108  1110  1109 # h*-o*-h*
  248   2  1111  1113  1112 # h*-o*-h*
  249   2  1115  1116  1114 # h*-o*-h*
  250   2  1118  1119  1117 # h*-o*-h*
  251   2  1121  1122  1120 # h*-o*-h*
  252   2  1124  1125  1123 # h*-o*-h*
  253   2  1127  1128  1126 # h*-o*-h*
  254   2  1130  1131  1129 # h*-o*-h*
  255   2  1132  1134  1133 # h*-o*-h*
  256   2  1136  1137  1135 # h*-o*-h*
  257   2  1138  1140  1139 # h*-o*-h*
  258   2  1141  1143  1142 # h*-o*-h*
  259   2  1145  1146  1144 # h*-o*-h*
  260   2  1148  1149  1147 # h*-o*-h*
  261   2  1150  1152  1151 # h*-o*-h*
  262   2  1154  1155  1153 # h*-o*-h*
  263   2  1156  1158  1157 # h*-o*-h*
  264   2  1159  1161  1160 # h*-o*-h*
  265   2  1163  1164  1162 # h*-o*-h*
  266   2  1165  1167  1166 # h*-o*-h*
  267   2  1168  1170  1169 # h*-o*-h*
  268   2  1171  1173  1172 # h*-o*-h*
  269   2  1175  1176  1174 # h*-o*-h*
  270   2  1178  1179  1177 # h*-o*-h*
  271   2  1180  1182  1181 # h*-o*-h*
  272   2  1184  1185  1183 # h*-o*-h*
  273   2  1187  1188  1186 # h*-o*-h*
  274   2  1190  1191  1189 # h*-o*-h*
  275   2  1192  1194  1193 # h*-o*-h*
  276   2  1196  1197  1195 # h*-o*-h*
  277   2  1199  1200  1198 # h*-o*-h*
  278   2  1202  1203  1201 # h*-o*-h*
  279   2  1205  1206  1204 # h*-o*-h*
  280   2  1207  1209  1208 # h*-o*-h*
  281   2  1210  1212  1211 # h*-o*-h*
  282   2  1213  1215  1214 # h*-o*-h*
  283   2  1217  1218  1216 # h*-o*-h*
  284   2  1220  1221  1219 # h*-o*-h*
  285   2  1223  1224  1222 # h*-o*-h*
  286   2  1225  1227  1226 # h*-o*-h*
  287   2  1229  1230  1228 # h*-o*-h*
  288   2  1232  1233  1231 # h*-o*-h*
  289   2  1234  1236  1235 # h*-o*-h*
  290   2  1238  1239  1237 # h*-o*-h*
  291   2  1241  1242  1240 # h*-o*-h*
  292   2  1244  1245  1243 # h*-o*-h*
  293   2  1247  1248  1246 # h*-o*-h*
  294   2  1249  1251  1250 # h*-o*-h*
  295   2  1253  1254  1252 # h*-o*-h*
  296   2  1255  1257  1256 # h*-o*-h*
  297   2  1259  1260  1258 # h*-o*-h*
  298   2  1262  1263  1261 # h*-o*-h*
  299   2  1264  1266  1265 # h*-o*-h*
  300   2  1268  1269  1267 # h*-o*-h*
  301   2  1270  1272  1271 # h*-o*-h*
  302   2  1273  1275  1274 # h*-o*-h*
  303   2  1277  1278  1276 # h*-o*-h*
  304   2  1280  1281  1279 # h*-o*-h*
  305   2  1282  1284  1283 # h*-o*-h*
  306   2  1285  1287  1286 # h*-o*-h*
  307   2  1288  1290  1289 # h*-o*-h*
  308   2  1292  1293  1291 # h*-o*-h*
  309   2  1294  1296  1295 # h*-o*-h*
  310   2  1298  1299  1297 # h*-o*-h*
  311   2  1301  1302  1300 # h*-o*-h*
  312   2  1303  1305  1304 # h*-o*-h*
  313   2  1307  1308  1306 # h*-o*-h*
  314   2  1309  1311  1310 # h*-o*-h*
  315   2  1313  1314  1312 # h*-o*-h*
  316   2  1315  1317  1316 # h*-o*-h*
  317   2  1319  1320  1318 # h*-o*-h*
  318   2  1321  1323  1322 # h*-o*-h*
  319   2  1325  1326  1324 # h*-o*-h*
  320   2  1328  1329  1327 # h*-o*-h*
  321   2  1330  1332  1331 # h*-o*-h*
  322   2  1333  1335  1334 # h*-o*-h*
  323   2  1336  1338  1337 # h*-o*-h*
  324   2  1340  1341  1339 # h*-o*-h*
  325   2  1343  1344  1342 # h*-o*-h*
  326   2  1346  1347  1345 # h*-o*-h*
  327   2  1349  1350  1348 # h*-o*-h*
  328   2  1352  1353  1351 # h*-o*-h*
  329   2  1354  1356  1355 # h*-o*-h*
  330   2  1357  1359  1358 # h*-o*-h*
  331   2  1360  1362  1361 # h*-o*-h*
  332   2  1364  1365  1363 # h*-o*-h*
  333   2  1367  1368  1366 # h*-o*-h*
  334   2  1370  1371  1369 # h*-o*-h*
  335   2  1373  1374  1372 # h*-o*-h*
  336   2  1375  1377  1376 # h*-o*-h*
  337   2  1378  1380  1379 # h*-o*-h*
  338   2  1381  1383  1382 # h*-o*-h*
  339   2  1384  1386  1385 # h*-o*-h*
  340   2  1388  1389  1387 # h*-o*-h*
  341   2  1390  1392  1391 # h*-o*-h*
  342   2  1394  1395  1393 # h*-o*-h*
  343   2  1397  1398  1396 # h*-o*-h*
  344   2  1399  1401  1400 # h*-o*-h*
  345   2  1403  1404  1402 # h*-o*-h*
  346   2  1406  1407  1405 # h*-o*-h*
  347   2  1408  1410  1409 # h*-o*-h*
  348   2  1412  1413  1411 # h*-o*-h*
  349   2  1414  1416  1415 # h*-o*-h*
  350   2  1418  1419  1417 # h*-o*-h*
  351   2  1421  1422  1420 # h*-o*-h*
  352   2  1423  1425  1424 # h*-o*-h*
  353   2  1426  1428  1427 # h*-o*-h*
  354   2  1430  1431  1429 # h*-o*-h*
  355   2  1432  1434  1433 # h*-o*-h*
  356   2  1435  1437  1436 # h*-o*-h*
  357   2  1438  1440  1439 # h*-o*-h*
  358   2  1442  1443  1441 # h*-o*-h*
  359   2  1444  1446  1445 # h*-o*-h*
  360   2  1447  1449  1448 # h*-o*-h*
  361   2  1451  1452  1450 # h*-o*-h*
  362   2  1454  1455  1453 # h*-o*-h*
  363   2  1456  1458  1457 # h*-o*-h*
  364   2  1459  1461  1460 # h*-o*-h*
  365   2  1463  1464  1462 # h*-o*-h*
  366   2  1466  1467  1465 # h*-o*-h*
  367   2  1469  1470  1468 # h*-o*-h*
  368   2  1471  1473  1472 # h*-o*-h*
  369   2  1475  1476  1474 # h*-o*-h*
  370   2  1478  1479  1477 # h*-o*-h*
  371   2  1480  1482  1481 # h*-o*-h*
  372   2  1484  1485  1483 # h*-o*-h*
  373   2  1487  1488  1486 # h*-o*-h*
  374   2  1490  1491  1489 # h*-o*-h*
  375   2  1493  1494  1492 # h*-o*-h*
  376   2  1495  1497  1496 # h*-o*-h*
  377   2  1498  1500  1499 # h*-o*-h*
  378   2  1501  1503  1502 # h*-o*-h*
  379   2  1505  1506  1504 # h*-o*-h*
  380   2  1508  1509  1507 # h*-o*-h*
  381   2  1511  1512  1510 # h*-o*-h*
  382   2  1513  1515  1514 # h*-o*-h*
  383   2  1517  1518  1516 # h*-o*-h*
  384   2  1520  1521  1519 # h*-o*-h*
  385   2  1522  1524  1523 # h*-o*-h*
  386   2  1525  1527  1526 # h*-o*-h*
  387   2  1529  1530  1528 # h*-o*-h*
  388   2  1532  1533  1531 # h*-o*-h*
  389   2  1534  1536  1535 # h*-o*-h*
  390   2  1537  1539  1538 # h*-o*-h*
  391   2  1541  1542  1540 # h*-o*-h*
  392   2  1544  1545  1543 # h*-o*-h*
  393   2  1546  1548  1547 # h*-o*-h*
  394   2  1550  1551  1549 # h*-o*-h*
  395   2  1552  1554  1553 # h*-o*-h*
  396   2  1555  1557  1556 # h*-o*-h*
  397   2  1559  1560  1558 # h*-o*-h*
  398   2  1562  1563  1561 # h*-o*-h*
  399   2  1564  1566  1565 # h*-o*-h*
  400   2  1568  1569  1567 # h*-o*-h*
  401   2  1571  1572  1570 # h*-o*-h*
  402   2  1574  1575  1573 # h*-o*-h*
  403   2  1577  1578  1576 # h*-o*-h*
  404   2  1580  1581  1579 # h*-o*-h*
  405   2  1583  1584  1582 # h*-o*-h*
  406   2  1585  1587  1586 # h*-o*-h*
  407   2  1588  1590  1589 # h*-o*-h*
  408   2  1591  1593  1592 # h*-o*-h*
  409   2  1595  1596  1594 # h*-o*-h*
  410   2  1598  1599  1597 # h*-o*-h*
  411   2  1600  1602  1601 # h*-o*-h*
  412   2  1604  1605  1603 # h*-o*-h*
  413   2  1606  1608  1607 # h*-o*-h*
  414   2  1610  1611  1609 # h*-o*-h*
  415   2  1612  1614  1613 # h*-o*-h*
  416   2  1615  1617  1616 # h*-o*-h*
  417   2  1619  1620  1618 # h*-o*-h*
  418   2  1621  1623  1622 # h*-o*-h*
  419   2  1624  1626  1625 # h*-o*-h*
  420   2  1628  1629  1627 # h*-o*-h*
  421   2  1631  1632  1630 # h*-o*-h*
  422   2  1634  1635  1633 # h*-o*-h*
  423   2  1636  1638  1637 # h*-o*-h*
  424   2  1639  1641  1640 # h*-o*-h*
  425   2  1642  1644  1643 # h*-o*-h*
  426   2  1645  1647  1646 # h*-o*-h*
  427   2  1648  1650  1649 # h*-o*-h*
  428   2  1651  1653  1652 # h*-o*-h*
  429   2  1655  1656  1654 # h*-o*-h*
  430   2  1658  1659  1657 # h*-o*-h*
  431   2  1661  1662  1660 # h*-o*-h*
  432   2  1663  1665  1664 # h*-o*-h*
  433   2  1667  1668  1666 # h*-o*-h*
  434   2  1670  1671  1669 # h*-o*-h*
  435   2  1673  1674  1672 # h*-o*-h*
  436   2  1676  1677  1675 # h*-o*-h*
  437   2  1679  1680  1678 # h*-o*-h*
  438   2  1682  1683  1681 # h*-o*-h*
  439   2  1684  1686  1685 # h*-o*-h*
  440   2  1688  1689  1687 # h*-o*-h*
  441   2  1691  1692  1690 # h*-o*-h*
  442   2  1694  1695  1693 # h*-o*-h*
  443   2  1696  1698  1697 # h*-o*-h*
  444   2  1700  1701  1699 # h*-o*-h*
  445   2  1703  1704  1702 # h*-o*-h*
  446   2  1705  1707  1706 # h*-o*-h*
  447   2  1708  1710  1709 # h*-o*-h*
  448   2  1711  1713  1712 # h*-o*-h*
  449   2  1714  1716  1715 # h*-o*-h*
  450   2  1718  1719  1717 # h*-o*-h*
  451   2  1721  1722  1720 # h*-o*-h*
  452   2  1724  1725  1723 # h*-o*-h*
  453   2  1727  1728  1726 # h*-o*-h*
  454   2  1729  1731  1730 # h*-o*-h*
  455   2  1733  1734  1732 # h*-o*-h*
  456   2  1735  1737  1736 # h*-o*-h*
  457   2  1739  1740  1738 # h*-o*-h*
  458   2  1741  1743  1742 # h*-o*-h*
  459   2  1745  1746  1744 # h*-o*-h*
  460   2  1747  1749  1748 # h*-o*-h*
  461   2  1751  1752  1750 # h*-o*-h*
  462   2  1754  1755  1753 # h*-o*-h*
  463   2  1757  1758  1756 # h*-o*-h*
  464   2  1760  1761  1759 # h*-o*-h*
  465   2  1762  1764  1763 # h*-o*-h*
  466   2  1765  1767  1766 # h*-o*-h*
  467   2  1768  1770  1769 # h*-o*-h*
  468   2  1772  1773  1771 # h*-o*-h*
  469   2  1774  1776  1775 # h*-o*-h*
  470   2  1777  1779  1778 # h*-o*-h*
  471   2  1780  1782  1781 # h*-o*-h*
  472   2  1783  1785  1784 # h*-o*-h*
  473   2  1786  1788  1787 # h*-o*-h*
  474   2  1790  1791  1789 # h*-o*-h*
  475   2  1793  1794  1792 # h*-o*-h*
  476   2  1795  1797  1796 # h*-o*-h*
  477   2  1798  1800  1799 # h*-o*-h*
  478   2  1802  1803  1801 # h*-o*-h*
  479   2  1805  1806  1804 # h*-o*-h*
  480   2  1807  1809  1808 # h*-o*-h*
  481   2  1811  1812  1810 # h*-o*-h*
  482   2  1813  1815  1814 # h*-o*-h*
  483   2  1816  1818  1817 # h*-o*-h*
  484   2  1820  1821  1819 # h*-o*-h*
  485   2  1822  1824  1823 # h*-o*-h*
  486   2  1826  1827  1825 # h*-o*-h*
  487   2  1828  1830  1829 # h*-o*-h*
  488   2  1831  1833  1832 # h*-o*-h*
  489   2  1835  1836  1834 # h*-o*-h*
  490   2  1837  1839  1838 # h*-o*-h*
  491   2  1841  1842  1840 # h*-o*-h*
  492   2  1844  1845  1843 # h*-o*-h*
  493   2  1847  1848  1846 # h*-o*-h*
  494   2  1849  1851  1850 # h*-o*-h*
  495   2  1852  1854  1853 # h*-o*-h*
  496   2  1856  1857  1855 # h*-o*-h*
  497   2  1858  1860  1859 # h*-o*-h*
  498   2  1862  1863  1861 # h*-o*-h*
  499   2  1864  1866  1865 # h*-o*-h*
  500   2  1867  1869  1868 # h*-o*-h*
  501   2  1871  1872  1870 # h*-o*-h*
  502   2  1874  1875  1873 # h*-o*-h*
  503   2  1877  1878  1876 # h*-o*-h*
  504   2  1879  1881  1880 # h*-o*-h*
  505   2  1883  1884  1882 # h*-o*-h*
  506   2  1886  1887  1885 # h*-o*-h*
  507   2  1889  1890  1888 # h*-o*-h*
  508   2  1891  1893  1892 # h*-o*-h*
  509   2  1895  1896  1894 # h*-o*-h*
  510   2  1897  1899  1898 # h*-o*-h*
  511   2  1901  1902  1900 # h*-o*-h*
  512   2  1903  1905  1904 # h*-o*-h*
  513   2  1907  1908  1906 # h*-o*-h*
  514   2  1910  1911  1909 # h*-o*-h*
  515   2  1913  1914  1912 # h*-o*-h*
  516   2  1915  1917  1916 # h*-o*-h*
  517   2  1919  1920  1918 # h*-o*-h*
  518   2  1921  1923  1922 # h*-o*-h*
  519   2  1924  1926  1925 # h*-o*-h*
  520   2  1927  1929  1928 # h*-o*-h*
  521   2  1930  1932  1931 # h*-o*-h*
  522   2  1934  1935  1933 # h*-o*-h*
  523   2  1936  1938  1937 # h*-o*-h*
  524   2  1940  1941  1939 # h*-o*-h*
  525   2  1943  1944  1942 # h*-o*-h*
  526   2  1945  1947  1946 # h*-o*-h*
  527   2  1948  1950  1949 # h*-o*-h*
  528   2  1951  1953  1952 # h*-o*-h*
  529   2  1955  1956  1954 # h*-o*-h*
  530   2  1957  1959  1958 # h*-o*-h*
  531   2  1960  1962  1961 # h*-o*-h*
  532   2  1963  1965  1964 # h*-o*-h*
  533   2  1966  1968  1967 # h*-o*-h*
  534   2  1969  1971  1970 # h*-o*-h*
  535   2  1973  1974  1972 # h*-o*-h*
