LAMMPS data file via write_data, version 2 Aug 2023, timestep = 2000, units = metal

2008 atoms
9 atom types

0.10878133122492528 20.42843266877506 xlo xhi
-0.0007545334291432226 18.583449533429167 ylo yhi
0.07812647183298793 57.845478528166765 zlo zhi
8.109465297795541 -0.9467414997349901 -0.44794020219089464 xy xz yz

Masses

1 40.08
2 12.01
3 1.0078
4 1.0078
5 16
6 16
7 16
8 16
9 28.086

Atoms # atomic

271 9 3.6950309144185813 1.9354143237669863 4.008709824935309 0 0 0
275 9 3.0905676480226263 4.099334821737187 1.9369463520906336 0 0 0
292 6 3.203789256730423 2.666813832631297 2.5784328068693703 0 0 0
296 6 4.276809509175449 0.47259927192742673 3.3353738126598858 0 0 0
304 6 2.4851936317817733 1.5174624188950343 4.968596058759353 0 0 0
309 8 3.102246111843625 3.851784639638049 0.268058351876981 0 0 1
1615 3 2.4848182422235903 1.3724203115719675 0.585582246107843 0 0 1
1616 3 0.8615859148262389 -0.33301580235046946 57.688369186464016 0 0 0
1617 5 1.741075823258668 0.7668947568028437 0.6254822224043622 0 0 1
545 9 8.940526272315914 3.844336650367198 1.750837318264572 0 0 0
574 6 9.287592837238906 1.4940819882917553 5.0935610926270005 0 0 0
579 8 7.54236434943195 3.6078682309949386 0.8891520197261197 0 0 0
602 5 6.061305901174119 1.636347140264961 1.842417503020904 0 0 0
603 3 6.788863796947148 0.9633911484083119 1.8384563699093075 0 0 0
604 3 5.347600431079289 1.052444614760696 2.247977481524894 0 0 0
630 4 6.90353125520478 3.0237113837981795 1.3528214838387747 0 0 0
582 6 8.788008565462743 5.174080490536418 2.6561366003489604 0 0 0
62 5 13.94475555561005 2.388313156393313 2.4206001870945006 0 0 0
63 3 14.081423307092072 3.318795419124192 2.2937057412737505 0 0 0
64 3 13.152325079003612 2.2411558157613456 1.8435972124093378 0 0 0
541 9 10.324830817580233 1.9339271920693277 3.8793577369072008 0 0 0
562 6 9.445283225575567 2.5300376877990027 2.5210039376126963 0 0 0
566 6 11.127981166809263 0.6835214057126142 3.255323615311434 0 0 0
570 6 11.375127653108192 2.9699983425281227 4.545924233118177 0 0 0
1324 3 11.540487184109567 1.3158839390151917 0.5358657256459163 0 0 0
1326 5 12.037698975219655 2.1070376005072906 0.26127855967234676 0 0 0
54 8 10.14833265970168 4.255376275557383 0.6066364110774497 0 0 0
1325 3 11.391143389389725 2.9315911740644145 0.41267346120517195 0 0 1
1 9 17.16763760277641 1.8333413424401872 4.200433180841164 0 0 0
5 9 16.725767376570975 3.9874678545697857 2.1508042587959144 0 0 0
22 6 16.920539246565806 2.507718903262403 2.7256291463934317 0 0 0
26 6 17.789811372037207 0.37935808790042874 3.6912882963527713 0 0 0
967 3 16.6693405991926 1.1962801361581068 1.5546063101560925 0 0 0
39 8 16.523885865689376 3.6512459553134478 0.55480699951784 0 0 1
969 5 16.323943315875194 0.44403175981333676 0.9425694984651457 0 0 1
1484 3 18.866977167714335 0.9364152049278638 1.5202189376273094 0 0 1
333 3 19.830474620567443 3.6000037009265102 1.0061854527724297 0 0 1
1483 3 20.352990399619696 1.14193692964595 0.954091092721157 0 0 1
1485 5 19.4365226825758 1.5032497392912987 0.9865447162158033 0 0 1
332 5 20.045468356227925 4.4521948999439624 0.652573277604055 0 0 1
334 3 20.834194507423128 4.746227790250957 1.222616313527231 0 0 1
594 8 4.31596979250432 5.087260097845684 2.388714067379975 0 0 0
595 4 4.630658438029697 5.799857001615682 1.776292728738147 0 0 0
360 4 1.716049995187404 4.103028707115948 57.47546886649376 0 0 0
152 5 9.529650741993235 8.557361933820413 2.814517064085407 0 0 0
153 3 8.767743146962214 8.283376087660944 2.238099995432209 0 0 0
549 9 8.059321552223746 5.633224151468203 4.109331748219264 0 0 0
631 9 6.372521493604769 8.269879042640113 4.129642626558019 0 0 0
652 6 6.1944089508849975 8.921987419178565 2.53364524363936 0 0 0
656 6 7.094141715846859 6.917056557224654 3.5340001592957195 0 0 0
660 6 7.246450474157302 9.23023688481333 5.146835404849175 0 0 0
664 6 5.012334618455311 7.946291942703644 4.856860364779772 0 0 0
680 6 9.341202586809805 6.074362199139554 5.031000255812744 0 0 0
1321 3 6.464509773639423 6.620767292436763 1.8608763823637244 0 0 0
1322 3 6.616072950441025 5.662272954538821 0.7180722118298781 0 0 0
1286 3 7.530495673150822 7.821642696482366 0.1965329887207734 0 0 1
1323 5 6.100914546548625 6.4336531765421725 0.966779278336828 0 0 1
91 9 13.240001403139482 8.21802053391397 3.9539712785128485 0 0 0
112 6 12.835538268227825 8.78937125903397 2.4171801810499844 0 0 0
116 6 14.165442305011101 6.826441288416184 3.6171282872770503 0 0 0
1981 3 12.272904674330485 5.651809792757289 1.8007272924656605 0 0 0
1982 3 10.796768299087587 5.491150473743023 2.2797825589028524 0 0 0
1983 5 11.729837437990406 5.434032853487515 2.5601609251933994 0 0 0
154 3 10.350495361990136 8.604502941984252 2.267954936958063 0 0 0
9 9 14.9312544267684 5.4900417863776765 4.138077237005371 0 0 0
42 6 15.447149640276477 4.748186644909633 2.7115282232717917 0 0 0
324 8 18.045461044352585 4.95541647285803 2.509527342946226 0 0 0
325 4 18.710473245959374 4.864042258121433 1.743493354128667 0 0 0
394 6 18.759350860867087 7.665084749380339 4.803733550646728 0 0 0
422 5 16.541412582256857 8.014907989126561 2.2098553411805635 0 0 0
423 3 17.394576795332817 7.608606290290307 1.8927884291897594 0 0 0
424 3 15.851959318597645 7.473044408081073 1.7949443347128522 0 0 0
450 4 17.291530957799896 9.640768835329066 0.21025525683949642 0 0 0
1763 3 14.12227747589423 9.33634048172824 56.49932970801722 0 0 0
1764 5 14.32547847994959 9.421231706255 57.42242351523293 0 0 0
694 3 4.120038088619153 8.37643679403947 2.0961733115737804 0 0 0
279 9 21.61980205624683 5.604829840682661 3.9721896428161223 0 0 0
312 6 22.017434551604016 4.703519228415151 2.545623663480857 0 0 0
316 6 20.688718436592154 4.653464781318974 4.914889336935828 0 0 0
361 9 19.88471622582104 8.180628635257213 3.7145932849022816 0 0 0
386 6 20.82754203665936 6.822131422621153 3.2317019673863925 0 0 0
692 5 23.616350892935447 8.120490263037729 2.605055279058146 0 0 0
693 3 22.947230887029733 7.893884449854436 1.9477294985789735 0 0 0
669 8 5.845371499485842 10.794824995330199 0.49505118279951327 0 0 0
144 8 7.0948141510994605 11.468570086514736 2.987375651498929 0 0 0
145 4 6.857187524959106 12.377414316259058 2.741676565009969 0 0 0
214 6 7.869169841334579 13.918086871907452 4.99125741059169 0 0 0
635 9 5.956088366135417 10.553988563037425 2.1355675652645574 0 0 0
1042 3 25.557658564367767 13.927900401845879 1.8813943008188385 -1 0 1
95 9 12.781548732350753 10.426552336011923 2.0882609277295487 0 0 0
99 9 10.903386550613064 11.881266345655025 4.01507743521975 0 0 0
129 8 12.72187459287281 10.719042558027152 0.47976517111271405 0 0 0
132 6 11.412344319629419 10.93188847678951 2.786207387430324 0 0 0
136 6 10.056221215726353 11.018095238835908 5.104613031315256 0 0 0
206 6 10.099581873671942 13.20927124498999 3.3993982744738322 0 0 0
414 8 14.105990277843302 11.257815454038859 2.6427202101287697 0 0 0
415 4 14.293751187479112 12.016557180769416 2.0719612879708764 0 0 0
365 9 18.986144882269393 10.178706947686452 1.602386747955503 0 0 0
369 9 17.55985960710254 11.80635437891717 3.8776552144246748 0 0 0
402 6 17.95807241960629 11.13822360993508 2.422521967553923 0 0 0
406 6 16.813967484227327 10.663680091037387 4.8076019710176405 0 0 0
476 6 16.398889407568305 12.999372350674257 3.4423597608679595 0 0 0
500 6 18.77512402935592 12.433294782841383 4.755902800560345 0 0 0
818 3 16.505520150487346 13.24058247978772 0.14738993789873236 0 0 0
1491 5 14.860325117113677 13.150457245465134 0.6133408969215832 0 0 1
399 8 18.261898883128254 9.889971543093958 0.11311772077146323 0 0 1
382 6 19.193508162205646 8.80858596747125 2.3370004594432663 0 0 0
676 6 23.28422474627269 10.969976173930714 5.001293283324613 0 0 0
684 8 20.473163865394483 10.738600848570508 1.2764922503665375 0 0 0
685 4 20.48283805342202 11.657760225570309 1.6173056456525847 0 0 0
746 6 23.449255547918746 13.194278925250348 3.448665849463187 0 0 0
639 9 24.313933412750856 11.861697143422086 4.0377192964965705 0 0 0
672 6 24.761566920912127 10.993103271365882 2.7491824247753476 0 0 0
720 4 4.990643640225476 11.186448912319012 0.26490737455393876 1 0 1
1044 5 26.094876892921018 13.996093900615131 2.705014227647186 0 0 1
181 9 9.126679490349204 14.417858409801383 4.009143682033693 0 0 0
185 9 8.565268728222213 16.623875739295116 2.0958445491391133 0 0 0
202 6 8.441960568990869 15.16412150587348 2.740299119174807 0 0 0
219 8 8.83187946516806 16.450742147277218 0.4836425203503933 0 0 0
1043 3 26.77246406484451 14.617687946807099 2.379114220699664 -1 0 0
270 4 9.244898430502513 15.57590604937026 0.3717782605107338 0 0 1
512 5 9.51072591353215 13.604780012299871 0.38994086352386936 0 0 0
513 3 9.707962807301664 13.228345564845048 1.3433278566204112 0 0 0
459 9 13.368440721511295 17.99898888356696 4.1465174535993565 0 0 0
492 6 13.831324026827987 16.968599546834746 2.8820343446033245 0 0 0
496 6 12.453682277851257 17.11865764471783 5.1278340642440785 0 0 0
504 8 9.864214210735867 17.50934034862317 2.686680889594472 0 0 0
505 4 10.261528437048765 18.208127118142535 2.1179367418269486 0 0 0
1354 3 19.48693594270602 15.517701282502069 2.275227237329972 0 0 0
1356 5 18.788213202581925 14.879755920716729 2.3071258847147686 0 0 0
489 8 14.838225693848683 16.753174430620078 0.39325076908402995 0 0 0
451 9 15.968862196599874 14.52756021215607 3.9375450597676647 0 0 0
455 9 15.245314054193559 16.781771644522088 2.0410923079712147 0 0 0
472 6 15.65965153412859 15.158358712708173 2.425286575009992 0 0 0
480 6 16.987338143297443 15.533561611365524 4.728686315627728 0 0 0
774 8 16.288724401188947 18.007279393232402 2.607872934719176 0 0 0
775 4 17.05480114899572 18.09028707156982 2.025798396525621 0 0 0
1090 3 19.339401898466676 17.345856381213068 1.1898089335312256 0 0 0
1489 3 15.149622869120346 13.886113473899451 1.2385429391536094 0 0 1
817 3 17.90776084295955 13.470678822738567 0.8583400758509739 0 0 1
819 5 16.51696308258385 12.938659526401242 57.7484406000737 0 0 0
1092 5 18.382774053295048 17.31913965795171 0.8368865526504797 0 0 1
766 6 19.363743117556965 16.998412805274633 4.741430540254387 0 0 0
234 8 23.379168236048653 17.521066167998008 3.001723270147279 0 0 0
721 9 22.622073667837707 14.453864333723528 4.154109483868327 0 0 0
725 9 22.138366637588934 16.821504011923444 2.139715029049426 0 0 0
729 9 20.218844573905525 18.10526410275625 3.8603199995121162 0 0 0
742 6 21.997124695136772 15.323892859153915 2.8787496026733295 0 0 0
762 6 20.703478456990048 17.588325786969854 2.282151516770551 0 0 0
1355 3 17.980652478563623 15.423529337449592 2.363865972164465 0 0 0
235 4 23.840725728100594 18.17351420964237 2.400819112999503 0 0 1
759 8 22.423056937070903 16.49210545398313 0.5941594932860644 0 0 1
189 9 27.14880385721747 17.992948626851195 4.063808362366963 0 0 0
222 6 27.57719865332282 17.43410336049972 2.5424846644988204 0 0 0
226 6 26.53916784580133 16.81665330828433 4.991568256472001 0 0 0
1894 3 26.744043025294744 17.17656054202805 0.86626905478562 0 0 1
1895 3 25.418510572792627 17.634512889792063 0.2894567390029758 0 0 1
1896 5 26.10913814054202 16.96124956766453 0.14507572873523125 0 0 1
300 6 4.790199976307235 2.9098178319313317 4.876941100971348 0 0 0
283 1 3.6417599829535297 2.3385408348514716 7.225987944780835 0 0 0
330 8 3.171471888749992 2.2843023198928494 9.717629274254573 0 0 0
557 1 7.027312208839428 2.264043542997154 5.257653763426747 0 0 0
552 9 6.948604945464143 2.683218484469 8.439528633568896 0 0 0
569 6 5.730495323159986 3.7136985392118755 8.726961188751932 0 0 0
589 6 6.147033539895348 1.6154620394539316 7.425639772912125 0 0 0
593 6 8.31499211004838 3.0601751391479377 7.578021484634967 0 0 0
17 1 13.692885135688382 2.2213065366801383 4.8271214868264725 0 0 0
46 6 13.949211995409426 4.529866876705242 5.075282792095049 0 0 0
12 9 13.537120169694568 2.643634872346895 8.15876277230571 0 0 0
29 6 12.644850397518924 3.8442467423514244 8.800848045484809 0 0 0
37 6 10.584556166105093 4.688066417422039 7.163842391653948 0 0 0
49 6 12.613336212852786 1.772041147972971 7.167439586123733 0 0 0
553 1 10.447583124975083 2.3843867508945844 7.070720929841534 0 0 0
30 6 18.2400061364089 2.784456203887003 5.01315845297843 0 0 0
34 6 15.94974494335436 1.5278690481607533 5.12036368763793 0 0 0
13 1 16.962354261700852 2.1653793371188166 7.200940566361746 0 0 0
53 6 14.942400766425855 3.086998359270095 7.593086619425751 0 0 0
319 6 19.339543725169573 1.5351749732014872 7.987458993513785 0 0 0
73 3 16.09941155693018 4.890835504366294 9.44231566221813 0 0 0
307 6 17.552758537600983 4.744540246188599 7.380486766395265 0 0 0
287 1 20.712808633671315 2.4174343384675314 5.218387397004547 0 0 0
50 6 20.18503362472684 0.1802252907152501 4.954184566623392 0 1 0
282 9 20.375181298294642 2.6510307111289624 8.48892313675115 0 0 0
299 6 19.673478369008464 4.120297474354674 8.84431248592075 0 0 0
323 6 21.64947744842085 3.0501748264429227 7.620128230079634 0 0 0
577 6 3.7533583891784077 4.643041157693962 7.354163549377266 0 0 0
544 9 5.04299842191985 5.197211505193502 8.167899620492433 0 0 0
556 1 4.9105451528215625 5.326080870820951 5.00557451239354 0 0 0
586 6 7.0856388299952515 4.5143139781062915 4.787877408561084 0 0 0
107 1 9.669590836595518 8.583179007748996 5.350288509111532 0 0 0
611 5 8.468776057568608 5.434869205386997 9.823248376674535 0 0 0
102 9 9.430196157511295 8.844107474558372 8.378957552785133 0 0 0
139 6 8.41527577771271 7.7946809195420395 7.580458651573562 0 0 0
560 1 8.4035295921727 5.372554845394647 7.242900201220194 0 0 0
613 3 7.849816037291511 5.96675190311311 10.362556624106075 0 0 0
643 1 6.314161554942275 8.498919120625215 7.162729557010178 0 0 0
663 6 5.934121366591344 6.124749645359184 7.225528216290308 0 0 0
690 8 5.810351798611032 8.131705369980958 9.6068819949235 0 0 0
691 4 6.373454653401321 8.671146651261944 10.111210868520232 0 0 0
16 1 11.54412366950653 5.509286186915927 4.969907062384833 0 0 0
120 6 14.258607658881912 9.295535678203434 4.7289398396020506 0 0 0
124 6 12.006961162900446 7.99895552895719 5.012423005159418 0 0 0
4 9 11.906078681750602 5.190248455626383 8.10198788968268 0 0 0
103 1 13.176376176044709 8.526753840148233 7.029032660595271 0 0 0
115 6 11.439860216366123 6.112436699846408 9.505433817726773 0 0 0
123 6 12.861902333626617 6.002993849200934 7.146373342715371 0 0 0
143 6 10.540860507108807 9.296632200246929 7.402806437451803 0 0 0
140 6 16.266597283406217 5.665222320758546 4.963319034448183 0 0 0
286 1 18.48969551910773 5.273390594284379 5.078492767223136 0 0 0
377 1 16.632667530941706 8.43967781914858 4.922472700469125 0 0 0
20 1 15.271653359718604 5.382931685273594 6.9938625492207285 0 0 0
274 9 18.723078412128867 5.41093530876097 8.235227016718058 0 0 0
372 9 16.322479791900335 8.82657572832326 8.025914952493206 0 0 0
385 6 18.285066354894813 6.158407844045879 9.561137954726078 0 0 0
409 6 15.519986336864394 7.643685414514117 7.24353207811761 0 0 0
413 6 17.64913209474489 9.288581523788602 7.247019118833886 0 0 0
390 6 20.84288120331592 9.175875970091703 4.569102941144525 0 0 0
410 6 22.791873704039585 6.050423532132522 4.9834463562861515 0 0 0
647 1 23.228758259924387 8.427171572193714 5.030238643306427 0 0 0
290 1 22.103761064904134 5.582327687057867 7.217430282701915 0 0 0
373 1 19.780602686191504 8.462022347477806 6.82813730670058 0 0 0
393 6 19.739213793512047 6.269950986580689 7.3266334586895425 0 0 0
642 9 22.967986519977522 8.848913530286177 8.27499986323334 0 0 0
679 6 22.234767646817033 7.819595609823758 7.248418814278192 0 0 0
683 6 24.258667277319812 9.432658952795354 7.469645972158263 0 0 0
94 9 7.67830546820091 11.343742750266555 8.377635422272403 0 0 0
106 1 7.564216793145184 11.586197662963018 5.388064509480249 0 0 0
119 6 8.368184462471667 9.949002663783272 8.903869996265053 0 0 0
127 6 6.2900712951449895 10.979696994839205 7.714531956317871 0 0 0
205 6 7.4388286550594795 12.183259185276983 9.823478913970881 0 0 0
213 6 8.545810996196163 12.241446543284868 7.317433688897704 0 0 0
230 6 12.232461581757349 12.414457015596579 4.741318121016431 0 0 0
376 1 14.472092220083862 11.565488372212362 4.933498131622453 0 0 0
110 1 11.096126361204357 11.63957379910851 7.111795759320662 0 0 0
397 6 13.144141966627302 10.823140872052214 7.286289400861739 0 0 0
475 6 14.154051803872374 12.031525733758068 9.422294501787153 0 0 0
499 6 11.153191520258641 14.10420413264756 7.352541110553815 0 0 0
364 9 14.521939074773522 11.399636268292475 7.940667450888973 0 0 0
380 1 17.714635714600256 11.624360429008737 7.071656330428058 0 0 0
389 6 15.281779933817864 10.020027526244434 8.320716667297264 0 0 0
483 6 15.387080136806686 12.377869646954611 7.01248864754452 0 0 0
431 5 17.609364320675102 11.521053891705384 9.5052902890055 0 0 0
433 3 18.37376872230068 11.56022601649174 10.082393368120647 0 0 0
432 3 16.874455743335567 11.958250855700982 10.050248277038719 0 0 0
754 6 21.29911881278341 13.81982788053495 4.900795786501761 0 0 0
634 9 21.21208557480062 11.296399264111475 8.198917993241778 0 0 0
646 1 20.996926375015814 11.587261188343978 5.128878541521755 0 0 0
659 6 21.968494102504337 9.971761872647575 8.811911812957533 0 0 0
667 6 19.960474450573958 10.835356198435859 7.167988134863278 0 0 0
753 6 22.153791820917775 12.325263048003812 7.37714084719177 0 0 0
770 6 25.541321275858632 12.29239931843044 5.060120690886622 0 0 0
650 1 24.52714405819854 11.736117089123656 7.039015135221459 0 0 0
229 6 24.680735251464498 14.085970119737226 7.890357958366546 0 0 0
193 1 8.926249083985347 14.69434660743724 7.027834201976559 0 0 0
487 6 9.260322110136318 17.190601758778094 7.4182246993828596 0 0 0
210 6 10.138732667102397 15.379762583723863 4.908879347165746 0 0 0
466 1 10.259020697864054 17.612228244491305 5.261628343932046 0 0 0
320 6 6.4819593466566765 0.07797746217506674 5.069481800601844 0 1 0
303 6 3.519411593573176 0.021065307706643367 7.777192037990323 0 1 0
454 9 10.543012277179892 17.596082368381467 8.434221487206896 0 0 0
462 9 12.119675152510677 15.083442909206779 8.291142210485736 0 0 0
467 1 12.450611015437225 14.72819469026082 5.268987748435375 0 0 0
470 1 13.722846089037848 17.937876627908544 7.342446049355389 0 0 0
479 6 11.231695161730629 16.30708570629986 8.942500660681297 0 0 0
503 6 13.338547943058188 15.624173216282008 7.445832948670188 0 0 0
521 5 13.881679899536998 17.528706680923527 9.80964773061021 0 0 0
484 6 14.667160673639968 14.40130523899992 4.953041212696056 0 0 0
736 1 17.113025612819477 17.714994036219217 5.11959660616516 0 0 0
737 1 19.192862912761186 14.664457661590298 5.1903578381892235 0 0 0
769 6 18.11064079948621 13.944472239818483 7.213573228235162 0 0 0
463 1 15.81039656837941 14.809777181753828 7.116072536415983 0 0 0
510 8 15.35905311878182 14.425980287456373 9.319874356565924 0 0 0
565 6 8.479890459127787 -0.07187046731064879 9.408815484059044 0 1 0
573 6 18.220673875276972 18.49136293870812 7.225147919835346 0 0 0
724 9 17.210468631071954 17.609142993082294 8.15278341335938 0 0 0
732 9 18.936226493615614 14.911244908919274 8.171815043815 0 0 0
749 6 17.94406661025682 16.219389485815427 8.728132274179423 0 0 0
757 6 15.930345164444915 17.066669660895826 7.288203815301063 0 0 0
196 1 23.83217040350965 17.686521735894466 5.257106186198045 0 0 0
590 6 21.47000266362069 18.41319746677145 4.75656169002436 0 0 0
750 6 23.61487797377749 15.350136995225022 5.154712641586699 0 0 0
25 6 15.806633465693082 0.4326330503451557 9.24295244166285 0 0 0
217 6 22.914170085223603 17.163484757838972 7.592153049177964 0 0 0
733 1 22.470676388999554 14.62474915442054 7.305485707087506 0 0 0
740 1 20.65671766834868 17.802504945896985 7.0410269207319685 0 0 0
765 6 19.304148379735437 14.367225277920454 9.752505344301817 0 0 0
773 6 20.25556530340903 15.374977055102677 7.390127277684559 0 0 0
791 5 19.947301476128555 17.966509089178487 9.89173739903091 0 0 0
780 8 22.095039272965725 14.209894117229213 9.784796180161806 0 0 0
197 1 26.107924367884987 14.664443837992259 5.268100428177058 0 0 0
33 6 25.226518784769066 18.497247834427903 7.153599087288208 0 0 0
184 9 24.23306048641275 17.765192172299926 8.335560377826438 0 0 0
192 9 25.74279889956231 15.157284156222019 8.499916246222886 0 0 0
200 1 27.395701882785055 17.829551834965038 7.105843498734576 0 0 0
209 6 25.02060806652547 16.50496324884987 9.167962934289648 0 0 0
233 6 26.92809645470138 15.51246980493894 7.364707127281378 0 0 0
278 9 1.9760062038109492 1.3961015728438628 10.445604922975194 0 0 0
310 6 2.097265771110614 1.3148540939868836 12.010680743119535 0 0 0
331 4 3.860498354341592 2.5688127024677945 10.274240686195789 0 0 0
353 5 4.887218111652982 0.7847404670200631 12.470636975547752 0 0 0
355 3 3.904944969449458 0.795612153754471 12.447055964894993 0 0 0
354 3 13.172220091572186 18.42733974705301 12.573914914621684 0 0 0
585 6 7.3331508401023076 2.1247625247405537 9.914689653536952 0 0 0
612 3 8.59316003237923 4.754717776951129 10.451701633308321 0 0 0
614 5 5.020430891057183 4.328807489944695 11.871383162189698 0 0 0
81 3 7.638427397374236 5.313527680127131 12.724810410997968 0 0 0
82 3 8.929352027996783 4.469069126867839 12.956602169657124 0 0 0
548 9 8.759669404750959 1.2607822583030877 10.27637804340197 0 0 0
561 1 6.565324865167048 2.5980351338888403 12.407634671249749 0 0 0
580 6 8.903004817563138 1.200137013343615 11.838224809674847 0 0 0
599 4 9.262775159981668 3.4018474876021543 15.66629649654467 0 0 0
620 5 7.97803254091431 4.356487399632188 12.62482133585458 0 0 0
45 6 13.711774633748604 1.7947495852752688 9.520626774608154 0 0 0
600 8 10.160955497788484 1.9221666846624668 9.565012633920038 0 0 0
76 3 12.05941327828897 4.903826215444227 10.879341975160733 0 0 0
86 5 10.764381622535572 3.8162287374365564 14.493566771960616 0 0 0
87 3 10.871820237695621 2.9608599835583806 13.986921748700363 0 0 0
88 3 11.466088261907895 3.831607250094001 15.170130481948602 0 0 0
601 4 10.43627315438378 2.763334207774768 9.942332760771066 0 0 0
623 5 11.575784461056426 2.102932914360423 12.622188133034838 0 0 0
40 6 14.116833347320645 -0.035692209664549314 11.466080151614234 0 1 0
624 3 12.180459272334238 1.51223078800336 13.155627095271225 0 1 0
8 9 14.777007229580903 0.9611835928859558 10.38393209522748 0 0 0
60 8 15.867817183115381 1.9807751459663743 11.286155908279225 0 0 0
61 4 15.42249745384252 2.3981248275933336 12.018809295251367 0 0 0
72 3 14.559312736516706 4.537132766663861 9.650093763739457 0 0 0
80 5 15.484855533515315 0.5885505524192496 14.510766484181431 0 0 0
83 5 18.521602008502065 1.3404678543021828 11.81133706545807 0 0 0
84 3 17.580923558766706 1.4796656258430365 11.95119509379923 0 0 0
351 3 16.357171086624486 0.9728472964124364 14.186065493126998 0 0 0
356 5 17.554302637285826 2.566734232504753 14.200353950668571 0 0 0
358 3 17.46181178645456 3.0356916672279546 13.31864257526752 0 0 0
357 3 18.504921377333616 2.6450173844689098 14.418486348211246 0 0 0
175 3 14.861919738273686 4.286954450062287 14.46483443388741 0 0 0
315 6 20.818825797557352 2.1685729205079585 10.003354589575476 0 0 0
291 1 0.1934100738729817 0.4486689737244228 13.127588811705348 1 0 0
350 5 20.251834938010067 4.048673535365734 12.003080187552419 0 0 0
621 3 20.17582379025353 3.5145636022844866 12.90066851261307 0 0 0
622 3 20.60454095299219 3.407664222277691 11.393411724602986 0 0 0
85 3 18.771323044154734 1.7644230607121434 10.99419935371405 0 1 0
311 6 20.194261227503056 2.467412443114004 14.308294003912318 0 0 0
655 6 4.505093129274502 5.764474629071711 9.741646549348086 0 0 0
638 9 4.425147104628771 7.364225523214691 10.337694837403246 0 0 0
709 3 2.818892411803934 4.863201146676536 14.678899030735323 1 0 0
707 5 22.544634524660324 5.340337933414742 14.037167264167373 0 0 0
708 3 21.857100451854297 4.718785114696725 13.796622046246222 0 0 0
135 6 10.233326492518948 8.438827379462449 9.80717539017153 0 0 0
615 3 4.5342958621634795 4.918377331982526 12.495117588706847 0 0 0
616 3 5.01058292479728 4.739241869393924 11.018820536071802 0 0 0
670 6 4.402915721425679 7.386464973746926 11.986346625669 0 0 0
713 5 7.1065915092192204 6.830056718157739 12.187876080085662 0 0 0
714 3 7.584449156492314 7.395402713199948 12.87391804029448 0 0 0
715 3 6.114464661769481 7.143560548687132 12.26721200296639 0 0 0
699 3 5.301951923952481 8.536737368847536 13.61710190641023 0 0 0
700 3 6.654601677280207 9.09936994722285 14.481286984676762 0 0 0
74 5 12.316182488574666 4.561711845893801 11.741853014019856 0 0 0
176 5 11.825328964012149 10.372535458742464 12.442355774173663 0 0 0
177 3 10.928967031196462 10.480725207569073 12.76731752626825 0 0 0
178 3 11.833296515480049 9.347310519274105 12.194320847200075 0 0 0
75 3 11.996869999893716 3.6574767563080077 11.735162073952662 0 0 0
98 9 11.587805457686068 7.6823475150940475 10.16842518754738 0 0 0
111 1 12.221723562423646 6.323990469628171 13.386060391105813 0 0 0
130 6 11.85279295717581 7.781188894798501 11.75711577190683 0 0 0
150 8 12.906579341147294 8.449554270924018 9.339298750772805 0 0 0
151 4 13.605577014049015 8.715476752397636 9.92608038858951 0 0 0
170 5 12.620160961352681 8.526000200845617 14.611680597823225 0 0 0
442 3 12.503013365516004 9.377300563386544 14.021616614015539 0 0 0
434 5 14.39594236667158 6.25029800078951 12.17629886767427 0 0 0
405 6 16.67410579183371 8.316153660103343 9.647119070386072 0 0 0
71 5 15.229830960356482 5.199007863133039 9.830388500871681 0 0 0
344 5 17.509290300405915 4.491508215482726 11.630691626583097 0 0 0
346 3 17.652384485247683 4.748044992582619 10.695834631460567 0 0 0
368 9 18.07089023560187 7.69396465413672 10.188320700135169 0 0 0
381 1 16.90791808143616 6.526913064748736 13.257215603859784 0 0 0
400 6 18.10251414769951 7.708148882239753 11.823000791616362 0 0 0
435 3 14.309769441175428 6.961507794411629 11.558496436192875 0 0 0
436 3 14.659674388226813 5.5181824107172766 11.601682465867208 0 0 0
675 6 23.299408695908316 7.979557659081361 9.71275410631029 0 0 0
345 3 18.41304674721687 4.441572212577843 11.938798897638657 0 0 0
341 5 21.57132477816159 6.360912871197564 11.39755123217866 0 0 0
342 3 21.84082388348855 6.127551881355576 10.48029960887975 0 0 0
343 3 20.94342807740613 5.610786072458177 11.61478111514929 0 0 0
420 8 19.34427290959038 8.632299688725166 9.56359880771795 0 0 0
421 4 19.175827460043628 9.530618290562844 9.642642575545082 0 0 0
651 1 22.858827682848027 7.581532711135856 12.999552371302887 0 0 0
445 3 19.680572488274883 8.152366369368684 12.791233886332295 0 0 0
443 5 20.193671383950104 8.265170993860584 13.636244080679308 0 0 0
171 3 8.721978783917049 9.835391153827484 11.53612222673092 0 0 0
172 3 8.746479540206666 9.647068173964389 13.205875168227562 0 0 0
188 9 7.468993232039681 13.790622681092936 10.31308330942982 0 0 0
201 1 6.31865275994873 11.390667490261796 12.416642276955605 0 0 0
220 6 7.597463454054821 13.645547233244715 11.928163655687072 0 0 0
710 5 8.31571241428842 10.077980586084536 12.407063756759056 0 0 0
698 5 6.025952638565445 9.247586087605713 13.722427835451278 0 0 0
163 3 12.21304067496444 11.26493961117794 9.31804071593603 0 0 0
264 3 10.634704403861335 11.360971506566438 15.152649201478186 0 0 0
161 5 11.237975508492598 11.384821085401473 9.535832367377152 0 0 0
162 3 10.985539880489865 10.469974276835018 9.771563402019934 0 0 0
164 5 10.227088548828192 13.188831495910415 11.376403405384389 0 0 0
165 3 9.266230743355619 13.242120437405973 11.545267703873263 0 0 0
263 5 10.736663070095796 12.113649360465253 14.513174613695584 0 0 0
265 3 9.861955404261362 12.589886034062356 14.59146978716124 0 0 0
458 9 13.999097082532682 13.499645483564464 10.095182928985192 0 0 0
471 1 12.346377571173663 12.856232116718152 12.927022193750647 0 0 0
490 6 14.194452426090837 13.409950522999155 11.709025173853634 0 0 0
446 5 14.615007244981072 8.882305004292478 11.64526867304592 0 0 0
447 3 15.283634212711638 8.927226121223415 12.358328622074787 0 0 0
529 3 14.791077684438065 11.324946195375531 13.888034783670298 0 0 0
440 5 16.610113130349493 12.637846517304217 12.12188432800218 0 0 0
448 3 15.288994656760563 8.981065638152893 10.881061777227119 0 0 0
711 3 15.606305223595818 13.004034867043048 12.181461889359772 0 0 0
712 3 16.576580062499104 11.649956772564533 12.193987983379388 0 0 0
716 5 17.882237015507425 10.159683815390101 12.814538430068232 0 0 0
717 3 17.937574621574388 9.420202423613734 12.082730648376202 0 0 0
718 3 17.529629957080935 9.744197909897078 13.632537389818422 0 0 0
745 6 20.49786543235625 12.004287855815939 9.630334121514915 0 0 0
266 5 23.594307047076075 13.737974466332311 13.90934140094259 0 0 0
704 5 22.038419879782733 9.857712306171255 11.737895968828564 0 0 0
705 3 22.462143439535993 10.587675928349075 12.324226410231399 0 0 0
706 3 21.942924548767746 10.1963827514493 10.813038492521676 0 0 0
728 9 20.587863179352805 13.566034304685099 10.356130464427773 0 0 0
741 1 18.63332042206505 13.326159554886193 13.250771843424447 0 0 0
760 6 20.447670129899624 13.466089269939028 11.949584370914652 0 0 0
255 3 24.021470092658326 13.89456199880711 11.89029411018232 0 0 0
703 3 24.50962224760504 11.360816909794837 10.520174429811183 -1 0 0
702 3 5.237146999052071 10.563340748966983 9.552022675752074 0 0 0
701 5 4.935481596848046 10.761304596070588 10.447814315283798 1 0 0
803 5 24.56129250627864 11.298904678536896 13.628228190379533 0 0 0
804 3 24.058407678220412 10.442039818729683 13.947806069618135 0 0 0
805 3 24.162199819272704 12.109460410208504 13.882271549535922 0 0 0
240 8 8.641004276366765 14.637006322096763 9.533407670915564 0 0 0
241 4 9.432240617080057 14.586399454980079 10.043897863765864 0 0 0
251 5 7.289162187894368 16.67156562916371 11.929260244799202 0 0 0
252 3 7.35097454428506 15.78714413193327 12.19504630883544 0 0 0
253 3 7.8227644719854315 16.68269583428944 11.117521874518504 0 0 0
260 5 9.053400842744518 15.096377630848117 13.882218147258401 0 0 0
349 3 8.757945588687841 16.333683790769932 14.490525808464856 0 0 0
531 3 9.53245756018732 15.309801597276818 13.092260114073298 0 0 0
532 3 8.309928574821829 14.490438223103684 13.577906389135187 0 0 0
295 6 9.833949508892758 18.372251027147833 9.79602559514093 0 0 0
495 6 12.619210372659325 14.154635330946888 9.586010242974083 0 0 0
166 3 10.347315719793286 12.618547147369329 10.602911208326951 0 0 0
523 3 13.409963127109897 17.34582230164441 10.648691600239673 0 0 0
524 5 13.402751723090564 16.715124387226247 12.536427064800408 0 0 0
525 3 13.002644736716581 16.126417723527034 13.216928035472762 0 0 0
526 3 14.35471024383994 16.854570318829744 12.784795247005253 0 0 0
536 5 10.412110370401638 16.064109689206433 11.76985743000877 0 0 0
537 3 11.014352406075057 15.352967949410246 11.431203473788262 0 0 0
538 3 10.530820749438757 16.80876121193827 11.126049028598333 0 0 0
491 6 12.170308016775584 14.915598858342948 14.187345275770992 0 0 0
522 3 14.571343724762201 18.220408878241876 9.95413184693445 0 0 0
530 5 16.097370984777356 17.246829825996493 13.027439884331855 0 0 0
511 4 15.754118101502089 15.146950512098185 9.871542869929307 0 0 0
625 3 11.011608316733412 1.4253795364293793 12.152364715690537 0 1 0
794 5 17.84280911032173 15.67394482538682 11.758438923628333 0 0 0
795 3 18.166734109134243 15.965321296159072 10.819469024396932 0 0 0
796 3 18.46512903145093 16.02724239109343 12.385014239331198 0 0 0
801 3 16.37406084523858 18.0974978253766 12.593723369299616 0 0 0
802 3 16.595113343543165 16.567420138324536 12.447521975721845 0 0 0
806 5 18.18512702216059 18.427227976452755 14.521875600405878 0 0 0
807 3 17.698688770194885 17.622072382452302 14.6319140718576 0 0 0
808 3 9.605494699911755 0.3492969348316823 13.797423208296546 0 1 0
793 3 20.75318249317318 17.999297966297334 10.444629019250758 0 0 0
254 5 24.23869673667329 13.234427772603228 11.192693878234202 0 0 0
268 3 23.063313496141568 14.527739413461722 14.000765640303563 0 0 0
781 4 22.839059212087417 13.654838330196245 10.195644647579261 0 0 0
21 1 22.82386073494992 17.554913615505406 13.230222872203887 0 0 0
261 3 21.506450457046007 14.714765788722314 12.59235525300389 0 0 0
262 3 20.914238903477 15.323094763166065 13.899398684442243 0 0 0
792 3 11.607542562309726 0.325512192900593 9.725317889196203 0 1 0
800 5 21.700227821985496 15.467431568280647 13.256432944686239 0 0 0
225 6 26.3882475810179 14.542117734842574 9.873330516801952 0 0 0
267 3 24.564639867251653 14.005014777955797 14.214526924605822 0 0 0
256 3 24.939648393922752 13.679029387742922 10.665421307888916 0 0 0
77 5 24.761566482828666 16.144432896306412 12.863391737547012 0 0 0
78 3 25.30783560304199 15.690381330997615 13.567582530666128 0 0 0
79 3 25.37235856626758 16.379594107705515 12.176630497635708 0 0 0
273 9 0.6620770055605325 0.43643467333602326 17.91936587810336 0 0 0
302 6 1.7279678034669823 1.371763463871238 18.707509352110215 0 0 0
329 4 2.2282098536984365 2.979697885786329 16.03767077854128 0 0 0
338 5 3.550118372559341 1.950733399782749 15.618324906462021 0 0 0
339 3 3.964169566041153 2.293175056128048 16.39194268888737 0 0 0
340 3 4.167434550550622 1.9069090636918709 14.859577547792675 0 0 0
588 6 4.261709144040453 2.9306504425314657 18.156364106530376 0 0 0
284 1 2.0992060026730335 3.732142667558907 18.889124154350494 0 0 0
543 9 7.363423966908955 0.4440707907584727 18.11422303576133 0 0 0
547 9 7.135293724169007 2.699157720157741 16.02402493045038 0 0 0
551 9 5.25053131572283 4.208901597262615 18.03872263787577 0 0 0
564 6 6.783125411053755 1.2731358434391233 16.746316622031372 0 0 0
581 6 6.468957007220862 2.7994266298054935 14.602214130780354 0 0 0
584 6 6.446773647423205 3.876673204449027 16.960776412368926 0 0 0
598 8 8.741053097818368 2.922334300324771 16.298363452293554 0 0 0
572 6 8.318691504358979 1.3851859050141615 19.047745903306893 0 0 0
7 9 13.936674767613635 2.6689879786636 16.498688454922107 0 0 0
11 9 11.785480002141606 3.9794661644805944 18.37368132295729 0 0 0
24 6 13.957974156195435 1.1580102340931147 16.99394120986911 0 0 0
44 6 12.418072154095448 3.3322322116681664 16.914178424571062 0 0 0
48 6 10.868598848503602 2.9587716320370423 19.176512819718425 0 0 0
610 3 13.2860116575062 -0.07900446887555775 15.657518730217188 0 0 0
617 5 10.508073561716495 0.9030270369735071 17.168491757388608 0 0 0
618 3 10.048256494782486 1.7560474108743769 16.987391676890063 0 0 0
619 3 10.113515207228552 0.309652292859735 16.559667447497688 0 1 0
36 6 12.876057321560676 -0.14758028176815505 19.187486637273565 0 0 0
142 6 13.121812677262996 4.448745880644627 19.263877902812244 0 0 0
352 3 14.85285168253574 1.4547168003802105 14.74703614362082 0 0 0
41 6 14.104058420992548 2.7544490454520996 14.863214390233052 0 0 0
3 9 14.225759096039159 0.3121958816916275 18.406602768268268 0 0 0
58 8 15.04061986657087 3.729738091705984 17.162185618315057 0 0 0
59 4 15.793331674779964 3.9093943768976276 16.629340719486205 0 0 0
68 5 17.02374753646043 0.8668570974206677 16.76119109420463 0 0 0
70 3 16.40522465013557 0.31949550272263616 16.205622015637264 0 0 0
318 6 17.615180526258097 3.087089779045821 18.852840577067525 0 0 0
281 9 18.589521567583475 4.057311402111092 17.97360882697619 0 0 0
174 3 16.2735588052157 3.9788106461752553 14.626605465261681 0 0 0
69 3 17.63384208813292 1.3328569064191262 16.202815558853697 0 1 0
32 6 15.072711445285709 1.245249823837788 19.411611223574646 0 0 0
277 9 20.344905142547994 2.5756198817257396 15.913884641686794 0 0 0
294 6 20.280553643840662 1.0900133884337209 16.545479501381045 0 0 0
314 6 19.1215581865747 3.463824678900303 16.534284396814293 0 0 0
328 8 1.4291073063265844 3.4611528406577046 16.347398243635414 1 0 0
412 6 19.79960230988491 4.5851396318504225 18.90775580128507 0 0 0
306 6 19.81110217321549 0.012933459354197818 18.99092612331978 0 1 0
633 9 3.4277620136878477 6.682600303558687 18.05339435265508 0 0 0
662 6 4.320067245292711 7.469890030820612 19.168720992558054 0 0 0
626 5 4.984140588094605 5.216752028654403 14.688435698038038 0 0 0
628 3 5.336938857244923 4.32515874158076 14.666877564271477 0 0 0
627 3 4.949057871863845 5.444130796757682 15.65607085295717 0 0 0
658 6 4.546534061527135 5.57311415352175 17.428370013108704 0 0 0
97 9 9.192608455767221 8.69664347621443 16.026654989802672 0 0 0
131 6 8.847105055485503 8.67831530179796 14.45944475561196 0 0 0
169 3 9.484645617989035 7.294875099088294 14.096658511717305 0 0 0
441 3 13.46317366762809 8.768918163695867 15.09915900147928 0 0 0
168 3 9.836398879703701 5.91105120056703 14.817812770339735 0 0 0
167 5 9.772384521067403 6.321080239898964 13.942020694764143 0 0 0
93 9 10.090118544619848 6.644155244170882 18.103424411027248 0 0 0
114 6 9.745887231953722 7.218274862251453 16.631591140856226 0 0 0
118 6 10.989958854663014 5.240972075912581 17.671032071865046 0 0 0
149 4 11.26972532344826 9.291197438068771 15.855537723075887 0 0 0
158 5 13.219776909551467 6.1878648642280805 15.633710972601671 0 0 0
159 3 13.080468796331473 5.306211568215884 16.08787022577681 0 0 0
160 3 14.158696918615714 6.28669278676186 15.64819325581519 0 0 0
109 1 13.579622622460029 6.776928557613622 19.304228339824338 0 0 0
122 6 10.933753575051886 7.554315819260214 19.111553775890044 0 0 0
173 5 15.763324749220258 4.745088773035536 14.225786757259836 0 0 0
363 9 16.831969283352507 6.509773929265885 18.176008853804667 0 0 0
367 9 16.42763112551978 8.61797511895291 16.037989999461814 0 0 0
384 6 16.022071515892943 7.248537160725633 16.928537683713362 0 0 0
388 6 17.584866500983555 5.2448512029025505 17.3796883515893 0 0 0
392 6 17.894415305847133 7.527750717250256 18.814993796766473 0 0 0
396 6 15.799937235001158 6.068455651624173 19.370188427955043 0 0 0
401 6 16.47795636655651 8.509601270750208 14.46147502223809 0 0 0
438 3 18.683067474862405 5.395137104997295 15.02702854158817 0 0 0
428 5 20.36745214667529 6.448979759100399 16.432545223648248 0 0 0
429 3 20.79274229487489 7.313486752326571 16.270271305748416 0 0 0
430 3 21.196579087125667 5.943337013167552 16.679437970511763 0 0 0
437 5 18.813299236621127 5.806478325680446 14.12989151482457 0 0 0
439 3 19.60663508905425 6.368856893034684 14.452410808878556 0 0 0
637 9 23.31083886703626 8.993807369286937 16.111185601758628 0 0 0
666 6 22.420809061807823 5.965405932915132 18.72156870144669 0 0 0
654 6 23.270176792393578 7.438086709215308 16.64353135848819 -1 0 0
444 3 20.254181950101472 9.230577605477805 13.614505166972979 0 0 0
678 6 20.342153540355834 9.27021074253885 18.958734253620218 0 0 0
379 1 20.194393131515632 6.692074002193476 19.241538085275486 0 0 0
671 6 23.427839045921132 9.12304080103947 14.48202265368006 0 0 0
688 8 4.251744508056274 9.783681764686111 16.912147029717833 0 0 0
101 9 7.790466055845853 10.201218592837341 18.39863213765373 0 0 0
134 6 8.047359661384936 9.233991787048742 17.12443549739508 0 0 0
138 6 6.844255169405619 9.327039437857092 19.37280712492695 0 0 0
183 9 6.04854245511827 12.87599583404892 18.382913684128145 0 0 0
208 6 6.768998082305595 11.453691181102384 17.808094844699113 0 0 0
232 6 9.059308336038184 10.801262265970612 19.278518799273943 0 0 0
257 5 7.116434661112471 12.423282175497782 14.37725413924092 0 0 0
258 3 6.569056108171293 13.15119345847567 14.697223857115171 0 0 0
259 3 7.392597181913003 12.021757319872465 15.25791766706671 0 0 0
689 4 5.020042297028061 9.977653655549993 16.329993506248844 0 0 0
199 1 9.459654905542813 13.124222829633018 19.35498410769319 0 0 0
250 3 10.387170662254432 13.287602108114717 16.661268175547292 0 0 0
148 8 10.541174508363271 9.731019623924572 16.417818590993956 0 0 0
248 5 9.396848929971474 13.069854695414673 16.686098705859106 0 0 0
249 3 9.084071771433221 13.913118788375932 16.413171956531066 0 0 0
408 6 13.77239535200933 8.892033219580984 18.598431899619065 0 0 0
453 9 12.809688653472444 12.565648692192447 17.76044550960107 0 0 0
474 6 12.523979785802021 13.333569164851557 16.36747454490083 0 0 0
478 6 13.443233262726064 11.171733642763723 17.16184263775273 0 0 0
486 6 11.508311249682569 12.26684596697437 18.692582115517215 0 0 0
527 5 13.834560230793 11.551646113812952 14.128573528414405 0 0 0
528 3 13.90315007064044 11.416195622182581 15.09853636777932 0 0 0
482 6 13.904588689430954 13.455729059401852 18.59257706988726 0 0 0
104 1 11.305044767766825 9.865089838714818 19.2002430453668 0 0 0
371 9 14.519895858545295 10.04034373565439 17.69660335887837 0 0 0
404 6 15.139098364844239 9.59031992579343 16.306990324912793 0 0 0
418 8 17.69814146795949 9.468451812864092 16.73486642792111 0 0 0
419 4 18.441341481298217 9.254066380284272 16.096812868638107 0 0 0
502 6 15.733888646257382 10.564347859297744 18.67000756240338 0 0 0
533 5 17.454910264561253 12.020851014823142 14.89435930694259 0 0 0
534 3 18.088848062389093 11.569574332157872 15.438593827189752 0 0 0
535 3 17.158966390828876 12.633964755649647 15.623835291297764 0 0 0
756 6 18.35844819206936 12.166831855109349 19.171563836088666 0 0 0
518 5 15.91359712071791 13.903358429110893 15.74806888182255 0 0 0
519 3 15.175387914293927 13.646107817064522 16.29889819381865 0 0 0
374 1 17.99160783380892 9.784557955872634 19.131389973424465 0 0 0
469 1 16.178666874785748 12.850716263296043 19.12806321807962 0 0 0
641 9 21.256334395268823 10.266762073534828 17.9849029469614 0 0 0
674 6 21.871485139191364 9.685161603893057 16.4893074364037 0 0 0
723 9 19.474703162442935 12.741273190059081 18.154437845910135 0 0 0
744 6 18.87609940869563 13.667928772908917 16.90215986272351 0 0 0
748 6 20.28067541045947 11.54944750580687 17.437565609098968 0 0 0
788 5 22.95593683192819 13.160327724931157 16.761360769448782 0 0 0
797 5 20.6737576609708 11.901675599552112 14.022859596316906 0 0 0
798 3 21.310838456826787 11.930835896094514 14.700682658206608 0 0 0
799 3 21.11598255971633 12.362208730650039 13.254735994135588 0 0 0
790 3 22.74430921726899 13.86293132062825 16.11684373397715 0 0 0
752 6 20.400340654279574 13.819148001665733 19.033643261152132 0 0 0
772 6 22.503638836764804 10.72337864648195 18.98449586859254 0 0 0
789 3 23.92559619786934 12.992137407543808 16.433738738069994 0 0 0
204 6 25.835441290492433 13.477746144729306 16.911665471797193 0 0 0
216 6 25.175437622117464 12.502729355808977 19.34340260101025 0 0 0
347 5 8.45240518948307 17.336802022375572 14.722157735877515 0 0 0
212 6 7.0616687006126995 13.854686332828534 19.08389153450862 0 0 0
348 3 8.837100155817652 17.50138453865459 15.601701601085244 0 0 0
238 8 7.084967433698375 15.643451344999098 16.868684481472457 1 0 0
239 4 7.527561871434684 16.166059081262752 16.19863218260478 1 0 0
194 1 7.239470231445977 16.288277177841067 19.338186618235657 0 0 0
298 6 9.53757362165029 17.724101106730892 17.20526728782368 0 0 0
322 6 11.758064275451735 16.931854330160697 18.51150725872297 0 0 0
457 9 12.160926758004617 14.898238010100716 15.83807704784939 0 0 0
461 9 10.406613878683475 16.450532142847223 17.771264666901377 0 0 0
494 6 10.738845841630864 15.499688212966026 16.470339115748693 0 0 0
498 6 9.54249393797779 15.605487771525855 18.855482875012967 0 0 0
508 8 13.46502358856304 15.83797132974266 16.413005108274962 0 0 0
509 4 14.016069665053013 15.890438226391538 15.573193880314564 0 0 0
576 6 14.217479838820188 18.381409070258876 18.971669569829448 0 -1 0
520 3 16.34540113092602 14.55340380678609 16.278576358974583 0 0 0
568 6 16.40319458296417 17.790926344206817 17.52786111812193 0 0 0
731 9 17.203259305136353 16.44552389302749 17.906586107849286 0 0 0
764 6 17.973441567769626 16.144760092761693 16.521367066722938 0 0 0
768 6 16.284214568634997 15.138489866003749 18.348395268304174 0 0 0
464 1 14.04744742395627 15.90304456456802 18.726470854328074 0 0 0
592 6 18.322070904009202 16.73410406913785 19.123156856370635 0 0 0
28 6 23.063541580275807 17.55164340116709 17.866961642831885 0 0 0
608 5 20.99607022705368 17.917133651076078 14.962473958027303 0 0 0
609 3 20.032133649059926 18.219559479648254 14.817733327534306 0 0 0
727 9 19.244729757462146 15.098450737344708 16.115634994081752 0 0 0
761 6 19.38170210991311 15.018685147878736 14.547707851021828 0 0 0
778 8 20.5940453612144 15.771454761179852 16.877610996437777 0 0 0
779 4 20.834962106421102 16.574318115701935 16.394367605235555 0 0 0
228 6 23.130900893280767 15.293483663050695 19.22213820308451 0 0 0
187 9 25.91771301885709 14.997265566002598 16.34026594799259 0 0 0
191 9 24.052889522686822 16.313104128299692 18.352306058480995 0 0 0
221 6 25.742240464197067 14.69421493710676 14.729339487700374 0 0 0
224 6 24.638760656732074 15.828044960838495 16.921756283165283 0 0 0
52 6 25.218475709691475 16.821106207467622 19.386022553426454 0 0 0
272 9 2.1275575763310917 3.3991706512189284 22.03819833018388 0 0 0
280 9 3.7120566704530242 0.9228540981828044 22.220713891119253 0 0 0
285 1 0.5025180959593138 0.6206424964736609 20.96607427796979 0 0 0
289 1 4.0468352893083726 0.7003985599823502 19.05242205328867 0 0 0
297 6 2.576229714656669 1.9976720906687055 22.78079576149755 0 0 0
313 6 4.309072166700097 0.3760979314352695 23.67800189809864 0 0 0
317 6 2.731099060663539 -0.03091438662184537 21.244354161200086 0 0 0
391 6 3.26656472594868 4.352668852661797 21.2095723359108 0 0 0
321 6 4.851975039372922 1.5584580099464957 21.280374840027847 0 0 0
542 9 8.79152985643196 3.5897258383757005 22.28330878432558 0 0 0
554 1 8.426547510343486 3.7369269412814563 19.05010572243077 0 0 0
555 1 7.243472060146426 0.6025441635833214 21.03251432163357 0 0 0
558 1 5.439277178869405 4.058669023658474 21.46006014343965 0 0 0
575 6 7.599282517485204 3.1026024906083305 21.256210965381218 0 0 0
596 8 6.97873819864555 0.05595756734929741 23.634843037329027 0 0 0
605 5 5.206933748602179 3.461596967047174 23.88744670083239 0 0 0
606 3 4.840783532633075 2.5683263392049227 24.129944611161903 0 0 0
653 6 8.047084897050322 4.220912443582386 23.63231815540185 0 0 0
18 1 12.072375015890117 3.9192526229686964 21.367112921587033 0 0 0
550 9 10.464550813588149 0.9628334100956996 22.33484079515468 0 0 0
559 1 10.603807406732306 0.5594921048559216 19.40585991793605 0 0 0
567 6 9.402000283905627 2.1152359792976534 22.849930670657248 0 0 0
587 6 17.74083410781582 18.412821781257804 21.56724944875326 0 -1 0
591 6 11.758850241279623 1.6517139027594758 21.554923473180764 0 0 0
661 6 9.843447635777812 4.53807936014686 21.63152960895162 0 0 0
15 1 14.00034374212109 0.7151649253529615 21.446310659483757 0 0 0
56 8 13.505607082013988 0.4338927849581147 23.85604943023625 0 0 0
583 6 10.79998669071539 0.2729986954019218 23.842895300715046 0 0 0
831 5 11.641212664782357 4.040026313899183 24.088062551176865 0 0 0
19 1 17.639731426916384 0.7038625300962541 19.096390772725982 0 0 0
2 9 15.791505893517769 3.579004681042642 22.64491005540258 0 0 0
10 9 17.47728339163689 1.1200460497194047 22.347024597041113 0 0 0
14 1 15.534119046806238 3.720634916519855 19.55204461730055 0 0 0
27 6 16.656152230640316 2.308783258535948 23.12758838353737 0 0 0
35 6 14.488090624024565 3.0522176492223703 21.788861626330206 0 0 0
43 6 18.400165784691435 0.7234997695788613 23.66715922026659 0 0 0
51 6 18.5611709064478 1.584809271701246 21.23601006447347 0 0 0
121 6 16.620773710356133 4.546610827505686 21.640157697417767 0 0 0
47 6 16.396438315263193 -0.048787504870337325 21.948055086057927 0 0 0
288 1 18.91854313317692 3.8731808683412696 21.164521179414518 0 0 0
305 6 21.28923824315873 3.0960949675299405 20.953257115662083 0 0 0
383 6 21.880220359787312 4.305858679566877 23.266933918936044 0 0 0
645 1 3.223913419822694 6.942554702147076 21.301655062181545 0 0 0
126 6 8.783781781282572 6.072826775332476 19.003748669805983 0 0 0
682 6 6.134414465870824 4.528969853343361 19.360654121605453 0 0 0
640 9 6.605283256471146 7.217400176497934 22.4614404683491 0 0 0
649 1 6.613798870270675 6.942249308512754 19.487070766317217 0 0 0
657 6 6.045977616664074 8.723014017378613 22.792015912612204 0 0 0
677 6 5.445570206135093 6.314182796143283 21.79525889298796 0 0 0
681 6 7.906932613712271 7.359529864648253 21.41998160440069 0 0 0
673 6 7.128730562656854 6.607702916013657 23.928006377262687 0 0 0
100 9 13.230481890129969 7.168601984789594 22.34348391388648 0 0 0
105 1 9.96689042906563 6.864942197394906 21.035594809998663 0 0 0
117 6 12.585286946313579 8.610524444162499 22.883467408866156 0 0 0
137 6 12.22400627401448 6.140842906577232 21.57728172939166 0 0 0
125 6 10.31160698155337 9.346576573819839 21.450273105327557 0 0 0
133 6 13.65981554587792 6.380218894556412 23.88084749897363 0 0 0
141 6 14.390407913649863 7.551314332698401 21.34173107449241 0 0 0
375 1 16.854713885536842 6.994358553330012 21.27676399653345 0 0 0
113 6 15.382857434964325 4.428658937784323 24.05237965879907 0 0 0
416 8 16.226510294357578 7.039866190574777 23.666119406404835 0 0 0
370 9 20.12448736261141 7.206516763310967 22.37001011223334 0 0 0
387 6 19.21158899527613 8.455185466653495 22.805336457318695 0 0 0
407 6 19.076657336531113 6.306801792012176 21.466385225321655 0 0 0
411 6 21.35310080234669 7.66687386707247 21.45951093494737 0 0 0
403 6 20.607980100066055 6.438874080078818 23.81574235743933 0 0 0
686 8 2.9624518091328556 6.5786134156423595 23.788848236478014 1 0 0
687 4 3.6099810470030835 6.601447905452582 24.556503881527018 1 0 0
644 1 4.5500778185529915 10.050391887402343 19.430562523472172 0 0 0
108 1 8.030049050092193 10.379910862436814 21.535625513987874 0 0 0
195 1 6.028826925208759 13.390718332916126 21.494658489035103 0 0 0
227 6 8.380848552479726 12.707410188930576 21.64864798284519 0 0 0
632 9 4.9412652212157875 9.899958656383463 22.523485743443807 0 0 0
751 6 5.634923752224595 11.09480719871713 21.730969006119917 0 0 0
190 9 9.472649520887888 13.637255270083992 22.357811407559154 0 0 0
218 8 8.800800139550798 10.653818232418981 23.906167538591596 0 0 0
92 9 11.692375281637608 9.771573783308256 22.317672274651866 0 0 0
211 6 12.494669986174383 10.651614456166083 21.09406779639444 0 0 0
223 6 10.0711238509887 12.949119579716491 23.719040790398854 0 0 0
465 1 12.746331659663571 12.963043934196419 20.56819428124893 0 0 0
203 6 11.507569085367242 10.703845804561386 23.784055557139094 0 0 0
362 9 18.33032990753895 9.820167193826965 22.224798555881762 0 0 0
378 1 14.876461368113679 9.762985014133701 20.68944875530709 0 0 0
395 6 17.09887742356572 9.380268705368168 21.25856632979056 0 0 0
460 9 15.704589191779418 13.104588303760323 22.013291875738254 0 0 0
493 6 16.080102503026488 12.289158361307411 23.434102251150552 0 0 0
497 6 14.955148759348218 12.156454513791076 20.99710698920348 0 0 0
456 9 17.472111586351787 11.929898785984792 24.144826776586775 0 0 0
473 6 17.985373265796067 10.508874033251598 23.714308632900032 0 0 0
481 6 19.396589329044083 10.690256222249872 21.41210779871628 0 0 0
648 1 21.622406427118914 10.09342618421867 21.240315801435255 0 0 0
730 9 22.671783820714115 13.356999183701271 22.53444144039098 0 0 0
735 1 19.611678941577814 12.997664074606895 21.46353288688701 0 0 0
739 1 22.925464246656972 13.11154534344078 19.24848272305785 0 0 0
767 6 21.919513107724168 12.286078665259158 21.554937122982256 0 0 0
776 8 18.54199357921277 13.140106026713191 23.792093827433682 0 0 0
763 6 23.16548505748323 12.484249921229015 23.984044235174853 0 0 0
665 6 23.978958204711788 9.486563688877087 21.61401421586616 0 0 0
743 6 4.454947733454377 10.33106041315507 24.144161787601394 0 0 0
236 8 25.770775875239554 13.007673020558515 24.009754552897235 0 0 0
31 6 8.66725873151612 16.859701170547474 21.29691301065751 0 0 0
182 9 7.7916310972481 16.201282774921054 22.47799599879881 0 0 0
207 6 8.752408287135827 14.980766310730544 23.08689409445502 0 0 0
23 6 7.775619433437348 17.156796098183456 23.790980569247882 0 0 0
231 6 10.617213939916166 13.956818331941125 21.195764427196774 0 0 0
293 6 13.315027085724074 16.573231616230828 22.959772970799985 0 0 0
468 1 10.938134378919338 16.280823506973597 20.88385060967371 0 0 0
485 6 13.10096722375872 15.266367977777419 20.822222723726973 0 0 0
301 6 15.275731161309816 16.68332812160267 21.25593601343829 0 0 0
452 9 14.20689807699511 15.737006922622227 21.92449719030093 0 0 0
477 6 14.67951880527745 14.282502887597042 22.64013212893333 0 0 0
501 6 16.961742337345992 13.590550069234798 21.27852428283278 0 0 0
738 1 17.548758322697488 16.13231383880119 21.10516652210924 0 0 0
785 5 17.48725092086081 15.992049694747072 23.74510505370155 0 0 0
786 3 18.03562386190881 16.776616606226902 23.819115692721393 0 0 0
787 3 18.10974396132088 15.239546276634284 23.711154448545436 0 0 0
571 6 21.977090837273565 16.7211274164434 21.719280085432285 0 0 0
722 9 20.94296515945521 15.812566745979277 22.600599375758254 0 0 0
734 1 20.80900010239125 16.077223005604623 19.29171398701674 0 0 0
747 6 21.606741104299747 14.401224413599447 23.160766849016838 0 0 0
755 6 19.671034104977114 15.351877689957288 21.662521625144475 0 0 0
563 6 20.472759791852038 16.649608179467542 23.97723788966226 0 0 0
771 6 23.990367029596904 13.955457067831674 21.78953598990244 0 0 0
198 1 24.278791082855477 16.33503498643497 21.512024024765182 0 0 0
215 6 26.661044274134774 15.699361860290365 21.84507840026497 -1 0 0
245 5 24.207561686647367 15.91733608048376 24.19287997235016 0 0 0
246 3 24.273055907614513 14.93717510563033 23.951502411876465 0 0 0
901 3 3.727191996497414 1.2210121278533514 27.823412623974114 0 0 0
902 3 3.269360506521143 2.2200618430535943 26.68604241706347 0 0 0
903 5 3.725874080461601 2.190919200262409 27.582748754744827 0 0 0
1000 3 2.188555447196083 2.4036572610317277 24.695854010614013 0 0 0
1001 3 1.349581822961619 1.607151769730374 25.655821997656908 0 0 0
1002 5 1.919934750172103 2.417646357534839 25.621100567386097 0 0 0
1462 3 4.089363316043935 3.7334560886655366 28.214829236103 0 0 0
1619 3 1.7122663788849724 2.0074434773264516 28.960567481703062 0 0 0
597 4 7.573690122546302 0.24822630410132696 24.448564174758197 0 0 0
607 3 6.118175218573628 3.4104798955123226 24.2330091667541 0 0 0
1816 3 6.534127721844658 3.297604346231009 26.521366134218873 0 0 0
1817 3 5.63299813126056 2.213798662799158 26.910646297465163 0 0 0
1818 5 6.5286182673189375 2.3600257892832373 26.603506599812118 0 0 0
1999 3 7.9008496274552895 1.2955560635978705 26.168387120573037 0 0 0
2000 3 9.163049542223616 1.099306880647749 25.454602953159817 0 0 0
2001 5 8.428944193564854 0.5638077019650019 25.76153134319218 0 0 0
973 3 8.967461278739036 1.637847834671889 28.02302607935079 0 0 0
65 5 14.40818424643858 1.9799250605984016 26.22981845049673 0 0 0
829 3 11.305854659577989 3.3152069658991548 24.634172054523624 0 0 0
1777 3 11.804720564353374 2.3797722012141485 27.83862761532459 0 0 0
1778 3 12.548457394859037 2.3361159913018694 26.51166340333202 0 0 0
1779 5 11.685953129083655 2.175661673213405 26.878202452525905 0 0 0
629 4 11.830594741082768 0.4995998602230005 26.585425675383583 0 1 0
66 3 14.707954912550626 2.0592842395222464 27.198065806838166 0 0 0
67 3 14.894418646662025 2.6985806105129897 25.88204985959829 0 0 0
335 5 19.27235992363514 3.3746497533191864 23.66553351357881 0 0 0
336 3 18.939937511075154 2.7443119621808387 24.2813818342552 0 0 0
337 3 20.236699869390073 3.309876067945601 23.70596298583082 0 0 0
1083 5 18.025107772991035 3.245117445853606 27.194390878801215 0 0 0
1486 3 14.964703419232276 4.568069538235344 27.63308192463984 0 0 0
1487 3 16.426995923815912 3.7727025295190306 27.624549301477696 0 0 0
1488 5 15.516532755397087 3.89069727649792 28.06318555157412 0 0 0
1523 3 17.804805105455713 5.01574760384173 24.78700677620702 0 0 0
57 4 13.967094697643574 1.0123283738856974 24.508990875172486 0 1 0
1856 3 16.625985480320683 0.707543497701867 28.37455595405963 0 1 0
326 8 0.00971202492754486 0.5204630169595728 25.561730278691243 1 0 0
1082 3 18.58861134666576 3.836608474138639 26.655515778409512 0 0 0
1396 3 4.431666855662519 5.759825599053844 26.91333231770909 0 0 0
1397 3 4.846093202125439 5.467475366744434 25.46400349028696 0 0 0
1398 5 4.786158109630609 6.204261907556566 26.08232561619463 0 0 0
1464 5 4.265724868162316 4.675901341514245 28.291923348331967 0 0 0
1205 3 4.607832351693929 8.250812247672348 27.090591310189108 0 0 0
636 9 8.110668659707349 5.554553108550281 24.594663499313924 0 0 0
668 8 7.843400445613541 5.220786711745809 26.17938170719463 0 0 0
719 4 6.982819737713273 5.5980194701480475 26.470001487244154 0 0 0
1564 3 8.979826461133099 8.207318284267286 27.06160177707263 0 0 0
1566 5 8.678759710846432 8.436281532033775 27.952170172220146 0 0 0
1892 3 8.756962841331864 7.59730487319787 29.298847131376142 0 0 0
146 8 9.680253658827514 6.2096515224301125 24.680081725617896 0 0 0
147 4 10.37159823254997 5.653409044453959 24.208724276896966 0 0 0
830 3 12.031728120335439 4.647199986571586 24.712450264301665 0 0 0
989 3 12.38415696464849 7.874033137286629 25.048130343091195 0 0 0
990 5 12.50215818115363 8.52951602866656 25.76709361047709 0 0 0
1342 3 10.897682707513399 8.791994469095245 25.48593333808659 0 0 0
1343 3 9.765439919015819 7.734400840918655 24.956394361554867 0 0 0
1344 5 9.903028708266055 8.538707863312704 25.546834438488784 0 0 0
1624 3 12.69712346224451 6.100101710034382 26.08961256307108 0 0 0
1625 3 11.336766482040314 6.523554764952873 26.46770420893857 0 0 0
1626 5 11.913097640309989 5.698910795926635 26.457985816996057 0 0 0
1003 3 12.708286271707074 8.919296667789547 29.557096444800976 0 0 0
1594 3 12.727134076379205 5.760232183524843 28.426996681157902 0 0 0
96 9 15.170418632776087 6.011092354224249 24.444353917919752 0 0 0
128 8 15.369028080115294 6.0472343428286415 26.04481533557969 0 0 0
179 4 16.075204124042685 6.5396139239647635 26.523525880393077 0 0 0
417 4 17.042173493926217 7.320996532076394 24.13060259109679 0 0 0
985 3 17.50939546815973 7.699636003190868 27.48251690958899 0 0 0
986 3 17.65732659744821 6.137168494683847 27.791265107675354 0 0 0
987 5 17.059778761701452 6.8929866088857406 27.948802432428412 0 0 0
1524 5 18.30064025836048 5.525070590252389 25.466320069157423 0 0 0
1598 3 15.275468375551348 4.279775204774381 29.74488562933591 0 0 0
398 8 21.91949071687668 5.4039268510572285 25.79341149510419 0 0 0
449 4 21.910172885298785 4.510654280518856 26.190730592301207 0 0 0
366 9 22.00181759241708 5.64045496240904 24.15792889638693 0 0 0
696 3 21.2511128259143 9.300776985119725 25.660314839054077 0 0 0
1480 3 23.21883679221909 8.661931640898691 26.509065784727266 0 0 0
1482 5 22.899862756316278 8.798893595544488 25.573499168551983 0 0 0
1493 3 21.04167762061031 6.3754274869562275 27.431687501523722 0 0 0
1494 5 20.615082225302206 6.590297078896047 28.25906586500673 0 0 0
1522 3 19.137857660843252 5.736471381744739 25.05647205563912 0 0 0
1206 5 4.040614014036793 8.641680881457468 27.801434526456354 0 0 0
1204 3 4.703230459540438 9.373997193472858 28.13900104383375 0 0 0
237 4 5.988606062033604 13.368136304205331 24.747755974352298 0 0 0
269 4 8.879965696735066 9.770104471378383 24.333274960343118 0 0 0
1099 3 7.722399712245614 11.417210144002372 28.093206976052496 0 0 0
1100 3 8.99735301709062 11.211354088051678 26.97139927322758 0 0 0
1101 5 8.580002146376412 10.983566388486866 27.839495022633056 0 0 0
1565 3 8.470929972768298 9.410718180520371 27.86119513755617 0 0 0
515 5 6.239380033427294 14.37878921197884 29.451231430778613 0 0 0
1216 3 5.1962129884131025 11.131507083901402 27.447942829784495 0 0 0
1218 5 5.685116724532503 10.886277084750356 28.282451251656756 0 0 0
1442 3 9.402490927456883 11.694478489406091 29.329028350736603 0 0 0
988 3 13.06321337397897 9.20927524184336 25.423404561602847 0 0 0
186 9 10.177960883395642 11.459649758389116 24.375499208121315 0 0 0
506 8 10.410320454170018 11.651020250040542 26.068739114351963 0 0 0
507 4 10.637998932600768 12.559916904727265 26.3645401827878 0 0 0
425 5 14.190780942683864 10.867520055286763 26.06867996533488 0 0 0
426 3 15.12193485202683 11.014055684272364 25.807938654526623 0 0 0
427 3 13.735207679312621 11.712511388051789 25.903445069717723 0 0 0
488 8 17.117945806473216 11.761198473463184 25.75994374842283 0 0 0
539 4 17.379448004544745 12.491762509119946 26.321133268273982 0 0 0
1552 3 17.557989878846904 9.798247802939123 26.538294452001814 0 0 0
1554 5 18.10077843459121 9.14795266590474 26.974283888642162 0 0 0
1645 3 18.69480517719054 10.462710844725994 28.606547377916847 0 0 0
1646 3 18.59036753671049 12.014643930256005 28.654349268366683 0 0 0
697 3 19.988257118601602 8.807646765959582 24.883510114478074 0 0 0
1553 3 18.955181018672715 9.16428582867554 26.433202027463707 0 0 0
695 5 20.28776646843306 9.517398546306731 25.535960879353045 0 0 0
777 4 19.38913875191846 12.906421958280761 24.265051455403984 0 0 0
890 3 19.654063358662402 13.09145157224408 26.94502593041051 0 0 0
891 5 18.85432576560366 13.335265214904183 27.508222059650134 0 0 0
1153 3 20.748072871468313 11.405618288198072 25.73587013688246 0 0 0
1154 3 21.575722416407892 12.550978091365206 24.989969408656137 0 0 0
1155 5 20.85693696795223 12.383879978623593 25.621685233907606 0 0 0
1481 3 23.39795628342047 9.596548643649529 25.309285235233197 0 0 0
758 8 24.72461909818492 11.924636190281896 26.165886601571096 0 0 0
809 4 24.561762545711645 12.763036280133468 26.615842071422453 0 0 0
726 9 24.6097060421432 11.90040153870019 24.4956065234506 0 0 0
327 4 0.0794508835539805 0.08531835344018096 26.434247658405624 0 1 0
898 3 7.703360915187611 14.590183515629143 28.4709019737148 0 0 0
899 3 8.497990902710018 14.522803888562576 27.03231438901989 0 0 0
874 3 7.983512176923656 14.708746729679484 24.80586138185685 0 0 0
875 3 7.076865654697647 15.30130675716331 25.895314962628856 0 0 0
876 5 7.416612031730341 14.420405859210314 25.57819610425324 0 0 0
900 5 8.561914204778976 14.79924975459908 27.95763478439482 0 0 0
1390 3 8.74420022498107 16.483685135211488 28.03052738453445 0 0 0
1391 3 8.207212586647204 17.884076525372684 28.50635366254309 0 0 0
1392 5 8.88720438807792 17.447249683057798 27.96763777846581 0 0 0
1195 3 12.323413747927255 14.009437758234458 27.796792610722733 0 0 0
1658 3 12.004838740816448 14.280432104541095 25.932177500231365 0 0 0
276 9 13.694630716491131 17.84568842984035 23.969060236771053 0 0 0
308 8 13.723458176702088 17.241810583058744 25.431585924541277 0 0 0
1642 3 12.617102928274335 17.7938578236735 27.012571789682227 0 0 0
1643 3 11.232209838345518 17.855479467559483 27.786881058611943 0 0 0
1644 5 12.16352039949225 18.11534350743714 27.806033320087334 0 0 0
1657 3 10.39029884406099 14.304343735121808 25.66003904661942 0 0 0
1659 5 11.060710245100267 14.202572971741057 26.365336263922885 0 0 0
1197 5 12.92756653896527 14.166257024473381 28.610623824446925 0 0 0
359 4 14.2753199295339 16.466962378742508 25.675813939236992 0 0 0
1102 3 14.327031814059808 14.197357200623397 25.906557431857117 0 0 0
1103 3 13.83188274640946 14.227896007773305 24.435102826283874 0 0 0
1104 5 13.510002478087692 13.916636368542823 25.318922158762614 0 0 0
1501 3 16.282982864704557 15.3359733841293 25.37416258067085 0 0 0
1503 5 15.671784618747186 15.172803293081648 26.15355128244379 0 0 0
1502 3 16.16809578192101 15.595786486947725 26.945138948646207 0 0 0
1673 3 17.585062448752222 16.162544590015266 28.317153024680493 0 0 0
889 3 19.019001573120274 14.264342620891076 27.703842584551733 0 0 0
1436 3 19.311469743601346 16.67147315520951 27.024200885435476 0 0 0
546 9 20.28754213916275 18.184892177109816 24.446469048098603 0 0 0
578 8 20.143790436068926 18.211503514043727 26.12344443414846 0 0 0
944 3 23.52801779349556 15.254693219718526 27.255962043399617 0 0 0
1372 3 23.44035197524086 17.44524148150405 27.36268212349641 0 0 0
1373 3 22.046132634389515 16.840630148577517 27.283057250794517 0 0 0
1374 5 22.969066674241805 16.672635138840732 26.968164979145755 0 0 0
1435 3 19.65688713816792 16.695294205146716 28.63585056773301 0 0 0
1437 5 19.27795087288215 16.183395865943623 27.878441002037203 0 0 0
247 3 23.422522910961774 15.862956732633549 24.723309942723827 0 0 0
945 5 23.833023556306692 14.307610675364003 27.562091271957737 0 0 0
6 9 27.25837589004523 18.257775340837128 24.638802231091475 0 0 0
38 8 26.207243662108876 17.51098091729419 25.697430707995306 0 0 0
89 4 25.42302646472248 17.177958115275402 25.096803790902637 0 0 0
943 3 24.566195984915613 14.552974629958666 28.174416809652932 0 0 0
1855 3 17.339303695030488 -0.11127980662736217 27.212033430719742 0 1 0
1857 5 16.68353568750977 -0.1402633984433551 27.92411916302305 0 1 0
1027 3 2.6059817425216276 4.280139235030917 31.88022002595905 0 0 0
1028 3 3.9347028917630738 3.5671122729157494 31.52799490194377 0 0 0
1029 5 3.176106508335929 4.01243168717192 31.138181595915466 0 0 0
1618 3 2.1892343487082666 2.552521123725531 30.36409096124708 0 0 0
1620 5 1.3970288785751532 2.5003780164330847 29.756804026900262 0 0 0
1046 3 3.17000985892997 2.3770549592547328 34.02947359957442 0 0 0
1175 3 7.431432185178502 0.5128703780496768 29.77277242866469 0 0 0
1176 5 6.6794782664884975 0.061651764443242774 30.256692558747684 0 0 0
1253 3 5.747956530890395 1.3006032862562058 31.097305784974143 0 0 0
1254 5 5.356171352699935 2.1269637996306434 31.520632200326883 0 0 0
1387 3 8.42337304861677 4.802296871187428 27.958570046815225 0 0 0
1389 5 8.971105962190238 4.624882349433954 28.859126492275536 0 0 0
1933 3 7.349345220687356 4.601590820840926 31.708029176608047 0 0 0
1934 3 7.601093684459325 4.602108943932654 30.16747328875667 0 0 0
1935 5 6.905526705565067 4.474988505573879 30.861924444400486 0 0 0
1547 3 9.885744125701116 4.0285881684736315 30.332327991303856 0 0 0
1388 3 9.023058653479234 5.573205211493649 29.21259327672392 0 0 0
1174 3 14.832790661410765 17.73735289318889 30.08139368500568 0 0 0
1252 3 5.877625675369787 2.8967907459779694 31.246863340563063 0 1 0
975 5 8.760220519186293 0.7414306339501121 28.47859763008957 0 1 0
1449 5 8.104964298404148 2.609721048730952 35.16576702178087 0 0 0
1264 3 11.518222711985294 2.770379655848226 30.475275803894082 0 0 0
1265 3 12.771961900982069 2.0071765800244887 30.037684399695344 0 0 0
1266 5 11.800617848760943 2.160303952184311 29.798316504067973 0 0 0
1514 3 9.592720190136207 0.6773321947816333 32.49150401572162 0 0 0
1546 3 10.586187595808388 4.603130729530292 31.627621382187247 0 0 0
1548 5 10.184819054025485 3.828365979914794 31.255801079973516 0 0 0
1515 5 8.948146473770866 1.3701446605685874 32.4546196153368 0 0 0
1669 3 15.219768880531092 1.546146128217175 30.09001573240214 0 0 0
1671 5 14.354365102522804 1.330183553219338 29.71067376542087 0 0 0
982 3 25.87442870690297 18.254020937787587 32.56298200490618 0 -1 0
983 3 18.550830714543505 0.6549292088842145 33.55250054269067 0 0 0
984 5 18.11182144457085 0.6180855565439666 32.689726521293736 0 0 0
1081 3 18.479717041668877 3.2690500774144695 28.089129877346327 0 0 0
1670 3 14.077113743674552 0.4225743082108296 29.84722273080713 0 1 0
1831 3 17.917493471907427 1.5921727582132796 30.52986355772532 0 0 0
1832 3 17.020238532776553 2.6842730416405707 31.169150671776272 0 0 0
1833 5 17.228397380800413 2.302095679713983 30.278670266218402 0 0 0
1957 3 16.095240272093854 1.2223978438896308 32.87746885984716 0 0 0
1958 3 15.946013248432763 2.764063654322447 33.23375925020585 0 0 0
1959 5 15.42921568966739 1.9506131843118684 33.00676670663748 0 0 0
1048 3 19.812024288086192 4.000489278915461 31.74421655656918 0 0 0
1050 5 20.322128729206515 3.7790786014432403 32.52565418925524 0 0 0
1885 3 20.440284682778035 3.6958485955778086 29.60131951866493 0 0 0
1886 3 18.793391591868925 3.95605786213679 29.846919113070776 0 0 0
1887 5 19.6075307737363 4.2346935197332485 29.32597935571554 0 0 0
1463 3 3.8684353884521387 4.961485250458235 29.127370480643688 0 0 0
1051 3 21.621275814953485 6.300194631055922 33.86308916785342 -1 0 0
1402 3 3.943404269390707 9.108367658083221 32.6633590053117 0 0 0
1404 5 4.068680415576541 8.124067979101655 32.804647700951385 0 0 0
1499 3 4.8234388115003 7.269918263590762 31.41792824230848 0 0 0
1403 3 3.4665151138835064 7.864518973213781 33.52816943426649 0 0 0
1498 3 5.749449803963293 6.1617698882565355 30.728441790498078 0 0 0
1500 5 5.58770205010943 7.124668282721675 30.75827145152486 0 0 0
155 5 6.9346506308319835 9.59403523234205 30.784357834839636 0 0 0
156 3 6.7674685586573045 10.417356206470242 30.34368672846551 0 0 0
157 3 6.202102828542282 8.981907930812064 30.4513831237469 0 0 0
1298 3 8.699420078635997 9.057583728477447 31.21486492413864 0 0 0
1891 3 7.707552571644842 6.909533710647509 30.265210862167784 0 0 0
1893 5 8.692770429668712 6.97860092680849 30.123049888042924 0 0 0
1429 3 8.981826389579597 6.140073764327119 32.24498288785744 0 0 0
1162 3 13.734669670955059 4.921560813805032 32.09111034363059 0 0 0
1164 5 12.992750107963037 5.037096964101526 32.75871990254715 0 0 0
1004 3 13.989131034100868 9.194045621260551 30.376681138127843 0 0 0
1005 5 13.421339674912575 9.58172393023683 29.71228164286649 0 0 0
1117 3 11.42277972250336 6.337933990816956 30.70253429703633 0 0 0
1118 3 11.833432144720025 6.578000952923128 32.22277154718226 0 0 0
1119 5 11.081699827374873 6.654486053671657 31.603937417306742 0 0 0
1297 3 10.096145401169048 8.349361014011025 31.36483489297947 0 0 0
1299 5 9.592199131688943 9.191766492644987 31.590190547739404 0 0 0
1416 5 12.893604874728087 9.494805949578582 33.64720274085751 0 0 0
1595 3 13.583434966700233 5.557008718394447 29.615066100709537 0 0 0
1596 5 12.720939507008659 6.058477455307605 29.357064387588565 0 0 0
1599 5 14.961699683891934 4.863255195720398 30.508058535492314 0 0 0
841 3 17.642607769534347 6.887935999347414 31.588232964102126 0 0 0
991 3 16.44003483450803 7.349313765196007 29.544528591811535 0 0 0
992 3 15.576786272764867 7.915773040675683 30.819804639603582 0 0 0
993 5 16.217562506838 7.258276465907519 30.48510385217063 0 0 0
1093 3 17.68085783890617 4.998046472016461 32.792551570138116 0 0 0
1094 3 17.41839879397169 4.4801174518147295 34.19666807046655 0 0 0
1095 5 17.515739531468725 4.10961859160941 33.28076697514271 0 0 0
1219 3 14.036323597912943 9.296785511260648 32.566469765950494 0 0 0
1221 5 14.83858926413428 9.078900762239032 31.964701487321577 0 0 0
1597 3 15.499120136911797 5.730740532957437 30.303966230083248 0 0 0
1652 3 17.577834858429245 8.469564561313394 33.15019488232544 0 0 0
1163 3 13.512496265369126 5.4335485067696725 33.46786970584656 0 0 0
1653 5 17.50866328029567 9.34124073010613 33.62713114380928 0 0 0
1049 3 19.65175345091168 3.9121991377153003 33.18629901040337 0 0 0
843 5 18.131927936161784 6.806762195502493 32.41957492620666 0 0 0
842 3 19.064267088861577 7.120278577800999 32.2139832137614 0 0 0
859 3 21.643999107680855 7.513718301531471 29.128731453480874 0 0 0
860 3 22.950462707577387 8.170032380271536 29.568664768303897 0 0 0
861 5 21.972795969317563 8.25666160360377 29.70966767714351 0 0 0
1492 3 20.203817625737784 5.792525969784784 28.611621557895685 0 0 0
1636 3 21.138608324048267 7.667416072086092 31.44242237628465 0 0 0
1638 5 20.684872766104792 7.600326002895235 32.29991079147575 0 0 0
1637 3 21.025838267599696 8.42217965874103 32.80837441656051 0 0 0
516 3 6.928392334194478 14.067723752655656 30.10324983093697 0 0 0
952 3 8.76061041507722 12.862793397178615 30.829034910628014 0 0 0
954 5 8.233511576093749 13.564713398743809 31.201764397013747 0 0 0
1217 3 5.376360842937065 11.538762211756115 28.921995844757404 0 0 0
1306 3 7.319872549007159 12.53823244806653 32.683032709846465 0 0 0
1308 5 6.551656138545814 12.577978090766381 33.24634598424912 0 0 0
1733 3 6.866581464315732 9.839904992792382 32.51698192326182 0 0 0
953 3 8.840348423976156 14.320671848624798 31.4127983814572 0 0 0
1734 5 7.117102713625535 9.955468829981484 33.498096376125126 0 0 0
1196 3 12.954243362486991 13.294500646034749 29.051349278988738 0 0 0
1378 3 12.065892814000579 13.914978689321156 33.62430965871486 0 0 0
1381 3 12.54687986716456 12.251431206458296 32.39026189146116 0 0 0
1383 5 12.935184892290799 12.403035627320145 33.284876965191344 0 0 0
1415 3 11.98482914131023 9.922374439392502 33.69755400612384 0 0 0
1441 3 9.686124495441215 10.884103094842553 30.592622013738485 0 0 0
1443 5 9.823219340110857 11.738466975562691 30.185291905410363 0 0 0
1525 3 12.889827324757878 11.105242985594375 30.20292477691364 0 0 0
1526 3 11.701785200379385 12.106346655122367 30.23776395494074 0 0 0
1527 5 12.676405391865023 12.07273559395115 30.443879284821715 0 0 0
1382 3 13.88262331343827 12.40073750770425 33.09507035660676 0 0 0
1007 3 9.914992375509415 9.85619828271913 32.90816138792928 0 0 0
1651 3 17.449377039515507 10.095901673153715 32.997278136565846 0 0 0
1096 3 16.742622461432095 11.844221507153916 31.979420736093598 0 0 0
1097 3 17.387251098311744 11.128096493523925 30.726790831927563 0 0 0
1098 5 16.980366217433353 10.96345568080856 31.597322799033034 0 0 0
1220 3 15.446822377679716 9.836573972712403 31.944382279441605 0 0 0
1631 3 15.78349660923968 13.733655432768424 32.53546862695048 0 0 0
1632 5 15.562085381293105 12.888140153202023 32.97042683379636 0 0 0
1647 5 18.75293229125447 11.215051162997232 29.23964504828435 0 0 0
1226 3 20.71586201570941 11.486165360311583 31.245191413421647 0 0 0
1227 5 20.2851796721561 11.889096967677222 32.040062346708794 0 0 0
1798 3 20.3266535517238 10.988789658898051 29.400634675594723 0 0 0
1799 3 21.56041520799918 9.973274336074363 29.710454505332404 0 0 0
1800 5 21.32616423940642 10.943649845978284 29.65752009506176 0 0 0
1930 3 22.593324102799922 13.609688955580399 28.52541724077175 0 0 0
1931 3 21.880678503501763 12.433220176080704 29.366210864307682 0 0 0
1932 5 22.330186950899343 13.34425821399092 29.46369583087595 0 0 0
1945 3 19.116167547853507 13.547657245433033 32.42056566257196 0 0 0
1714 3 23.957894940933272 12.677582420130795 30.003894934768894 0 0 0
1412 3 24.37006197122842 11.639037000819481 32.112159349321615 0 0 0
1715 3 25.429904931830464 13.208532574805202 29.82897351528921 0 0 0
1716 5 24.877801806851004 12.459339501413957 30.14904942623132 0 0 0
1106 3 25.477937119008644 13.573552086558777 33.44766940855074 0 0 0
1413 5 24.052576946158954 10.920185631788792 32.72031991531848 0 0 0
1055 3 9.450422259306457 17.043506290948486 33.04653412704395 0 0 0
1056 5 8.936809173418 17.36276596267787 33.83543136928846 0 0 0
1868 3 19.82492515345377 0.060913149870899186 30.886606189065024 0 1 0
1869 5 19.87946157203222 0.7368437713536757 30.11850532668535 0 1 0
1310 3 12.480431483862782 15.369118178869035 29.54813153717376 0 0 0
1380 5 11.65029965514121 14.837294041780945 33.56593658091571 0 0 0
1311 5 12.48105521008395 16.29523526697016 29.945404224652197 0 0 0
1837 3 10.460465221756008 15.19814074192591 32.38951176506436 0 0 0
1838 3 10.556732668589198 15.854576258213939 31.052733549135482 0 0 0
1839 5 9.906604730752013 15.622591570973642 31.72493986153364 0 0 0
1888 3 13.01726267576393 16.46911259789345 31.521440210697033 0 0 0
1890 5 13.162032736654165 16.77693054216236 32.49253879746037 0 0 0
1309 3 12.187250679273017 16.89483708845016 29.194826842995468 0 0 0
1379 3 12.29130809644301 15.448001385099468 33.13317645250797 0 0 0
974 3 8.72651476698721 0.23529380671928038 27.628853714660067 0 1 0
1663 3 16.639592093367874 15.801372860297061 31.24651471146852 0 0 0
1664 3 17.574855918129085 14.664078281298407 31.322547946879297 0 0 0
1665 5 16.71211169424125 14.90916326534937 30.883189819605764 0 0 0
1672 3 16.33429937239824 15.58956911446862 29.061399072404175 0 0 0
1674 5 16.603901145587614 16.195298815051437 28.341351266843176 0 0 0
1889 3 14.141146318998691 16.78106725794428 32.575757727824865 0 0 0
839 3 15.693219504612086 18.08432714627216 32.15304153841396 0 0 0
840 5 15.867644543752524 17.17262041371697 32.53984141366884 0 0 0
1262 3 22.490585226034312 14.53909338947023 30.887922065269315 0 0 0
1369 3 11.276980954809575 0.1708806489166404 29.721139296686374 0 1 0
1370 3 19.930190129592507 17.536475736076248 30.626467298103574 0 0 0
1371 5 19.905010731358086 17.906991030813046 29.711976083873534 0 0 0
1744 3 19.951498630007993 16.75022035195302 32.83944462511077 0 0 0
1745 3 20.961457080913902 15.943450082306894 31.91403712463507 0 0 0
1746 5 20.01012228136583 16.314261399992816 31.962563524862748 0 0 0
1946 3 19.0252329336312 14.989883040273503 32.66118596673212 0 0 0
1263 5 22.55017351404863 15.079345854774383 31.674981434918614 0 0 0
1655 3 22.958926290521845 17.595112474690673 33.32312899575144 0 0 0
1656 5 23.55794697927074 17.578342163196965 32.53885678144884 0 0 0
883 3 11.93080322968663 0.7586752050031855 34.09392447365242 0 0 0
1867 3 0.41060456693640296 1.2791959297008628 30.153133149335424 1 0 0
517 3 26.443224287260357 15.304587261624231 29.59125867012756 -1 0 0
1508 3 7.135322861452325 16.54611572432094 33.208016542718816 0 0 0
1509 5 26.824483426453803 16.21830199252024 32.57625784500986 -1 0 0
958 3 26.277173191981134 17.73191203055442 29.554643912330352 0 0 0
959 3 26.63145276532264 16.900568207086053 30.97910433663726 0 0 0
960 5 26.617096134172094 16.942706336512124 30.016813172390147 0 0 0
1261 3 22.540525885800495 14.44752817006962 32.404425148648635 0 0 0
1654 3 23.47843956430554 16.669812125432244 32.23146304864343 0 0 0
979 3 3.342269722981209 0.3092049414562246 37.44805118893645 0 0 0
1045 3 1.7425922387971853 2.924274640325653 34.24344717184813 0 0 0
1047 5 2.654523137690622 3.243706868646582 34.21916763339791 0 0 0
1789 3 3.177933413305741 3.92910221346817 35.91155114172702 0 0 0
1834 3 1.5815068606955283 1.8466693173679993 37.63106172247815 0 0 0
1009 3 0.7717631742337506 0.6332259091091028 34.30198327381543 1 0 0
1011 5 0.573305993186328 1.592590212454854 34.380863025607844 1 0 0
1835 3 20.795637486029253 1.9653285622177894 36.567907148486526 0 0 0
1052 3 2.162513986900066 5.121004400837951 34.49130300575485 0 0 0
1791 5 3.6208032622871373 4.522907436677627 36.56380496365001 0 0 0
1229 3 4.778165920911251 1.0650755626946993 35.68191067244559 0 1 0
1811 3 7.843826380074014 17.801296921597867 36.661176880511945 1 -1 0
1810 3 8.898168540537835 18.167001277561717 37.69228312886829 0 0 0
1448 3 8.953113373566238 3.162436767872369 34.93392316255056 0 0 0
1228 3 5.9433024797420355 1.3726334791770607 36.6988371049321 0 0 0
1230 5 5.00726895654873 1.085015930307689 36.63583252541963 0 0 0
939 5 9.981157418581713 2.157150631508837 37.65833578597143 0 0 0
1447 3 8.002353042398406 2.0348221696905178 34.3485744269127 0 0 0
1790 3 4.545730146706074 4.657436446926985 36.22734446956288 0 0 0
1861 3 6.252726573424834 5.268533896811385 34.93948513882215 0 0 0
1862 3 6.8655375286212665 3.903263241405608 35.23760507478075 0 0 0
1863 5 6.116378291716506 4.490162464063958 35.43685737215202 0 0 0
937 3 9.429075528305368 2.53438243685952 36.93943380346799 0 0 0
938 3 10.245908444700348 1.2457888592713735 37.24699944412053 0 0 0
1513 3 9.367920694377865 2.1318964609927016 32.04958554685895 0 0 0
1660 3 18.626850916301933 18.229419992507097 35.9015418882686 0 -1 0
1662 5 10.345628450230057 -0.21121841858458884 36.85733315486462 0 0 0
1724 3 13.509504311035467 3.316090709720339 37.6515368551194 0 0 0
1725 5 14.346359695417627 3.325511738129039 37.15685141336544 0 0 0
1753 3 13.273790963975724 1.9980712539958656 32.98435730849353 0 0 0
1755 5 12.387270254179935 2.4293243275433767 32.94678387320296 0 0 0
884 3 20.539686334049208 17.90846449263522 34.30747349139955 0 0 0
1661 3 19.106546776779147 17.865446857306274 37.35236972541813 0 0 0
1367 3 14.363621070877844 2.007145810405368 35.99108875801976 0 0 0
1368 5 14.706513393608319 1.2372340675025186 35.48235857368114 0 0 0
971 3 18.72599573534557 3.1672782731074864 38.768140416421886 0 0 0
1366 3 14.903326484407266 1.6346994586383934 34.61435401272475 0 0 0
1519 3 17.165912482867505 2.6039521824998597 37.56595127653683 0 0 0
1520 3 17.742775507594043 3.434823202996438 36.38041293708605 0 0 0
1521 5 17.85647818037086 2.587498244536195 36.829714209677036 0 0 0
1577 3 18.227850277255627 0.7120487005379121 36.02145498526591 0 0 0
1578 5 18.59163061052248 -0.13146659831094343 35.605450103363786 0 0 0
1723 3 14.976642811330318 3.0981413802492757 37.84472935057655 0 0 0
1743 5 16.298776803635395 2.9160404884127846 39.18343285170277 0 0 0
970 3 20.26555044023205 2.7570084835790407 38.653800785759785 0 0 0
972 5 19.58571949080861 3.029397843368373 39.294117277403174 0 0 0
1010 3 20.445137765248727 1.7487105538549061 33.57466796489836 0 0 0
1836 5 0.9799111571269354 2.433443899526471 37.27785070762032 1 0 0
1053 5 22.132109448994363 6.009610477734612 34.64121382459796 -1 0 0
1765 3 3.5827320832907463 8.234526619406186 36.50898262545186 0 0 0
1766 3 23.108454498076924 7.321142011444296 35.60850647477651 -1 0 0
1767 5 23.430813120047546 8.225701014007178 35.65134603610338 -1 0 0
1018 3 8.182096957846783 7.172351716064461 38.33264521356532 0 0 0
1019 3 7.340967080253284 7.12132982250672 37.04318693693278 0 0 0
1020 5 7.636873568137001 6.5488253186484755 37.81922183476116 0 0 0
1430 3 9.262144586295573 5.254710482444826 33.39482621027272 0 0 0
1431 5 8.53140539301397 5.744583384828283 33.027350709670635 0 0 0
1783 3 7.375913704826646 6.844388531043077 33.846137579844765 0 0 0
1784 3 5.856098173317532 7.401288025320201 33.72116247712368 0 0 0
1785 5 6.615217299801021 7.267826007290573 34.32532782411838 0 0 0
1952 3 6.285182758733521 8.939297813145444 35.70700196496882 0 0 0
1732 3 7.276849013349663 9.063435173684955 33.80459433147968 0 0 0
1414 3 12.776320148104233 8.635751166729381 34.13203553802966 0 0 0
1688 3 10.782105867836686 4.4308901358181645 35.02449270605296 0 0 0
1689 5 10.217884326857895 3.912014714874105 34.40118251287786 0 0 0
1613 3 10.923747081704676 7.033614866026816 35.44027811549857 0 0 0
1687 3 10.832795209931758 3.3906515334265617 33.80885110715149 0 0 0
1693 3 11.435324783488964 5.541428389676032 37.405793635552996 0 0 0
1694 3 12.370520617350632 5.414951294403534 36.20291629441899 0 0 0
1695 5 11.398912108754558 5.500416670132804 36.396835780574705 0 0 0
1754 3 12.617108120937466 3.3827572570897404 32.914028841340766 0 0 0
1212 5 12.69291885266605 5.910690555920234 39.45465907136886 0 0 0
1016 3 17.67995773345844 6.311807066685864 35.99260202576824 0 0 0
1017 5 17.89689934108945 5.344788657799131 35.97903369348315 0 0 0
1393 3 16.443612954956183 8.435794457913236 35.011765742292965 0 0 0
1394 3 16.125843632400848 8.110834985442267 36.61705232830718 0 0 0
1395 5 16.056943670960997 7.8341493486824465 35.66645750704521 0 0 0
1996 3 14.985513975444526 6.565915839185869 35.34657492595829 0 0 0
1997 3 14.654000770370008 5.055746158641664 35.73802822807402 0 0 0
1998 5 14.280573060225416 5.818337121652493 35.26109314109617 0 0 0
1843 3 15.61168713479738 6.834920274795049 38.81154678866378 0 0 0
1844 3 15.064403390123905 8.344179400638971 38.87100912226189 0 0 0
1845 5 15.748176425085903 7.764784643876322 38.513419437390425 0 0 0
1015 3 18.894750503799017 5.251088868821385 35.94435043196955 0 0 0
1510 3 20.28341322737952 6.629674756148548 38.00089026731486 0 0 0
1512 5 20.29776230254265 7.408073922891047 38.650214664580446 0 0 0
1903 3 22.36668712835433 9.224925278895753 34.822929402973614 0 0 0
1905 5 21.86319808669154 9.667064176132225 34.05153319908495 0 0 0
1924 3 20.872385844419536 5.527021396389081 35.90059424122154 0 0 0
1925 3 21.058150647450276 4.593402385342615 37.002301307937884 0 0 0
1926 5 20.382882486909256 5.213195164591944 36.656123557434995 0 0 0
1307 3 6.661351330671246 11.797527027156981 33.814445082099716 0 0 0
1456 3 9.464225712837 10.500668312336655 36.348188567129625 0 0 0
1457 3 8.015703234319574 10.441855856912065 35.87191557167452 0 0 0
1458 5 8.73610217721301 11.055705201145425 36.015679478805254 0 0 0
1518 5 6.194480219047333 12.820382675397495 37.90535618112152 0 0 0
1951 3 5.610958853602404 9.056359261595638 37.128076853631995 0 0 0
1953 5 6.167826369617813 9.546176563794942 36.450121791653245 0 0 0
929 3 4.9896541064925275 10.818476563610483 35.64038975781475 1 0 0
1516 3 6.69080730324025 12.490351132798825 37.14506328386057 0 0 0
1614 5 11.099760191544485 7.978897514318548 35.13076070694366 0 0 0
1006 3 9.689703990086922 10.667089528491058 34.24593782729224 0 0 0
1008 5 10.362834794561426 10.210056707326432 33.7434335131392 0 0 0
1345 3 10.402879958765991 9.108944360787344 38.069724720256374 0 0 0
1346 3 11.13063095223822 8.876466297336698 36.717254917351376 0 0 0
1347 5 10.796774152364979 9.632860676593666 37.29446813207184 0 0 0
1612 3 10.268380431582482 8.310326231720142 34.701525301129074 0 0 0
1823 3 10.416398185070436 12.75062226700238 36.89501091929634 0 0 0
1824 5 11.208457560539747 12.51640705962197 37.43595774474704 0 0 0
1630 3 15.828506713954999 13.056871544634586 33.907274431663325 0 0 0
1249 3 14.17440768275604 10.082942524261501 35.30968148715184 0 0 0
1250 3 13.386287523915763 10.862966231687814 36.366580801791415 0 0 0
1251 5 14.288173366630843 10.50806031478797 36.17728316498321 0 0 0
1684 3 16.981675506136558 11.347323231218516 38.660728048574335 0 0 0
1685 3 15.93503870204775 10.918097556347343 37.64375785429964 0 0 0
1686 5 16.73830609808267 11.375318805644286 37.74894207807474 0 0 0
1819 3 16.519895625355446 12.76922726188164 36.17766706670907 0 0 0
1821 5 16.091674508524665 13.445402229828808 35.61848438580324 0 0 0
1820 3 15.085629149713203 13.446753593829415 35.80236927353906 0 0 0
1126 3 18.604004941044526 10.001627554192018 34.69061903086307 0 0 0
934 3 20.177829628578053 9.145887739278091 38.207221306385684 0 0 0
935 3 19.77424509981421 10.035297408788582 36.991174761567386 0 0 0
936 5 20.36216875322611 10.06833312935191 37.85200424301914 0 0 0
1127 3 20.1732906047922 10.04892723086794 34.836181180478356 0 0 0
1128 5 19.315250225702158 10.409889118820436 35.22603671563301 0 0 0
1225 3 19.585971927751938 11.240306288241701 32.23448781399567 0 0 0
1904 3 22.54623876093451 10.30149339673036 33.62169109669495 0 0 0
1960 3 20.854306552152174 13.386151459886404 34.96462672614767 0 0 0
1961 3 21.550183191808966 12.87348662858323 33.664713832014776 0 0 0
1910 3 18.738719353024422 12.398559940338183 35.957674869899435 0 0 0
1720 3 22.135875591589297 10.865048696555919 37.33876631748678 0 0 0
1722 5 23.075435999533685 11.09975531989079 37.44263315068149 0 0 0
928 3 23.87308411243484 11.357374545124102 35.78221072538197 0 0 0
930 5 24.667028949442102 11.457527476566574 35.224344325506344 0 0 0
1105 3 24.078721592578244 13.647001192184144 34.27261126074778 0 0 0
1411 3 24.413086542168323 11.263388346826536 33.576490420854896 -1 0 0
1054 3 9.356864415699256 16.86489160495011 34.59270129269766 0 0 0
1468 3 7.400699795483027 13.666346831375714 34.60082211277726 0 0 0
1469 3 8.402397022731254 14.642729410016301 35.46698693608543 0 0 0
1470 5 7.546916270842436 14.127708884108278 35.47485192469406 0 0 0
1690 3 7.862382184112337 15.811174068885029 38.48080977829885 0 0 0
1812 5 8.354047326838716 17.382405008573087 37.407365202733764 0 0 0
892 3 4.682719712183443 1.4930203793188292 33.013895304465926 0 1 0
893 3 4.21546083642938 0.14402462630280205 33.649520153493015 0 1 0
894 5 4.198970537794332 1.1151977935439408 33.78239002491303 0 1 0
1240 3 10.737220854846893 15.455800693444942 35.011401317512906 0 0 0
1241 3 10.10183228425526 15.57066905788003 36.53882879602987 0 0 0
1242 5 9.97002745598774 15.584682642242223 35.58392480071951 0 0 0
1822 3 11.032187666990838 11.545121840636044 37.61463898486949 0 0 0
1874 3 13.619506032811453 17.90090458793047 36.665623241139436 0 0 0
1990 3 12.779161794641103 13.418559342216252 36.93875955815454 0 0 0
1991 3 13.56230490293064 14.856531543374704 36.69354333073968 0 0 0
1992 5 13.621907440125382 13.868536174144374 36.71716535839444 0 0 0
1947 5 18.40739167489299 14.188177214809942 32.72441943966067 0 0 0
1875 5 14.01490145879404 16.962803498138186 36.74701108977286 0 0 0
838 3 16.099187704756286 17.3960323634617 33.48674338437527 0 0 0
1031 3 16.207976911068037 14.731422549823014 37.283380181212465 0 0 0
1032 5 16.668142628863016 15.144370048509527 38.034628006322606 0 0 0
1558 3 8.257717535143163 0.03516354946643585 35.608197593650985 0 1 0
1559 3 15.552755971133626 17.356809322718348 35.57655424721654 0 0 0
1560 5 16.057801364147995 17.95608120994887 34.98723931164102 0 0 0
1962 5 21.672902806456836 13.534488910281832 34.3754613547821 0 0 0
1909 3 18.429963124802107 13.968982171768408 35.57817112170153 0 0 0
1911 5 19.07318556886084 13.312726637510938 35.83857559007868 0 0 0
885 5 11.621959312188936 -0.18787085006801468 33.999475902927216 0 1 0
946 3 21.802013544437862 15.55547342464338 34.53129637722123 0 0 0
947 3 22.36692126667509 16.732646060343598 35.510059368476234 0 0 0
948 5 21.87969366847624 16.55680414463385 34.64704265820808 0 0 0
1139 3 19.352420274813245 13.999086168178302 37.6044225200211 0 0 0
1675 3 22.91800286826514 17.143557035350632 37.88790019997149 0 0 0
1676 3 14.717128007603707 -0.09455937379280693 36.99752686948383 0 0 0
1677 5 22.370668700573813 17.62537073708311 37.21860463604257 0 0 0
1363 3 20.07867344096228 16.029819444120733 38.61350275995733 0 0 0
1364 3 20.950803625555604 17.347497305591673 38.170586101889064 0 0 0
1365 5 20.113505932956322 17.00037348351575 38.54082142351653 0 0 0
1507 3 26.242490872761493 15.543546634352287 32.96371353845471 -1 0 0
1107 5 24.66709587996925 14.157442204463898 33.63295269876282 0 0 0
1057 3 25.08073203433187 15.452222927895317 35.031901245978915 0 0 0
1058 3 26.46220647190737 15.504344273026438 35.729607501430436 0 0 0
1059 5 25.55893774266658 15.81414273881013 35.7612836305759 0 0 0
1340 3 24.776796132538834 15.858604533866517 37.365099599659644 0 0 0
1576 3 26.021972620902876 17.784423662791696 35.76842684456052 0 0 0
981 5 2.9434944282408377 0.6075788672635685 38.27253423243506 0 0 0
980 3 3.568611318517676 1.3355481996555165 38.50954247966243 0 0 0
1034 3 2.7048186096542213 3.378433876989398 41.66144003741624 0 0 0
1108 3 3.826404522032021 2.4790323159683876 43.30335113488534 0 0 0
1109 3 2.386088526575623 1.5205026159005006 43.34889501307984 0 0 0
1110 5 3.0390563177758265 1.9985431749129556 42.826579307575976 0 0 0
1504 3 0.547770498271737 -0.1903174040219119 43.665259015411216 0 0 0
1506 5 0.7185780656803287 0.7153996314599967 43.95151711436912 0 0 0
1035 5 2.8624907626054914 4.221148556408051 41.21143657639232 0 0 0
1312 3 3.8616513650367685 3.5262836870079735 37.88811806534151 0 0 0
994 3 7.21004264805056 4.059952989073714 37.90730534334215 0 0 0
995 3 7.572959773966429 2.985573668879253 38.93716957042082 0 0 0
996 5 6.815951206599538 3.367670714196514 38.44733757351839 0 0 0
1168 3 3.770685358658434 0.5336692139707848 42.54752016961532 0 0 0
1169 3 5.053268954564321 0.3163254984274403 42.99500500896209 0 0 0
1170 5 4.382544210966402 -0.23982708343246595 42.55762402024701 0 0 0
1313 3 5.047708829949248 3.1126446251528974 38.879214639971046 0 0 0
1781 3 6.638119183954507 4.550423374378614 40.726659743593 0 0 0
1976 3 5.567101100232226 3.0563241317125005 44.513461270205035 0 0 0
1977 5 4.741022045975568 3.5762871532441554 44.42160416201772 0 0 0
1314 5 4.106455796519496 3.140723666170342 38.7693648350275 0 0 0
1975 3 4.977409254527863 4.349963426377249 43.93202068530848 0 0 0
1178 3 8.338978847717096 0.5563346010204879 39.47858066726861 0 0 0
1063 3 9.377841670656833 2.52004044402924 42.73448973242061 0 0 0
1064 3 8.809586171696315 1.7045042576154859 41.54567876467213 0 0 0
1065 5 9.03116235367833 1.6358778087008787 42.517971168477835 0 0 0
1115 3 12.339301607919944 1.387290368010032 40.93148552366281 0 0 0
1116 5 12.329988240756274 2.342328690466707 41.16084821648084 0 0 0
1177 3 9.158213866325056 1.895963895496645 39.074277023076995 0 0 0
1179 5 8.565999069071852 1.5049509047194938 39.76495372674422 0 0 0
1192 3 12.025884868227237 3.266196322880831 39.60710524599319 0 0 0
1193 3 11.2349723626201 3.0882105147814354 38.23282811209327 0 0 0
1194 5 11.983296267332575 3.548649611771206 38.67484788251766 0 0 0
1076 3 10.641013644469933 5.133522089863099 44.25023132238339 0 0 0
856 3 14.875317581890068 2.767127228323865 42.84543407728889 0 0 0
1114 3 13.22606153996879 2.5981527590278297 41.461543179958596 0 0 0
1330 3 18.196263883088733 1.3366301367594817 41.47404291904027 0 0 0
1331 3 18.69635795653451 1.4316524203151149 40.02823750334926 0 0 0
1332 5 18.038599343431862 0.9464721109370051 40.602976692478556 0 0 0
1742 3 16.092489402263148 2.2238720642915717 39.83756254195847 0 0 0
1978 3 25.820936970554154 17.927357188920844 40.35798821070792 0 -1 0
857 3 15.251381572186105 4.019954496015913 42.12994804128184 0 0 0
858 5 14.997401692708495 3.095508437146444 41.945404098029606 0 0 0
871 3 19.226533993929927 3.2397788937801133 42.806322570802884 0 0 0
872 3 18.24773057555373 2.348989907501016 43.539665271941374 0 0 0
873 5 19.026599436829272 2.2786556442567028 42.92474992952806 0 0 0
1070 3 19.892214604160085 4.321600559838916 40.56066438862434 0 0 0
1505 3 20.24850729857487 1.2874224232010194 43.723396536135056 0 0 0
1069 3 21.300827823219148 4.5001697868660875 41.25171110022455 0 0 0
1071 5 20.340222106525726 4.800465506443861 41.349027900020914 0 0 0
1033 3 3.26141834130453 3.990576209816767 40.36677272794342 0 0 0
1987 3 3.742574516416681 5.349693774783118 42.150347157521516 0 0 0
1318 3 8.63949857345082 8.479378783533836 39.95577395115397 0 0 0
1320 5 9.480668095572808 8.052285641173263 39.6256025787238 0 0 0
1648 3 5.9980782192723945 6.1395223618451435 38.82406712561231 0 0 0
1649 3 4.578312211479249 5.4178909853464114 38.92722763512557 0 0 0
1650 5 5.150093395960195 6.124817638049513 39.31471402644009 0 0 0
1780 3 7.215081378036817 5.847343955462359 41.3271528824927 0 0 0
1782 5 7.444064573937119 4.914773676523214 41.206451174083846 0 0 0
1988 3 4.948484956278251 6.171187386567238 41.64239426490234 0 0 0
1159 3 4.517616667012735 7.548196092245958 38.78678812039385 0 0 0
1161 5 4.590549989948583 8.460206597352798 38.35224945635654 0 0 0
1989 5 4.599629051587474 5.76501179497768 42.46130049255835 0 0 0
1211 3 12.212576848456699 5.11536674633359 39.23139540879864 0 0 0
1406 3 8.47277595015099 4.246744078508298 42.51297742173337 0 0 0
1075 3 12.025260039417061 5.783354743207326 43.88071436595242 0 0 0
1077 5 11.474971568977567 5.49145205912554 44.63645421965261 0 0 0
1210 3 12.1550120963362 6.22261666005887 40.16806925328877 0 0 0
1600 3 10.839563130726482 6.262485676859675 41.96375421672643 0 0 0
1601 3 9.813219949835037 5.279983741152634 41.313774124198076 0 0 0
1602 5 10.378876881503178 6.021477364683626 41.155558764196655 0 0 0
1621 3 14.500244575962743 5.5345642056070865 39.368502641037125 0 0 0
2007 7 13.143325592727093 6.738938067975642 42.88164953231183 0 0 0
1222 3 12.074109655267709 8.357680362454934 42.969634726620725 0 0 0
2008 2 14.345304303442454 6.902300658173547 42.57994178660565 0 0 0
1351 3 17.933951693369234 7.888658396046193 40.88783807550686 0 0 0
1352 3 16.74647309672823 8.163149670541797 39.869665844546915 0 0 0
1353 5 17.187638104669578 8.453414725687677 40.69350303413799 0 0 0
1432 3 18.500688456587643 5.845649959190679 42.530096300377075 0 0 0
1433 3 17.105291270992215 6.434430980510818 42.669562913783494 0 0 0
1434 5 18.049105043126445 6.605717279771142 42.89536298934149 0 0 0
1622 3 15.432040968791606 5.714905752817515 40.54786626005985 0 0 0
1623 5 15.491807238430454 5.423404196345792 39.58696598078637 0 0 0
1741 3 15.866083675410287 3.8103948213742607 39.50171915312048 0 0 0
2006 7 15.22905372222378 6.015864295159672 42.278664141654986 0 0 0
2005 7 14.826162262847298 8.21492658453402 42.83599539481713 0 0 0
1772 3 15.369990885911397 8.515165421151575 42.00195126198336 0 0 0
961 3 22.872592857878864 8.53621263959198 40.230129501116956 0 0 0
962 3 22.503602919016892 7.511365323203371 41.278572102296714 0 0 0
963 5 22.81074381424948 7.550736882281814 40.341358383086664 0 0 0
1350 5 21.423824219296904 8.444878823935067 43.3832998691421 0 0 0
1511 3 21.151838611136437 7.224290098260005 39.14719724069216 0 0 0
1160 3 4.054167732498453 9.002942150363092 38.90863447200024 0 0 0
1864 3 7.593133733544641 9.49801153455575 41.88373317758509 0 0 0
1865 3 6.806455025312857 9.833645055658872 40.63350887112328 0 0 0
1866 5 7.388202013083235 9.085647107930173 40.993291193140834 0 0 0
1870 3 5.967548187707677 11.733575255122439 39.20783179553675 0 0 0
1871 3 5.632748004535038 11.780228846129642 40.79099224456212 0 0 0
1872 5 5.775424370222971 11.140553139698616 40.01291996827495 0 0 0
1358 3 24.424786322285613 10.771912444846894 40.048191705004164 0 0 0
1319 3 9.824129188026923 7.306291230790166 40.22798551380127 0 0 0
1223 3 11.053091694338685 9.324875531045786 42.471133174727164 0 0 0
1224 5 11.360178013544942 8.865991342272915 43.30616760784985 0 0 0
1270 3 10.757882494263114 9.584647492670447 40.15025683394946 0 0 0
1272 5 11.50390718140132 9.960860930107618 40.7024361157232 0 0 0
1814 3 11.519664082120686 10.970727135831527 40.67442411079329 0 0 0
1815 5 11.725320781268081 12.75952933032973 40.935251651890226 0 0 0
1813 3 12.480104555214035 12.91558352062952 40.32173725554395 0 0 0
942 5 14.237073253781272 12.085823286226509 39.430718765991074 0 0 0
1376 3 11.83297789782475 13.162791291402606 41.86242742226088 0 0 0
1271 3 14.443616248301405 10.386802873912524 40.04494574180011 0 0 0
845 3 16.771650526265173 12.797623466542758 40.75932518827592 0 0 0
1739 3 17.07306498844018 10.10967361487209 40.932710835593596 0 0 0
1740 5 17.120716057307714 11.077440460567429 41.013417320208035 0 0 0
1771 3 13.194376453897922 9.39301673725275 40.10150228720844 0 0 0
1773 5 14.179731481188176 9.433008621314622 40.12894606358641 0 0 0
941 3 14.793540334756106 12.684130401022712 39.93270041492842 0 0 0
1568 3 17.39410109235812 11.25149388292338 42.82968747109212 0 0 0
1348 3 20.50745255578516 8.616309850219023 43.745172799778096 0 0 0
1183 3 20.500930554037023 11.611174497775524 40.627494118353596 0 0 0
1184 3 19.764380090169734 11.238679641457315 39.310989138673484 0 0 0
1185 5 19.606998700745027 11.691964882127612 40.1587138262675 0 0 0
1738 3 18.095966132364133 11.225417732167227 40.81465891824149 0 0 0
1721 3 23.27970889070091 10.929492589088243 38.406044054127584 0 0 0
823 3 21.940180867745685 9.87840331254772 42.427584242280226 0 0 0
824 3 22.128261373114906 11.348664165508685 42.64270966706443 0 0 0
825 5 22.014940567015277 10.710396567924615 41.93831786222509 0 0 0
1037 3 20.60967530640405 13.546102941053563 43.423548555569205 0 0 0
1994 3 22.743163897363985 13.050920539646565 37.50161445616942 0 0 0
1357 3 22.969145240488178 10.611624622251957 40.79449640522715 0 0 0
1359 5 23.52820158432066 10.409576540452603 39.91463265044996 0 0 0
1517 3 6.742243382760488 13.528346654247214 38.35834938656846 0 0 0
1062 5 5.598598112178105 13.07140529130989 41.9275799446791 1 0 0
1691 3 8.858644972018418 14.702129021179761 38.784788046165765 0 0 0
1692 5 7.9384734798710435 14.920662896817634 38.89625414370775 0 0 0
815 3 7.418168511972992 15.093298890278904 40.441471767470006 1 0 0
833 3 8.161722319154475 16.29632041298821 42.03135840814487 1 0 0
1060 3 6.077125644337054 13.909212908113481 41.75124686435038 1 0 0
834 5 8.95740737973055 16.770041843676402 42.51439464618303 1 0 0
1634 3 10.877227921075038 17.901460830211498 39.58834491314413 0 -1 0
1150 3 11.022946019037457 14.244411857477115 38.72346555710324 0 0 0
1151 3 10.746717352870855 15.87075163772833 38.94031474071068 0 0 0
1152 5 10.449759033975942 15.029405545937406 38.43388187318649 0 0 0
1633 3 11.703058179018074 17.125325355724343 40.67001863230966 0 0 0
1635 5 10.957485039736929 17.040659319978978 40.040816881883096 0 0 0
940 3 14.123047485961868 12.478800341999067 38.590365701428176 0 0 0
832 3 9.544922384087716 16.93529453659638 41.745952912025594 1 -1 0
1964 3 12.061685934939872 17.375098287072355 44.40147715714782 0 0 0
1873 3 14.206778091405482 16.978912081195794 37.7046888981253 0 0 0
1030 3 16.748803328962975 14.593061105632595 38.83012468333589 0 0 0
846 5 16.562862659194035 13.669680085455589 40.32830786070348 0 0 0
844 3 16.575916554346037 14.48088246464894 40.944587028932546 0 0 0
1543 3 16.62285353809098 16.023756821660342 42.89703941924154 0 0 0
1544 3 17.57122259551946 16.760373840590333 41.82294560849361 0 0 0
1545 5 16.86886850529421 16.074209762847133 41.93083927979766 0 0 0
1729 3 15.816760139639491 17.07397994376546 40.208997516419494 0 0 0
1730 3 16.064587032044372 16.840994517361374 38.68117737220913 0 0 0
1731 5 15.689170112007165 17.510992347014202 39.33773503673726 0 0 0
1132 3 19.0021887778113 15.029361483996224 44.30240458210032 0 0 0
1993 3 21.665488628569587 13.971266653925717 38.19277931208022 0 0 0
1138 3 19.379481712404175 13.413617516224177 39.027002036237164 0 0 0
1133 3 18.28218723106099 14.507522524639725 43.02348556496522 0 0 0
1134 5 19.02535809743632 14.344841394467018 43.64978788380668 0 0 0
1135 3 20.151688683586016 17.79984164221071 41.68688695442388 0 0 0
1136 3 20.6409212146031 17.749620643739938 40.19944976772782 0 0 0
1137 5 20.928927035655 17.991383508823333 41.10076847810728 0 0 0
1140 5 19.81405296818222 14.101201716088696 38.466581361951505 0 0 0
1144 3 22.26119501401051 16.930667896568806 41.4763792766902 0 0 0
1146 5 23.004795151880423 16.374946751945245 41.80044658276327 0 0 0
1995 5 22.62742807848786 13.920545599961724 37.988235664790494 0 0 0
1341 5 24.37775429886369 15.931734872025055 38.26667410451273 0 0 0
1061 3 25.028557204559817 13.408494153706357 41.62901951414475 0 0 0
1237 3 23.099112204932386 13.274427217723696 39.94917997766655 0 0 0
1238 3 23.188227713513648 14.37375140886435 40.97081542863886 0 0 0
1239 5 23.447272887361393 13.389334243536052 40.79993414973504 0 0 0
814 3 26.53279137146709 16.01098320581012 40.829476225794075 0 0 0
816 5 6.8849921026986705 15.406771619304648 41.211360971027254 1 0 0
1145 3 23.810817546455734 16.798322693022484 41.44557788930404 0 0 0
1339 3 23.831704946286766 15.105827246535274 38.22894747733311 0 0 0
1979 3 24.970230489694238 16.816217473839302 39.60338780777547 0 0 0
1980 5 25.284567749711083 17.081173534931573 40.48352108835715 0 0 0
1736 3 2.5779214467021467 3.2804046718211812 46.41266173004871 0 0 0
1737 5 3.0655502686360525 3.9729736062424004 46.91185876637608 0 0 0
1795 3 1.0380776215324845 1.4508884764705303 45.41224837363559 0 0 0
1797 5 1.1200984148218986 2.060241295378942 46.22642768099349 0 0 0
1967 3 1.924358631603023 1.503941607376865 47.760009719295795 0 0 0
1796 3 20.65209789352001 2.6973352174121112 46.21776095517643 0 0 0
1072 3 5.7495150465792015 0.8143626207632296 47.358792763590195 0 0 0
1438 3 5.671482767674316 2.646220584866183 48.82714606010126 0 0 0
1439 3 4.573890827732978 2.8574166278963227 47.74771877912508 0 0 0
1440 5 4.910885925533843 2.1818710927250655 48.37451722299962 0 0 0
1474 3 6.34844998212942 0.683767205533272 45.02631831133139 0 0 0
1475 3 6.962665070646238 1.2732118420663712 43.663643987555844 0 0 0
1476 5 6.191235689197049 1.261532868798511 44.26648135931667 0 0 0
1588 3 8.203735506804025 3.5300314333699006 46.131583096583476 0 0 0
1590 5 7.99570834010257 4.314794180016076 45.642152760307425 0 0 0
955 3 9.967347475572467 1.1404976521520345 45.7586037929793 0 0 0
956 3 8.503705291451528 0.8026406013811715 46.09585125037065 0 0 0
957 5 9.16247160684393 1.5328552679894218 46.14242693116898 0 0 0
1405 3 8.501291528851713 4.320273908125662 43.99167745153399 0 0 0
1444 3 12.19782900072653 1.2518157513354016 45.72519381209411 0 0 0
1445 3 12.225685622589706 -0.2888241468354051 45.59270544939221 0 0 0
1446 5 11.653558577674566 0.48048846621873836 45.3357245636385 0 0 0
920 3 10.016903159013417 0.19792485540040422 42.561614709493924 0 0 0
1592 3 9.353106784769091 1.8869455065155596 47.688691664321084 0 0 0
912 5 14.794408897591188 1.9946459101624885 44.530718831724805 0 0 0
1419 5 12.71804806163465 2.844247257861245 46.14175355315972 0 0 0
910 3 14.46945794212457 1.0540507230353664 44.39712620982997 0 0 0
911 3 15.713537653751796 1.7889772802822488 44.870087338879664 0 0 0
1121 3 17.450941233037295 1.7518867101366329 46.48122344737345 0 0 0
1122 5 17.3901803677782 1.513598776322643 45.538125019781326 0 0 0
1187 3 15.711026436088874 1.3573929148870998 48.316417692193 0 0 0
1768 3 16.378200771879943 3.493323128827799 47.99484918823465 0 0 0
1770 5 16.898347631911438 2.7100260020399065 48.28197980653826 0 0 0
1417 3 12.264721012922646 3.526953086214264 45.64000433467455 0 0 0
1418 3 13.5699312493825 2.712270529822984 45.680240929489926 0 0 0
1120 3 17.78084279972094 0.618845475148072 45.42472657380621 0 0 0
1939 3 18.972597048155624 4.384296220139923 45.79669673134994 0 0 0
1147 3 2.6892022884257134 4.747496992147227 48.40647294605975 0 0 0
1735 3 3.465685285042582 4.6317248725600155 46.31110294803917 0 0 0
1879 3 4.23478736011007 6.519644206681281 45.93067975919699 0 0 0
1880 3 3.875638446456057 6.246353336629136 44.408990412423236 0 0 0
1881 5 3.503533128608828 6.238949550913368 45.32862057883527 0 0 0
1589 3 7.84322139858726 4.976060160320082 46.367818580667475 0 0 0
1336 3 5.457833840381417 7.977476451442111 46.7326304319647 0 0 0
1338 5 5.07099711989591 7.14586388792721 47.16985468336387 0 0 0
1706 3 6.389753054463806 6.571586706850473 47.79029011427727 0 0 0
1707 5 7.183179570446113 6.059193361966711 48.14241230848681 0 0 0
1826 3 9.599048643376163 9.16123438718882 45.07356637023449 0 0 0
1337 3 4.607170887382566 7.355837053825318 48.08712670718125 0 0 0
1407 5 9.142904903460884 4.283149993697262 43.270361485609534 0 0 0
1465 3 10.986906729055429 5.396912461710101 47.88688432008199 0 0 0
1682 3 12.965119903206926 8.160105406052514 48.05344963466815 0 0 0
1683 5 13.464457109990365 8.533821941468487 48.80513809632733 0 0 0
1827 5 9.921703133392386 9.291774164127254 45.978407858949446 0 0 0
1828 3 10.99963168276553 7.6942464941053865 46.785958499592844 0 0 0
1829 3 11.944144021261978 6.5232552942489805 46.42161584247267 0 0 0
1830 5 11.510085496085992 6.995655621731852 47.17356278155368 0 0 0
1825 3 10.833577379279356 9.637455222570683 45.864208824665226 0 0 0
1681 3 13.829782854126323 9.417933529434638 48.5137460306767 0 0 0
1084 3 15.633971758521861 6.058278286592575 48.64007594047623 0 0 0
1085 3 15.656133961247326 6.8384731887797665 47.198729802404294 0 0 0
1086 5 16.093480462296135 6.119230713941303 47.730586363810616 0 0 0
1296 5 15.645769621295216 8.217310420744806 45.416329249878395 0 0 0
1696 3 17.575069476908087 5.741077396532811 44.83493135565435 0 0 0
1697 3 16.97364569587906 5.633961690811784 46.29430147686123 0 0 0
1698 5 17.232309964221884 5.146576664949277 45.50013434023238 0 0 0
998 3 17.51677959404737 7.2096771812822125 48.70140412187677 0 0 0
1294 3 15.56038973667508 8.167426160198358 44.45185743164378 0 0 0
1295 3 16.245299683114233 8.941312396274773 45.550313396262574 0 0 0
1349 3 21.786279740960588 7.943137097325041 44.14881287150866 0 0 0
1900 3 19.950545070599414 5.09936300698595 47.8953502769637 0 0 0
1941 5 19.82041513648625 4.248518659603493 46.268645839175335 0 0 0
999 5 18.138866119222527 7.660026394474259 49.33885302156505 0 0 0
1201 3 22.214216332413844 6.527854620915773 45.771441683144694 0 0 0
1202 3 21.05641879649616 7.151057235801367 46.70051100548383 0 0 0
1203 5 21.187684697101282 6.722355681830447 45.818595504756665 0 0 0
1940 3 20.413415909578276 4.950932406299134 45.978061689439514 0 0 0
997 3 18.95697183362907 7.10876816467508 49.345588967535924 0 0 0
1303 3 6.656563197622758 13.058662255667574 43.74936003427911 0 0 0
1305 5 7.198026786777313 13.000265886176765 44.53100638496272 0 0 0
1282 3 4.730156941974625 9.869715477305334 45.34958486206131 0 0 0
877 3 7.0237755395599475 9.429454650085962 44.33584850555423 0 0 0
878 3 7.747623923554044 10.757077296373202 43.83584278643377 0 0 0
879 5 7.7907063974666 9.800513624041201 43.81716007725127 0 0 0
1112 3 5.7902256588327665 13.444946940765373 45.863322828553386 0 0 0
1283 3 5.935911795292487 10.1013624119307 46.30827383308901 0 0 0
1284 5 5.601119913440723 9.562287242384615 45.59411307723056 0 0 0
1304 3 7.9911323163642445 13.608690568772898 44.299777453065694 0 0 0
1550 3 8.483825037416775 10.974207331355617 47.95888904256132 0 0 0
1549 3 9.307043143955813 10.89100895328439 46.73001091595447 0 0 0
1551 5 8.940354306533589 11.578019636532959 47.35954367885889 0 0 0
1726 3 11.822841880535584 10.217234227812726 44.337765499669494 0 0 0
1207 3 12.712030977608773 13.963679924011709 44.065578898105855 0 0 0
1375 3 11.778993876379937 12.72469424382479 44.06839196169163 0 0 0
1377 5 11.967735981141207 13.508914465081602 43.52268596202804 0 0 0
1628 3 10.498157893666908 12.3395873610771 48.06651667513034 0 0 0
1727 3 12.842825469307366 11.201589314058499 45.065952535801046 0 0 0
1728 5 11.850287647278538 11.053242972791898 44.87798044975819 0 0 0
1208 3 14.046457731498066 13.62521448568359 45.27502673041165 0 0 0
1627 3 11.582601046845555 13.518624419492648 48.089705031839834 0 0 0
1922 3 18.293098328510524 9.783233420305056 44.31881990346795 0 0 0
1921 3 18.435580698627316 8.237826465098564 43.92882752042044 0 0 0
1567 3 17.63831236209912 12.39254114196447 43.931161857608274 0 0 0
1569 5 17.420415800818564 11.439640360156314 43.783021405419774 0 0 0
1571 3 18.90950262894791 9.949639124922726 47.281580341394516 0 0 0
1846 3 15.834084862593528 11.944011373098808 48.05389545576434 0 0 0
1848 5 15.815826781854165 12.780853628213643 47.472438177446996 0 0 0
1912 3 15.455933417323935 11.352996713784023 44.56808143971771 0 0 0
1913 3 15.050345841918434 11.72072473045612 46.10127955776465 0 0 0
1914 5 14.683416333451998 11.550241003604613 45.21721780940259 0 0 0
1847 3 15.342439272934048 13.51472781445511 47.857572923807496 0 0 0
1572 5 18.36525598712471 10.056934572087313 48.09238968002598 0 0 0
850 3 19.97819044660665 12.313414787686332 46.29640017975859 0 0 0
851 3 20.99476344586085 12.058360731976288 45.17137501162636 0 0 0
852 5 20.80492392146879 11.82655745121305 46.107904058157146 0 0 0
1036 3 22.230947914512274 13.57961229744956 43.619300069023154 0 0 0
1038 5 21.409178568833514 12.991095203251081 43.52312509580448 0 0 0
1333 3 23.722547661595062 11.357926914413614 46.70959248762186 0 0 0
1334 3 22.93390107818097 11.725973297770022 45.51927151910966 0 0 0
1923 5 18.83473061191969 8.992789127489296 44.428866165684056 0 0 0
2002 3 23.44574133299309 12.799439397408543 48.37107956217756 0 0 0
2003 3 21.910039385609032 12.564855920542906 47.75221093771491 0 0 0
1329 5 21.763463043921686 8.991569986684784 48.431568725201664 0 0 0
1570 3 18.419039406264297 9.192619310232717 48.64693050115185 0 0 0
1335 5 23.776010324386647 11.338282175065425 45.757805807300024 0 0 0
1111 3 24.749870348955643 12.75010864223341 45.83615025316074 -1 0 0
1113 5 25.21853228977804 13.443435629076603 46.362714634543956 -1 0 0
865 3 9.338187436154202 15.38956342076626 43.50855843856023 0 0 0
867 5 9.51066695972841 14.69736449800756 44.21583777427094 0 0 0
1471 3 8.494229269793125 16.705761500619275 47.45156414740225 1 0 0
1423 3 10.512433842640739 17.855485669413262 48.13228865521317 0 -1 0
1424 3 10.808996230954307 16.900980171180635 46.891019354237855 0 -1 0
1425 5 10.287812182249684 16.94786612447644 47.70018244941266 0 -1 0
1209 5 13.737676727261734 14.53698048270914 45.20689087653703 0 0 0
866 3 10.335375557148314 14.198728231853845 43.93406950149314 0 0 0
926 3 13.73045780400303 14.93626957837948 48.27285797544746 0 0 0
1073 3 13.596793796276332 17.939100247571922 46.79738504989134 0 0 0
1384 3 11.67295272283756 15.356938029852264 47.33570824999999 0 0 0
1385 3 13.101125035811721 14.6553147176671 46.42256118389067 0 0 0
1386 5 12.425811690519652 14.80895583744677 47.371146855739596 0 0 0
1963 3 12.196200615786175 15.927398203536894 44.83980081969639 0 0 0
1965 5 11.982483346453481 16.832044916983463 45.22298999898445 0 0 0
1794 5 18.515076962581453 13.121935711675235 46.476712735240234 0 0 0
869 3 18.356014724586256 16.531660025276857 46.696755332528085 0 0 0
1074 5 6.116236700386366 0.044959083933765076 46.95652624769584 0 1 0
1198 3 16.49085702863037 16.265509457309975 45.26322182962418 0 0 0
1199 3 15.154431976327515 15.354802612994963 44.73598829857529 0 0 0
1200 5 15.881834964884657 16.0290621992645 44.50652089696362 0 0 0
1585 3 15.913345934103244 17.59041894325977 47.500192510884624 0 0 0
1586 3 17.403471639237367 17.398331709263907 48.16404715063879 0 0 0
1587 5 16.882234161741703 17.31971512870453 47.35758970464357 0 0 0
1792 3 17.477486616769212 13.137585184032796 46.69334883792527 0 0 0
1793 3 18.608732484040335 14.114477336104795 46.40178648315061 0 0 0
1942 3 22.14218257424287 17.812320246770383 45.06897299828928 0 -1 0
1944 5 22.066209153640273 18.135929921743298 44.16397186322173 0 -1 0
919 3 10.860838752903154 -0.3209267224142101 43.67379463744542 0 1 0
921 5 18.760785734022807 18.025665582693982 42.77151681946455 0 0 0
868 3 19.78695992472643 16.140977198072157 46.969762214953725 0 0 0
870 5 19.077540710762655 16.00401393303411 46.31482012861126 0 0 0
1906 3 22.48786366795267 16.829801221607845 46.72956030599012 0 0 0
1908 5 21.860451347477476 17.54114961495069 46.643614166108335 0 0 0
1943 3 22.218276574344276 17.353807179897906 43.63818296934225 0 0 0
1852 3 24.368783488411957 14.685651590414132 44.99367545114408 0 0 0
1472 3 7.725149014848096 17.93194775572067 47.99414519766668 1 0 0
1854 5 23.565490779843444 14.84697898333482 44.52607256946467 0 0 0
1853 3 23.74793529840221 15.49194633630047 43.80493689892879 0 0 0
1300 3 27.1807264670497 17.35277792913852 45.961793974855006 0 0 0
1301 3 26.53306089721935 16.907490081487303 44.504223400971455 0 0 0
1302 5 26.353275634282916 17.393058140135963 45.323075326796385 0 0 0
1409 3 25.2641223229911 16.52387712216133 46.78577633206607 0 0 0
1473 5 7.60090732560583 17.106845717312673 47.47907422401976 1 0 0
1410 5 24.507656207225754 16.081800397910833 47.18504598976792 0 0 0
917 3 3.0882061453861334 1.533444819127933 51.89540518542152 0 0 0
918 5 3.1333260574885498 0.536446160897661 52.162622041311934 0 0 0
1606 3 1.644853085137123 3.101681163894014 51.6902799742351 0 0 0
1607 3 2.571275903310209 3.566738465417235 50.5201659789569 0 0 0
1608 5 2.607463845605048 3.2907415383289322 51.448144303058896 0 0 0
1968 5 2.38266528320706 1.041574956182346 48.45743645106426 0 0 0
1966 3 3.26458095491818 1.4676711992386613 48.5556198839421 0 0 0
1274 3 4.843531376874449 3.367975665256426 51.408528838777976 0 0 0
1496 3 4.6814530817116875 -0.16295871695269656 51.50061537470702 0 0 0
812 3 8.043015385151037 3.225872069908797 49.15216991408799 0 0 0
813 5 7.127033567707632 3.6372861034806183 49.34712229400505 0 0 0
1273 3 6.286547399475814 3.257691873882037 50.733165121944786 0 0 0
1275 5 5.629227705854267 2.8296148789552533 51.43234618536751 0 0 0
1495 3 5.754504318961696 0.9451375134302348 51.21270027281276 0 0 0
1497 5 5.604154126325565 -0.008802977775917653 51.15822722914553 0 0 0
1841 3 6.226859013149862 2.5557338553736493 53.02814269306449 0 0 0
1024 3 13.482431932059688 2.1614474678507154 50.48260398577604 0 0 0
1026 5 13.66871299400559 2.720407460390576 49.72057420786141 0 0 0
1315 3 12.980424415412555 1.22998681146698 52.743350930463954 0 0 0
1316 3 13.349978955026508 0.2277690293206891 51.40131176993363 0 0 0
1317 5 12.984138006406313 1.0615376312962388 51.749266492747175 0 0 0
1591 3 10.020040028757824 2.952029802582779 48.63323779557652 0 0 0
1593 5 9.386791570959039 2.2467182364129665 48.658557553441504 0 0 0
1711 3 9.578518934923345 1.3980875426701598 51.860307995269125 0 0 0
1936 3 10.316548432212379 1.129478159662433 49.84986473949002 0 0 0
1937 3 11.515669375151614 0.897741947568707 50.817889574427035 0 0 0
1938 5 10.613995106313144 0.5540180327137582 50.6197518917672 0 0 0
1025 3 13.77140812371928 2.090947509936062 49.01251178861949 0 0 0
1188 5 15.089898969934419 0.5638318815040344 48.13438579377617 0 0 0
887 3 14.650248069226011 4.28155647545954 49.86779090737146 0 0 0
1186 3 15.46719739223087 -0.22434219522339466 48.620440116878655 0 0 0
1291 3 15.226976108693345 1.4616439451400183 52.514501074375914 0 0 0
1292 3 16.642595521212737 1.0078813989097894 52.405005228047564 0 0 0
1769 3 17.48138012024213 2.9661274573853533 49.03621449511587 0 0 0
964 3 17.658496688776363 4.576640924658622 51.27565664690403 0 0 0
1954 3 19.268002052996298 1.6140835970617693 48.7445578415164 0 0 0
1955 3 18.67289661612559 0.7246444070691979 49.84209280312406 0 0 0
1956 5 19.349692468676608 0.7432101858662409 49.12977690191013 0 0 0
1066 3 19.302744801875413 4.085162169511152 49.664272771936815 0 0 0
1776 5 20.434235155054445 2.764569426095647 52.789982781601395 0 0 0
1067 3 19.393800915816435 3.0941025519466834 51.03553824933099 0 0 0
1068 5 18.818108633018518 3.451783764578445 50.322787406611624 0 0 0
1148 3 2.8143128225893 5.789248919817105 49.58381416301813 0 0 0
1149 5 2.3638249608985653 4.929144177242716 49.3391913181028 0 0 0
1573 3 3.907178235848975 7.879954523740096 50.14377879642697 0 0 0
1575 5 3.5797201572426776 7.421623827818496 49.32828950214232 0 0 0
811 3 7.196147653229351 4.55629501621587 48.96866208119256 0 0 0
977 3 7.036221292617628 6.948778219694547 51.57725620098686 0 0 0
978 5 6.32869815521453 7.016581215542795 52.2312492779083 0 0 0
1181 3 8.828020525725591 8.01212246747878 50.66542131786701 0 0 0
1182 5 8.665263659294007 7.2638754855255945 50.05469463246625 0 0 0
1705 3 7.628486058076723 6.571868067832215 48.84573801895897 0 0 0
1180 3 9.21033849023107 6.562589590883892 50.45608310914203 0 0 0
1289 3 13.191032664515589 7.405965647493062 50.45734667882175 0 0 0
1290 5 12.980538322565078 6.621870601834245 51.01955828158923 0 0 0
1466 3 12.12750974819822 4.396129555490039 48.45557661458023 0 0 0
1014 5 14.139300963867251 7.441391051899061 53.42165385132748 0 0 0
1467 5 11.119143701925225 4.638356454754891 48.51969140774199 0 0 0
1849 3 10.41895511751575 5.144155287584264 53.056035455377206 0 0 0
1851 5 10.56457350794718 5.216717104659359 54.05163164228527 0 0 0
1876 3 11.48010436064598 5.84648149763588 51.19059162648243 0 0 0
1877 3 10.693620944669627 4.819199908802519 50.42114526013697 0 0 0
1878 5 10.55467395459443 5.388602166543563 51.250459798388825 0 0 0
1288 3 13.253580550592387 7.012643657536436 51.90271249545365 0 0 0
886 3 14.264219107845468 5.7428759900537525 50.325217581477766 0 0 0
888 5 15.019451213858895 5.199876625619261 49.92484119330858 0 0 0
965 3 16.42530144010619 5.478160199723099 51.01245424785572 0 0 0
966 5 17.16062309367136 5.382524395485424 51.63570679432525 0 0 0
1528 3 18.679261604395467 6.434780894845025 51.95075463039598 0 0 0
1529 3 19.22960838459471 7.5098357518768895 53.05314292139411 0 0 0
1530 5 19.490173542503168 6.91222418785894 52.32403736907782 0 0 0
1902 5 20.04511766849876 5.33851753002819 48.854235337588705 0 0 0
1901 3 20.973474285139616 5.13548488851829 49.10775051086557 0 0 0
1574 3 23.150373174784605 7.945173477311569 48.97518182927216 0 0 0
1666 3 23.14243051992551 9.059180457978972 51.59721335993055 0 0 0
1668 5 3.8087136897850016 8.9781759970238 51.613871491553994 1 0 0
1802 3 20.428986834426365 8.157080507259268 51.37102441575292 0 0 0
1803 5 21.115161886313526 8.81838042838235 51.05258540212641 0 0 0
1667 3 4.124035423065408 8.945078481656061 52.59236983863995 1 0 0
1328 3 21.351369759065815 8.99374845879671 49.32325414923679 0 0 0
1639 3 22.130164193521978 5.5654607430290515 53.00116661595173 0 0 0
1399 3 6.512533491031755 9.274567503819085 48.651621568495734 0 0 0
1276 3 9.23186137859485 10.057504609453748 51.4226149604041 0 0 0
1400 3 5.6624759644781 10.432380880605484 49.00970589535234 0 0 0
1401 5 6.14682920440428 10.032231547427404 48.2576872704624 0 0 0
1580 3 6.029009567370376 11.304980408966046 50.91610700078593 0 0 0
1699 3 8.1026497487583 12.329147461970653 51.49873083345616 0 0 0
1700 3 7.277224181107008 11.664698972378238 52.55486278330423 0 0 0
1701 5 7.6358066553531705 11.487654776375994 51.6744759515152 0 0 0
1747 3 12.36956930701746 12.299096186282343 49.55911097361842 0 0 0
1629 5 11.101216839414125 12.817255358784877 48.64711908398291 0 0 0
1278 5 9.898997541064718 9.363389970997652 51.36603543444745 0 0 0
1277 3 10.278201471624959 9.322789901942974 52.23699623820352 0 0 0
1603 3 12.378030079503253 12.87613253571982 51.77757525811587 0 0 0
1604 3 11.13079844577238 13.905534497962492 51.926352334173615 0 0 0
1605 5 11.782558369764633 13.406660223454642 52.41591516314163 0 0 0
1748 3 13.52328027724943 13.293454016559972 49.76365907611985 0 0 0
1749 5 13.149999679798997 12.4833920818791 50.16330045142328 0 0 0
1542 5 15.171989362667881 10.999110340489166 49.48021719815232 0 0 0
1541 3 15.925581379591168 11.087960125624486 50.15769557447182 0 0 0
1450 3 18.483219434092522 11.46809579506923 52.10656064280194 0 0 0
1540 3 14.413743401221364 11.533464440445293 49.90905474587648 0 0 0
820 3 18.7785473900441 12.998450567432998 48.36689529577387 0 0 0
822 5 18.885754388375684 12.698118896949115 49.35564869848032 0 0 0
1451 3 17.15099174616738 10.482806168390963 52.29456664051986 0 0 0
1452 5 17.45800630641883 11.378529259760697 51.980797207860476 0 0 0
1708 3 16.290982502059958 13.817746416910447 53.56414275315456 0 0 0
1709 3 16.567536925510606 12.52570824513748 52.696424185446034 0 0 0
1710 5 15.866692600864411 13.029444680108586 53.20183444162385 0 0 0
821 3 18.555159357294258 11.786586981948453 49.22662751853577 0 0 0
2004 5 22.582972000394047 12.311440416965093 48.439876722490084 0 0 0
853 3 20.361419005050774 11.094971920992409 52.89635351880561 0 0 0
854 3 20.650765796591976 12.050745091696566 51.710708208819206 0 0 0
855 5 20.09506028611826 11.220023950286159 51.95519368944273 0 0 0
1327 3 21.424274673886973 9.833444215636717 48.08177475647701 0 0 0
1453 3 22.08200024792057 13.99915636118028 51.75148365700195 0 0 0
1454 3 21.9993635476906 13.30268911488335 50.39027670365308 0 0 0
1455 5 21.429390760943104 13.616849261598816 51.13773098623908 0 0 0
1532 3 22.044907538102247 12.056355321548148 53.872200088077065 0 0 0
1801 3 20.812709410766676 9.68231741960762 51.44639164374475 0 0 0
1533 5 22.60075794629046 11.423905432204297 53.382983242640755 0 0 0
1882 3 5.370734309118152 13.249832053022255 48.535063628659 1 0 0
1579 3 4.697341880047356 10.445969436590653 51.16922571883335 0 0 0
1581 5 5.06710562073324 11.200761778654854 50.636084486866814 0 0 0
1883 3 25.240014259949287 12.881653244933423 49.998117159270876 0 0 0
1884 5 25.41956702291607 13.628837410454114 49.41180971546858 0 0 0
1534 3 9.154037893010287 18.14753859374097 49.88068995131538 1 -1 0
907 3 6.374560192869972 14.388304784256652 50.65932715883517 0 0 0
908 3 7.916973105299604 14.374127151054255 50.69833871687999 0 0 0
909 5 7.15955004282575 14.596660884045779 51.233494117740555 0 0 0
1536 5 9.522983682446963 17.48804970960434 50.530706832424954 0 0 0
950 3 7.021416972114352 16.37823298913085 51.466363083458276 1 0 0
951 5 7.270066658221157 17.1808232652755 51.99679151535638 1 0 0
1535 3 8.803776989109515 17.421529125350787 51.17927982717491 1 0 0
1247 3 10.204325487181482 14.00508858909541 49.58256846868907 0 0 0
1246 3 9.939016512588527 15.481376032925835 50.22524812555183 0 0 0
1248 5 9.95546416078614 14.49360004341959 50.432560134455926 0 0 0
916 3 2.5083576058010255 -0.03913867436641644 51.5752895166793 0 0 0
927 5 14.56584041632954 14.830267839001268 48.78884787801817 0 0 0
1984 3 14.12655587612847 15.648400291945697 52.2353942841288 0 0 0
1985 3 12.904306960147423 14.680168438758956 52.53046881229179 0 0 0
925 3 14.934998995387007 15.71409980721111 49.03029334467269 0 0 0
932 3 15.082754871652302 17.014690046676776 50.94144819205566 0 0 0
933 5 15.524150745633548 16.28322128566912 51.333857298976035 0 0 0
862 3 18.183171169250862 14.752842489892425 52.13685587063377 0 0 0
863 3 18.41493198457749 13.85893091334238 50.787555061679086 0 0 0
864 5 17.92377348284545 14.659350263582185 51.17681670135343 0 0 0
931 3 16.34144818819433 15.950084206229821 50.93977132595925 0 0 0
1268 3 16.319321468662203 17.145157522407537 52.51998302243958 0 0 0
1927 3 18.362881378000072 15.994305991493006 50.1424651846157 0 0 0
1928 3 18.692566381538523 17.55571872489564 49.959116385595344 0 0 0
1929 5 18.637699268991938 16.68829533465042 49.49502949172964 0 0 0
1678 3 20.472488447018453 16.681354566947853 50.357251674093504 0 0 0
1244 3 20.95262554538475 15.552503588220228 53.755967227512 0 0 0
1245 5 21.791495684608726 15.45739420052085 53.230284086791414 0 0 0
1562 3 22.99442468259236 16.575662130181072 50.06153920680144 0 0 0
1679 3 21.33685085123424 16.213173869001317 51.49829618815996 0 0 0
1680 5 21.29609499785147 16.91129142678541 50.78661813225966 0 0 0
1907 3 14.183181116589912 -0.2365392130476787 47.13727057205775 0 1 0
1752 5 17.29808020934832 0.06048049165945768 51.19068158718324 0 0 0
1561 3 24.136889626339453 16.41334756668352 48.94251970227957 0 0 0
1563 5 23.95305239400631 16.852100774662198 49.84040840033698 0 0 0
1408 3 24.688786328268257 15.143864425026228 46.98660129380664 0 0 0
1750 3 24.93393650100313 17.900033351627712 50.667180808978095 0 0 0
1751 3 26.11024321821533 18.049534328274163 51.634983540975355 0 0 0
1787 3 6.198448560106541 14.55056347728775 53.55019883851068 1 0 0
1609 3 2.094460923825024 0.7437403760752116 53.71452412631319 0 0 0
1079 3 3.2241195272072445 -0.23427927100406892 56.732182956452775 0 0 0
1171 3 2.852097015169761 2.414070301807704 56.96694635436941 0 0 0
1173 5 3.1208251723896225 1.6461611559134302 56.3259561119112 0 0 0
1259 3 9.10429647833636 17.530015665889792 54.51545307420611 0 -1 0
1610 3 1.9491179929316322 1.4551682255238731 54.99788605008796 0 0 0
1611 5 1.3624423781409143 0.9232610808658057 54.32548064613581 0 0 0
1172 3 4.104753069391461 1.7871692930048173 56.2218075135325 0 0 0
1078 3 11.547355206714196 17.176792542187442 55.897263679316545 0 0 0
1080 5 11.280093627219973 17.38461197606999 56.84510888729265 0 0 0
847 3 6.246718070581648 1.966212687049012 57.04560778918133 0 0 0
848 3 6.500293521221435 2.0463740717987693 55.472343627004726 0 0 0
849 5 6.0108020890752005 1.579925656162282 56.19650623999681 0 0 0
1234 3 14.425096125248958 17.92432089371581 55.84598243897529 0 -1 0
1840 3 7.725253259496488 2.4297339940567975 53.52518321984802 0 0 0
1842 5 6.820888615097609 2.649411919577045 53.84282272207515 0 0 0
1713 5 9.039764752954875 1.5526208479111474 52.64237048110215 0 0 0
1712 3 8.692739265878314 0.6570788803588621 52.882383867164805 0 0 0
1479 5 13.220607570491659 1.844607148236255 54.43330159801573 0 0 0
1021 3 9.85711422180234 1.9134840743595387 54.144985844817 0 0 0
1022 3 10.01544260529211 3.436489652113727 54.419645830715375 0 0 0
1023 5 10.262479908514873 2.5710062563017995 54.783500775985324 0 0 0
1165 3 12.555137181777852 0.5956014947432939 56.930686385716804 0 0 0
1477 3 13.9339037556264 2.456830778927875 54.591432304509944 0 0 0
1478 3 12.342850361280947 2.15165601152139 54.718507902201935 0 0 0
1703 3 9.551016719787762 0.3681772922794224 55.969572259240024 0 1 0
1293 5 16.073751587463814 1.6653431607255527 52.92133468974704 0 0 0
968 3 15.512442971077478 0.7912809263514093 0.6030207475136838 0 0 1
1189 3 15.779558714207422 0.6468506969025833 56.53729867239 0 0 0
1190 3 16.007536193070887 0.7708704296263714 54.98019056108021 0 0 0
1191 5 15.788756290519023 0.14319752442592054 55.66914243755955 0 0 0
1537 3 18.841878014405058 0.8919825117847162 55.97736108233823 0 0 0
1538 3 18.42181669977364 1.9581150481923235 57.06245238948643 0 0 0
1539 5 18.48922202835337 1.7827451298148167 56.10233913689233 0 0 0
1141 3 16.372356699514956 3.417622591360786 53.75481379273244 0 0 0
1143 5 16.529698597983778 4.32178098696567 54.08278820660276 0 0 0
1213 3 18.210865213864686 4.057104463419136 54.46787040047922 0 0 0
1774 3 0.5077787831363236 2.02953097006435 53.35970131338464 1 0 0
1214 3 19.175317658337303 3.1699718285978946 55.307611056432165 0 0 0
1775 3 20.162683662278855 3.450980124757414 53.39863919142741 0 0 0
1215 5 19.044693938082013 4.1113578577099 54.97015132871363 0 0 0
1123 3 2.491083595872521 5.414180138749719 56.07433431628813 0 0 0
1125 5 21.851143032040415 5.21660471399043 56.29683048272361 -1 0 0
1124 3 21.38486119556902 5.249041639488434 55.38059531543616 0 0 0
976 3 5.721121345686703 7.686950117037952 51.854481907514504 0 0 0
1459 3 6.024605217533734 6.011563370282411 53.708829744325364 0 0 0
1460 3 6.193514986066352 4.548345519209348 54.14817667771001 0 0 0
1285 3 7.19786145613255 8.372333225009376 56.87564887720998 0 0 0
1287 5 7.402655781212327 7.779400634998373 57.571457684574625 0 0 0
1461 5 6.051569532636825 5.468006131999126 54.534400849822624 0 0 0
1897 3 4.688500834247858 5.901926156759285 55.509453588637385 0 0 0
1898 3 4.323011896397906 6.144907636137553 57.12229611315775 0 0 0
1899 5 3.9891836147349182 6.243100792711511 56.18251095898646 0 0 0
1040 3 12.38528699705865 5.579332070141891 54.863479894214976 0 0 0
1012 3 14.968029673533808 7.976568834332465 53.42062361219626 0 0 0
1013 3 13.916457285219218 7.25402980072929 54.350245629184414 0 0 0
1850 3 9.835503709788625 5.771864198739856 54.409408234555016 0 0 0
1919 3 10.603691598938905 10.383909735041739 54.03187775425062 0 0 0
1039 3 12.819779755120388 5.084561776156688 56.20441073931135 0 0 0
1041 5 13.201850540695158 5.4929002471412804 55.41824583524103 0 0 0
1156 3 8.480005463210697 6.467248978497745 56.7437597623571 0 0 0
1158 5 9.286827309717333 5.979491396223667 56.54578633440356 0 0 0
55 4 9.32354216739699 4.505966395452938 57.685879074008405 0 0 0
1157 3 10.028504777406528 6.673254029875626 56.69330594901001 0 0 0
1360 3 13.722129758744845 3.9821932865702623 57.67525719338051 0 0 0
1361 3 13.496110212407185 3.494069232143137 0.09372763472939848 0 0 1
1362 5 12.741967096487139 3.959971380296177 57.62486723475756 0 0 0
1420 3 11.106211537031188 8.586708528762811 55.38765223609088 0 0 0
1421 3 11.56903208763986 8.522344560821452 56.888377119716914 0 0 0
1422 5 11.528639914726229 7.985329228229959 56.06020700427223 0 0 0
1918 3 9.16384497137151 9.677899738632053 54.2950566942104 0 0 0
1920 5 10.125445350756436 9.55206980738305 54.008429856606654 0 0 0
1087 3 17.126335176690347 9.01186224378142 54.10592647944677 0 0 0
1142 3 16.586333344351534 4.893379057361588 53.23419455367958 0 0 0
90 4 15.821709725025498 3.9823707039272875 57.71505296712016 0 0 0
913 3 16.182367195327654 5.082290612897348 55.821691928041105 0 0 0
914 3 15.10553874566853 5.904594755381305 56.50156288270485 0 0 0
915 5 15.97211127740177 5.458609296123033 56.6833185114449 0 0 0
1280 3 18.989244418486667 7.874437605602558 55.62365651437245 0 0 0
1281 5 19.04359765192783 8.49495186065495 54.824741168626666 0 0 0
1972 3 18.409241202684623 6.106773106326918 57.1836201853647 0 0 0
1762 3 13.584394261234097 9.969170416888705 57.773948464252 0 0 0
1973 3 18.994308322639434 5.37732425565757 56.00786070408189 0 0 0
1974 5 19.061343716149917 6.276787620310689 56.40298384633984 0 0 0
1555 3 20.903114371993205 7.206203333779987 0.8383064267889003 0 0 1
1556 3 20.870616810678115 6.361854287485621 57.37609874271431 0 0 0
1557 5 21.813611022606658 7.17352148384924 0.48716995531082197 0 0 1
1640 3 20.85492049069814 6.4920485635737775 53.03443746362357 0 0 0
1641 5 21.68099431830609 6.224106090187594 53.53465465533899 0 0 0
1279 3 19.806822737069194 9.105494758680292 54.988257203691106 0 0 0
880 3 21.90620043737646 8.015123099485779 54.11939748958996 0 0 0
837 5 4.807023977629768 8.935835589648303 54.18509676143723 0 0 0
835 3 4.845245498800892 9.856295322885916 54.653762277181904 0 0 0
836 3 4.132824102374142 8.434478824610013 54.732335945511345 0 0 0
1582 3 6.987414842369366 12.437975945530015 54.770334728462615 0 0 0
1759 3 6.217825286477035 10.79594448459596 57.099297861514344 0 0 0
1761 5 6.883185673498635 11.398704319422281 56.658126395722554 0 0 0
1806 5 7.5877962242602175 9.325917868284643 55.08428753164362 0 0 0
1804 3 7.176021883196454 10.122999855174923 55.55055493597824 0 0 0
1805 3 6.817056279523405 8.902970051048428 54.57170232697556 0 0 0
1584 5 6.592684447463456 12.622970298429312 53.93345651336695 0 0 0
514 3 9.356554111933516 12.896995435123436 57.648277733871325 0 0 -1
1969 3 11.780453503822853 12.636771282347869 53.84156893973269 0 0 0
1970 3 12.627953780279944 11.725579806739814 54.80194087586353 0 0 0
1971 5 11.66923651944654 12.059514895506394 54.64004183351513 0 0 0
1760 3 7.3572848172794085 11.915794281355971 57.30458220356523 0 0 0
180 4 12.147878437152192 11.46836576988601 0.16465977083713101 0 0 1
1756 3 11.00807999682196 13.623376462353614 57.397954461028306 0 0 0
1757 3 11.00224909258326 12.478574197610985 56.134511430394056 0 0 0
1758 5 10.860043074356142 12.678256044943264 57.120004742117686 0 0 0
1089 5 16.309228012148488 9.223332268827702 53.55146740175861 0 0 0
1088 3 15.774525024079585 9.971957488180696 53.9510063615641 0 0 0
1129 3 15.299515620554226 12.009061241641339 54.578834716133294 0 0 0
1490 3 13.248547871036322 13.094464653683508 57.79053204964301 0 0 0
826 3 17.86416661322209 10.466474140695619 56.29265784506505 0 0 0
827 3 17.399625034934157 11.930998371185893 56.060343382213055 0 0 0
828 5 17.69670841521185 11.181969833448177 55.583247433787875 0 0 0
1130 3 15.098050496665929 11.30862809349118 56.07408965043169 0 0 0
1131 5 14.775844161798858 11.346350313543518 55.15826417624816 0 0 0
1256 3 19.37500767250215 11.457634196714716 55.249908766767014 0 0 0
1531 3 22.375745423834655 10.538846521193037 53.87728691708404 0 0 0
1257 5 20.328506301368574 11.476821483212998 54.900928730863306 0 0 0
881 3 21.63865583307698 9.119468822801377 55.23436067274203 0 0 0
882 5 22.180485414054647 8.9855824613575 54.384662147383374 0 0 0
1232 3 22.177098711242916 11.130335625032933 57.54443199671936 0 0 0
1255 3 20.868621817370915 11.470518046511431 55.76536009982236 0 0 0
1426 3 20.268241160504008 9.470822972236604 57.3534702914327 0 0 0
1427 3 21.37358507065064 8.508322437353232 57.0042078200378 0 0 0
1428 5 21.042946599931707 9.388384533585207 56.76534061486504 0 0 0
1950 5 21.476036088406687 13.410098570802537 0.30324337888517144 0 0 1
1231 3 23.03241297167475 12.376812301993075 57.44640968600125 0 0 0
1233 5 23.002783169024042 11.443809363310937 57.18080009655804 0 0 0
1949 3 20.817222932242125 13.686520992788694 57.43539719922217 0 0 0
905 3 24.003833976164223 11.502680324245325 54.16571636457523 0 0 0
904 3 24.39995752699735 11.65892274216183 55.645018328276684 0 0 0
906 5 4.498358906015458 11.563416770391864 54.733620698423934 1 0 0
949 3 7.846044504256985 16.955119244208333 52.74054244416799 1 0 0
1260 5 9.065145332330427 16.642329693045824 54.096228880418586 0 0 0
922 3 11.862190813148132 16.062940326079307 1.6617830984839574 0 0 1
1717 3 11.90166341871754 17.999707221540824 53.532074813748025 0 0 0
1718 3 12.472277613206014 16.533621449466523 53.54629626857924 0 0 0
1986 5 13.281721662364877 15.546772942733032 52.728266183307476 0 0 0
540 4 13.876782344487179 16.545114770148444 0.4506988030712611 0 0 1
923 3 11.870931399052687 16.404076537187777 0.1411293876834795 0 0 1
924 5 12.260240224440022 15.748566826998953 0.768112019013914 0 0 1
1258 3 9.998802072428196 16.48900396700391 53.87374274011856 0 0 0
1719 5 12.101438401873699 17.282908546501275 54.13956287966011 0 0 0
1915 3 12.983272675342612 14.814641244988039 54.97552067717107 0 0 0
1916 3 13.268549404047608 15.19105191634094 56.47170069556135 0 0 0
1917 5 12.657281020630613 14.588191150217298 55.89695812598784 0 0 0
1235 3 13.74863663293743 17.153075219866956 54.78022085797117 0 0 0
1236 5 14.620476308123386 17.1593712997199 55.22681964715165 0 0 0
1269 5 16.669026830669843 17.59407600140554 53.38329224299493 0 0 0
1091 3 17.533405585391755 16.953998219361978 57.631272613890495 0 0 0
1267 3 15.836164104771068 17.566827095058947 53.979309326390315 0 0 0
1704 5 18.134592781551348 18.123570355962528 56.11060421694352 0 0 0
1807 3 18.26446229682859 15.289382719821631 54.450329242327896 0 0 0
1809 5 18.657448689339425 15.718785300652842 53.62212233476772 0 0 0
1858 3 16.741271764514224 14.744567153873687 56.68433099495375 0 0 0
1859 3 15.789840368988184 15.711857740996853 55.90456694567064 0 0 0
1860 5 16.623450928966676 15.279383601241179 55.850876169126806 0 0 0
1243 3 22.477825146547055 15.507133392071701 53.91809738541359 0 0 0
1166 3 13.792125901399617 0.08794252908805877 56.14008472259246 0 0 0
1948 3 21.595813456198357 13.920231852715657 1.1213779473998229 0 0 1
1808 3 17.971618530913386 16.40521222937675 53.430553001571276 0 0 0
242 5 23.766658442035677 15.557683222775871 55.436417981549674 0 0 0
243 3 24.1925161587746 16.22031506893589 55.974430601886304 0 0 0
782 5 23.618009572229536 14.003395107512311 57.6624767639401 0 0 0
783 3 24.00949289311568 14.54879892961969 56.974185305215734 0 0 0
810 4 21.52973726849362 16.849901559788798 57.78133326281258 0 0 0
1167 5 13.338818041159005 -0.01588085648025156 57.000457715484785 0 1 0
1702 3 17.795909617750933 17.478692311198017 55.52454601458248 0 0 0
896 3 26.881052538263237 17.235339700197862 56.37892812825366 -1 0 0
1583 3 5.662033803242368 12.268982378389582 54.05865254991927 0 0 0
784 3 23.93561595851983 15.018076898862295 0.3812289037071686 0 0 1
244 3 24.466035750351708 15.263130098880223 54.83302302807521 0 0 0
895 3 25.93065145432301 17.900949141105308 55.49174987771041 0 0 0
897 5 26.870829333516266 17.68562291690619 55.519498543674246 0 0 0
1786 3 26.189355772497414 15.985584253973315 53.50565811988639 0 0 0
1788 5 25.764102706811467 15.141264473643911 53.63180539206213 0 0 0

Velocities

271 -0.5081890196128678 -2.459428752840445 1.6738225960127269
275 3.629689613669472 3.444871251660028 1.6282491628738762
292 -9.039226106649464 -0.14144361760166962 -0.6808129383389536
296 -3.2373670448947167 -1.2895973970237593 -3.9806672239617793
304 -1.1020770243894789 5.808282714589104 -8.828518530454131
309 4.512325984729913 2.214351708099074 -7.977799829985167
1615 -11.479239494283268 18.900043201620047 13.96893582626117
1616 -11.158655060308327 -8.942250456714085 -25.366690324618403
1617 -1.2242279408102277 1.8296908700318864 1.669138718622326
545 -2.9617851648662312 0.4833176344686745 -0.24965448849215435
574 -7.770816874779914 -3.6186469978819797 5.737542958621696
579 6.147410132089136 0.6777604117963795 4.017537681979112
602 -1.4155588772031213 -1.2947257503226892 -1.9482790798504372
603 3.326962616174769 -28.257222576450598 -0.535735275304147
604 -20.56747095623666 -1.5302820560874046 -8.829408692388185
630 25.863299957692377 20.339095808164156 -12.17131017756894
582 -3.9257891225690082 -1.7820439065504945 1.2573450358765546
62 3.9304883940131354 -10.400943723778848 6.750430307076553
63 -4.185742670240788 -5.283648019524958 -7.633409218509305
64 -0.26949133985733736 -9.210976048450664 22.16099013043993
541 -5.331549908224756 5.825150462155017 -1.1912881765500423
562 -6.740244160705429 -0.9529176221762934 3.5063779084637168
566 -1.3277943417720537 -4.836060346879319 3.217512851672885
570 -3.991551850921101 -2.8590665799916524 1.726427095099865
1324 27.9105247535214 7.155581576266141 -3.8509778618152475
1326 -3.313595843613244 -4.233477989955026 -1.9980667732609145
54 4.991022958973981 2.658785749507672 -6.993645085589688
1325 1.7157168769881188 36.377573195007024 -9.090012677593764
1 -6.652188739362209 -0.2655141355362979 -5.823402930778577
5 -0.9867122871208519 -3.531962060070412 1.8325612049014524
22 0.610232838687893 6.546111858892216 -1.746027083345853
26 -3.674644338419408 -8.742366247686883 1.317397201183087
967 1.1590628003072327 -29.806104145988158 3.1997128263685286
39 4.070197238454997 -0.055657308495575965 3.0392579132429
969 3.2039855165355307 5.057607371041675 4.5698487904494725
1484 -3.94835102639633 6.514776273440762 10.980900702993628
333 18.433058550926425 26.714628096175225 18.211158090100266
1483 1.9145762686068761 -19.636596561070913 6.717056951983041
1485 -1.2036961869688807 -5.285392258575545 0.326946466864399
332 0.9130642383549302 -7.152368585319825 0.3301144988289001
334 9.082179785332034 -1.852128965983334 1.0010690657660757
594 13.059491554044131 3.916114820971504 -0.3798479196480232
595 4.257147693373194 -15.424696780818225 -48.43627691829162
360 0.8854097583370554 17.450810103655687 -3.4296016797772864
152 2.963106125806518 0.7594008898600233 -4.988159530695877
153 37.639326194077995 -25.499439958114905 10.203627350643053
549 0.9587525312018007 0.5399538116458776 -5.133984085421041
631 -1.959020355451391 -0.4445938263693051 -1.808898874864962
652 -0.40431147389581557 2.412282393639475 1.4719608078261286
656 -0.06392188610139955 1.162835666857253 -2.5337915253695247
660 5.123401169073624 5.278117839876936 -3.8981536367666068
664 1.4114965484486819 4.36339391055513 -4.4382591908526505
680 0.9366688899009293 -5.233729901920317 4.30646302193341
1321 14.214197428907378 -24.711124921428134 17.18791061457792
1322 -3.545025390662265 16.514530933540488 -8.369478354146066
1286 -1.3691050105733669 -24.071314783561668 -13.040431673689033
1323 -1.036604875666635 -3.0487996296269078 -1.7903964924441147
91 -0.23890927387988492 0.32531578209028783 2.6752754327372035
112 -9.504154411948136 -0.29241565157788413 1.964058069256083
116 2.3850037265250617 4.1053545755427 -6.380998623175385
1981 15.965351049462587 24.38647198247991 0.7203211653613146
1982 3.6528575648764363 -12.270099849607716 -27.041422319717356
1983 -0.2669515335368179 2.7003715251089937 0.8926030334953338
154 12.78767234160603 11.214407088486455 -1.202563768857769
9 0.24673507843369816 -1.7098274344966247 0.6596417003788257
42 4.268863744472422 0.07838434162554965 -7.083286657961536
324 -0.1331567743803306 -1.3593098901176544 -9.499403677944667
325 -22.05442746297913 -1.1884810064829543 -26.716006248947174
394 -0.02920601212065153 7.10968141873389 3.14229408907125
422 2.8213314773280582 6.192588306024394 -12.817191704463777
423 -28.098808653179326 28.13523504407708 -28.22881315610708
424 3.3532414077294206 -23.282033140548208 5.652189063074718
450 -40.28176859131837 5.604038009547086 -35.54599249537282
1763 0.6132336625363453 13.391785966850897 -19.000815558291066
1764 -2.9698962119291137 3.3438461819774257 6.661305175629842
694 1.7773372680533444 36.99841975979126 19.00187317788452
279 -1.866090423673439 -0.3088471523596581 -1.6185068003174086
312 -10.541183824583294 -0.173328940387396 6.557985243598979
316 -0.20953154861059006 0.07481647034726702 -3.1782668838648953
361 5.548805686202003 -0.8131625940651364 2.805266971527701
386 1.2461931545845277 -2.775235346690034 6.903311294374954
692 -4.512797983792826 8.536276032558565 4.522912447405309
693 -4.139677711712488 -8.670574504350482 28.814590035816902
669 -1.9464452344609784 -0.3764871370123964 -10.758525870085382
144 -0.8020467913455314 -1.495882851512123 10.02211365995882
145 -24.45228313881286 2.7199478126908105 32.3235132822835
214 -3.6393888862529074 -6.46655902707119 0.7713947963395765
635 0.6150705161826497 2.485691068376295 1.9593693060941442
1042 -29.369567509193605 18.388544210725822 -4.8791968628889
95 0.1759719974157785 2.3860156009383604 -2.6511835933805354
99 -1.375950287286919 -2.4968888792929187 -4.313763948085693
129 -2.9018539097378633 3.056977138081447 -0.5705937009464839
132 2.738094285253047 0.702046856470864 2.4838904476102086
136 -5.8061131490699704 2.926771481408852 0.735274389324563
206 -0.8002266832546147 4.404857143281842 3.536219305998711
414 -10.622192372296357 -3.9385267496188057 -3.694117563611586
415 -14.317386759777238 21.648864439322686 -10.05381596076397
365 -1.8533534413916466 -4.091937435130769 -3.57061328615875
369 5.896635791949445 6.8505140955424615 0.2064418896429331
402 -0.421350427136354 1.2812131607983785 1.953275372546554
406 -3.2769157548705428 0.67602590025622 -7.054418298409156
476 1.5906265522870005 -4.281902674601054 2.3273959526390753
500 3.050110473551909 -4.376485945764409 -6.150477438442196
818 11.47141893758061 5.036366210855637 -11.103279560304772
1491 -4.4420843435160835 1.6378029769807758 -8.695108090473369
399 -0.27975344591304485 -3.2124213153434487 4.974675993650854
382 4.510437528208094 1.7678889591103708 2.508885840559798
676 -1.0171215555193143 0.8018690267778409 5.929177230161916
684 3.5536929504043693 -3.5961282670029453 0.22664307913032064
685 -19.255415668096646 13.016999528117157 26.15920158205678
746 -1.6350232116723593 2.7813147817492205 4.434075326932053
639 1.460474335821204 3.1183217288366243 -7.052853545011449
672 0.9022757154929614 -6.066284226672236 4.295200538607977
720 18.63363337958391 -24.365954711815657 3.2765275403044294
1044 -0.9467112241481748 8.721303560794166 6.069357893302515
181 -8.631104194024 -8.191453301882424 -4.767125714792169
185 3.9774268778996262 -0.288404604509533 2.977697513637779
202 -6.809715387899495 -1.2749558071603737 -3.6146995671248616
219 -0.9925761502009821 2.853160567121407 0.7475322141082088
1043 -1.3838939058495074 -7.565979439110687 25.390306063984553
270 9.435732340607624 4.626523169133434 16.86408741956898
512 -1.3777889720210534 3.135310590059803 -3.2190657461922063
513 4.338671148644121 6.884252103689617 46.90023252629142
459 -2.7666796295533715 -0.8956240750734027 1.0864707495501138
492 0.35517128887458 0.5504165595295515 -2.4731510358198294
496 4.9021750057523 4.822420848804136 -3.881210327492086
504 -0.7596296482358135 -0.2668547442228174 -1.756485321417772
505 -24.459880729860114 -6.048371616585322 12.002123078988049
1354 -9.10670583571572 13.560288668440093 -5.150523624786327
1356 12.548169650059934 4.135072617000813 0.8648335203772148
489 5.705499052120758 -1.611461764164887 -1.0886916711256314
451 -0.559722398385251 3.4493642427660287 -5.09985028626475
455 -2.9858642508587874 -1.3989765786483959 -0.5123133725415893
472 -0.004514214996529807 3.95298860936166 -1.066942609152802
480 -0.6628495949063882 -4.949813698883093 0.17098618444055033
774 -6.106308772383975 -3.6532174874794605 -0.5407310556204021
775 -5.871200525989024 28.178605739876005 15.340958465321739
1090 27.337592032214772 39.92280105650044 -15.737272851551772
1489 -2.0848408831173817 -3.7123447934111766 -8.254911009851106
817 7.414713269786086 20.862916885073254 6.14241212839033
819 0.8403779474146406 0.46869438028400273 -3.6947231027343643
1092 8.631811367368167 -2.163640525387259 2.9030587446810707
766 -5.029099095366432 0.8623799684914648 -0.2436036490568926
234 9.142271289764324 7.181879155789905 0.6451039465672506
721 2.087801250420462 -2.683932596509505 0.31303420011864586
725 -3.9205865833886735 -0.5248833837360604 4.781773976255844
729 -4.9256178464197635 -2.6519729108489773 7.0172281938166305
742 1.733177874362782 -0.9965306082504704 -3.085155203355639
762 -7.156483359104369 2.166586528813378 1.1045409230658583
1355 1.574415119573912 -2.897334828108998 -2.1628287077868356
235 -6.737476295294603 -23.687228905540717 -1.320957770549822
759 0.46425325993040495 0.717292529923218 -0.306852957179531
189 -3.971337214597748 -2.8975602226725887 -0.030943496362275055
222 -3.5482129356159198 4.8700977685427205 6.361792204829762
226 -5.24306922430127 4.967868052991002 2.6018484232696037
1894 10.85165867424236 16.453751632113363 -24.923885071086907
1895 5.600875389727545 8.987154098744782 -17.277972176747898
1896 -1.0483072345954043 -2.0953315615960695 -3.249427323203938
300 -1.8647412748737588 3.1378286998015392 -5.986323094120544
283 1.8871593546342147 -1.1584670958852556 3.75737259847123
330 -0.46714057377117074 0.5278073109601538 0.43940315627549204
557 3.4750402171215784 -1.833798415216875 -1.5662463621117422
552 -6.041223176394898 1.0823674584366947 2.3307055598936053
569 11.87315173534231 4.499475875244454 -0.7583410253479116
589 -3.4259054746930078 -0.16446426128380212 -0.822439737852854
593 1.6504444213839586 -7.508984916246276 -8.850194485010746
17 -1.4479962122106693 2.8502011468237223 -0.5039126973861319
46 -1.6562991553468842 5.318759190556311 -3.110590466892097
12 -1.8321063945259475 -0.7295073006014268 -0.8867625066501946
29 -1.3710629464126192 -0.9129252762696208 2.9298105853499306
37 -4.104836350663212 -1.8584778750676478 -9.422702361486937
49 2.273996064249713 2.7085346957992367 -0.181576357466825
553 2.790919644634331 -2.3062378319402836 -0.44284113425534494
30 9.170183072936483 2.8583580943398905 -3.1556660929312916
34 1.2351516613094775 -4.969505814041707 -11.356857235472145
13 -0.014934207063061061 -5.823047919119352 -1.1427402177134849
53 0.35449813348264037 1.865933375862598 4.4923966470627335
319 -9.045105721468646 6.624282919514351 1.678998891353546
73 -9.748437049839104 13.651602700412742 -0.7556587532269902
307 -0.04309695712369859 -0.1875898139108836 -5.76385392138619
287 -0.5660068415075826 -2.008227939798053 2.088677010287359
50 6.813684938325699 5.689154735172935 -3.263911617557454
282 6.831496162102644 1.7552506963706056 2.052943481576964
299 -5.202468449053772 6.4377838897618656 2.553787273347761
323 -3.2017187282899022 -9.455991319491925 -0.9696309358117028
577 -3.3116880261428974 0.3332760016494242 -6.634721527269873
544 -2.2430280601780153 3.0004120244028525 -1.0605145499428807
556 3.1542787323256944 3.7861204673740536 -6.226843462097819
586 5.760900551118073 1.7507981078652486 0.7277005577684249
107 0.46864723850100465 -2.9983748674700683 -0.433889524869807
611 -1.9475333355532125 3.8459546683662684 -6.874912060184919
102 -0.6558365188331015 -5.490626547387836 -6.708962763432457
139 3.4975420151746563 1.4937783063957948 -0.32462127550564157
560 1.7833257130284517 -1.6659770622517296 -1.4141723535801456
613 6.907538898895677 -25.396715800338015 1.6243010243469378
643 -1.9324503913915505 0.1504492507174085 -2.2485389437224104
663 -0.09587837745941673 7.643782851091121 3.679206437365778
690 3.8166253882726724 2.358426441306293 -3.6693476276923795
691 -2.9225153704315665 23.279023471363217 4.0846575707523805
16 -0.6864483456607458 -1.475815358706997 3.021332581180986
120 1.0232556634590135 -4.8993170273969 -2.56384104193523
124 3.0367894428688866 7.083473847085993 2.073633617618956
4 -2.723787435556272 6.831831583192342 -0.4193805205936684
103 -0.1351604371141771 7.689842042272838 4.004972678903736
115 -0.023694417664288144 2.7905713885547483 5.902466463183803
123 9.729841050062452 -2.9523442228167163 9.717809171294252
143 -1.65680165578115 3.026754114891085 7.498587261841947
140 -5.528157163682117 -6.54961007545837 -6.199272029514765
286 -0.9431312434691742 2.0640398534141013 -1.8876736265913077
377 2.756280008479078 2.4083675805697893 -1.5838457197280065
20 -0.8603886519391879 -0.8250104969606489 -1.3443064956913582
274 0.7407507524495225 -8.807438194196138 -3.163321871251665
372 -4.21061575759324 2.6456081897899537 -4.3514431059929874
385 9.653208939384095 -3.2026278500667154 15.241715198140076
409 0.7229737951078036 -1.2664455994572463 3.677889377584831
413 -4.985253469512587 -1.0542811048594007 4.953118868965626
390 5.974880790918961 0.398306347760154 4.436072028926095
410 -1.5781912446846469 -0.15741659217697754 2.9140717575786033
647 1.0615848893963857 0.9603807460461947 0.0780012645027531
290 -1.81080510339597 3.3080151304432186 5.79092638633461
373 4.214214985281164 -2.8032847356366655 2.802696577461859
393 4.099297198183845 3.522846438271599 1.6157956512911649
642 -3.2574215390108336 -0.6221746644999078 -0.15876188271440966
679 -0.1179384132654557 -2.199580544224745 -0.4570289885321662
683 5.592879185331986 4.525826671127375 0.5128715525720801
94 -2.4462468318632338 1.6226002878855679 -2.5107371282247515
106 4.465542207928418 0.43169662274059056 0.1083560378764724
119 0.369711473531501 1.739042855810632 3.673266941228482
127 -7.728089070451134 7.2509236476434715 -7.450533503858587
205 -5.2170218951397 6.040271147928754 -2.94439792202694
213 -6.037409919050505 2.0602068973618546 -1.6950434041922047
230 -7.21330974298121 -2.084475428806888 3.2912925696571302
376 -1.9841233238138156 -0.14834930149123182 0.4718633907878882
110 0.06734195604732952 1.0482424332475355 -2.2871423378411655
397 3.7704959881008304 4.311037003520642 1.713849488590077
475 4.619552764992697 2.009337064114148 5.648608219180089
499 1.3805737808764862 5.033685174803805 -1.9873310240963493
364 -2.522658213409051 -3.0682445146076 -2.363299758692981
380 -2.283627299080467 -3.7203127908344302 -4.159099660137863
389 10.356164934405667 -6.60789696881141 3.628259820619013
483 1.255573003578929 6.347378192756359 -1.3420456239569314
431 14.249836536554461 -1.6582201564901689 2.107188469470596
433 -28.570995128770644 8.034369133460304 20.604339952335852
432 -19.229629963594675 -8.805869162453341 -25.805538861354513
754 -1.8648670375108267 -2.9825131666173066 1.8837055757150634
634 3.6301281165977923 -4.123434067864057 4.495892123306585
646 -6.806997447454344 -2.851980661979606 -2.4538936466772596
659 -2.9424166611045863 -2.752550263450555 3.8764505886392984
667 1.5235057202650382 3.3812315164703692 4.454494263854495
753 -0.9965780531149144 4.257838423074275 -6.528118699368118
770 0.6006571003511367 3.634449754451055 -2.9270903558686885
650 -2.1680236607613104 3.593857293699182 -1.7875626193951446
229 2.71157844344345 5.147905280564809 3.259641591706396
193 0.291082077619077 1.8359351294687887 4.63543862861763
487 -4.088675638069021 0.5892398199904892 -2.6305462166745666
210 -5.099796283034992 -0.344887863616059 0.023862098447893776
466 -0.6501523054857927 0.4585357031840237 7.106490033069165
320 -0.05175940692681707 -4.54809947637533 5.726902088156362
303 -0.9150087629268896 3.778154862390182 3.6180877071050186
454 -2.645640652520686 -3.2232524168657104 -4.572154915169865
462 2.589737906525249 4.652968266067055 -6.5932602393666295
467 -3.0866340556693697 -0.9584397983750562 -2.4892011627736115
470 3.666889715902694 3.045012357046511 -0.9963834743299741
479 6.174062723773472 3.3929826636293727 0.5604041771270577
503 11.535837472942692 -2.3989421037474807 -2.6001972236528372
521 5.62993817597097 7.615477735218927 -6.817367186014763
484 -7.64342855018129 -7.249575467558251 -1.061333881944855
736 0.34568734407229473 -0.7199506970054009 1.0709514492418142
737 0.18183184560716414 0.39805704488103233 0.6162112713876231
769 -4.611833160330896 0.1311885674723411 -3.0195865016355095
463 -1.960325356167868 1.5079602807862067 1.749678019170897
510 -3.721517528368119 8.006104105146651 6.0581997625038735
565 -0.7556628789183956 2.7314786484450564 10.458990582097359
573 2.9651455302576863 -1.9894313816397677 -3.2336311991629225
724 -2.21942035626006 -1.9152975033730046 3.5434053291373364
732 -2.096316958246065 -0.21252256840834644 0.02349569769525998
749 5.6871940769797416 2.090289470770677 1.3874017255903457
757 3.8661295795688115 -1.1250142092057815 -14.223445665059709
196 4.316449653005011 -4.331891692206751 5.486331903851572
590 -3.6203883241821613 1.1329379723087318 -6.193601384873929
750 -1.9548417961218478 -0.5152084756508949 8.258117299218412
25 5.788352160747333 2.721720358967838 4.452287692391271
217 1.4024515248127591 -6.707261306539115 -1.2043686559445057
733 -0.10598317553785867 -0.019541738392982975 1.69528617651721
740 -0.04782359954619879 -3.839893813570291 1.0891831729304602
765 -7.372473379544168 7.349202581865845 8.070486833484594
773 3.8318034663484886 0.9238982481831512 4.0260661656606205
791 -4.860113938238516 -3.3949255059895704 -3.6912347097252205
780 2.0008479037131943 -0.7306018188298921 0.8825922751273512
197 -1.7286042028688682 -1.373010615729547 -1.007873027299739
33 -2.0743555452270623 -2.0581573684078496 1.018010909822893
184 -4.514071749174816 -8.453169807616934 -0.6448236836342708
192 5.940912116320416 -0.9095778640665426 -7.897173091524881
200 -2.7554168844241733 0.3121730883679937 -0.216595496547514
209 -5.441565025465461 -2.2051094212665565 3.5668837659225754
233 0.04372887974262213 5.1343323924540565 -0.7441992359941827
278 -0.205239815718767 1.6793799392588837 1.3989217083889725
310 -11.032599156083647 -4.098702735477786 -0.9935427929964713
331 -17.875190780811195 -2.939701194973069 -12.85616772276249
353 4.167470525657092 4.335876972593138 0.5502854500382544
355 14.806011530285973 16.858672544619385 6.4507504206152575
354 14.177337452417111 -5.523075987013355 7.346119813358028
585 4.063668044548017 -0.03299702677150099 0.4624118879037096
612 9.384625126065107 15.150710653257315 13.837138412814076
614 -4.4353936431046375 -7.222871345366591 -3.207639189630119
81 4.168526467929719 7.506592360303719 -20.151649359884047
82 -2.063230834826616 -23.35053642203545 4.72391208550338
548 -5.5684497360854515 -6.25674530742172 -0.3228974441413737
561 0.7742004193577315 -3.1884554352049044 2.830720032656211
580 -4.3792123695200145 3.4123475595722823 1.2983359049369934
599 -5.825675541715051 7.46333143816897 3.2661547710574816
620 2.5435408874299754 -1.6522275857623736 -3.3508917350845007
45 -5.202554137915367 2.6884434992662762 0.17435773216172223
600 4.630275636552418 -6.865660406692143 -2.4689760265680927
76 -12.446716326339846 -13.151820318555947 -27.864354878769547
86 4.954852030887909 -4.333130568899118 0.9129638984761794
87 1.7939723683446978 0.6622056077344337 -16.080685098162725
88 -48.8362448323169 -19.47909311956691 40.099997138770355
601 8.484651536926874 -5.946381853888167 -35.58081970652613
623 -2.81387406416547 6.804314825518917 -0.8124826579094152
40 -1.1730608844606731 -8.635223978516018 -7.445589772015481
624 -36.338447089948644 -15.667968068577137 6.106422116064294
8 -0.3668782901522571 -1.6341567354949187 -0.23671924067218192
60 -2.792348948870436 1.013782154771139 -8.728451353919976
61 22.53500004988785 6.274004756285654 -13.068566807846832
72 -2.7670205391728095 -12.020570019475334 6.041395226781805
80 6.505417806571476 -2.5477549062618547 2.3294747619986924
83 3.285393489500582 2.006768653720987 -1.260438758007127
84 -0.2859783041538123 2.123639147082498 14.731094004169712
351 -13.47301702278246 -9.73486010247791 -6.354903874559056
356 -2.584473239750095 -0.752835505902107 -0.4649194756316954
358 -7.8960189688570654 9.769569334319108 -31.94551029370989
357 -10.351525415266293 8.936288441073392 12.842199909435408
175 9.613253096579907 2.218797420008975 7.202230585014943
315 4.100030674963987 -6.062594405627923 -9.173940147889857
291 1.371563367719352 0.6911205044933918 -1.5324629992694851
350 -7.313793238666271 1.1185372364105524 1.6302599970926006
621 -17.90543900640815 -5.657929571135578 8.338048273206597
622 4.069644264149079 12.82487158538166 -19.373807593862754
85 6.134988684067711 -5.926206533109389 -21.3234024346676
311 1.9113294626104316 -6.3018706579946695 -2.177608921190859
655 2.8534520747712095 -2.8819978954382632 8.070170126957581
638 3.0307855306515226 -3.7935397620938187 5.548877857920583
709 -7.788205200785293 -17.08696118019505 5.0327832734344495
707 2.7666895124944473 -4.7177289506234565 2.369717139802224
708 -32.13159829418196 -23.96471982425009 -12.124282313427146
135 -3.0469214717146946 0.35792365025642864 -11.834986060509726
615 -11.164779472299974 19.447105654656255 -34.03540736422339
616 -5.564313163460891 -39.49726004664977 -16.828450675652526
670 -2.1314338943065314 -9.056258937637207 -2.430098613120351
713 6.655575185863677 2.1625485062028957 -1.92420085687934
714 -1.2795696057699333 27.171927835403903 -14.315033317205097
715 -6.462441456019573 31.757116918494834 24.113937269588938
699 -10.661422594303028 10.505067323189353 1.0911025728768016
700 -22.60375659538024 -11.350960136566513 -8.104951466592304
74 6.538912200328088 0.9124580018295556 -1.2629317283317525
176 5.3570730797118 -2.459410664690607 -1.6162282051935954
177 27.123310597674465 -35.175651650722486 -1.287763258960992
178 3.7975340091516716 -4.8804377308574844 4.363662117849613
75 11.016405807481336 7.456247497032932 21.05661033101619
98 -1.1865133540566415 3.6713772464328347 -5.629579282623389
111 -2.533427129690476 -0.4065104920569399 -0.34935158175833714
130 -6.451986846736663 -6.633771598566305 9.922544412550156
150 -13.304534275809637 -4.847949208625393 -6.780243945238328
151 20.632582037622278 31.89721689567789 -1.1789225104101853
170 3.253739252301019 6.681099481433952 -6.746593384954217
442 2.6260156786230464 4.692961955284374 -10.94209385673932
434 -0.28829531286743393 -2.0988181514069257 1.2412133572768385
405 -0.300767202914092 6.985570147359836 5.635196602311788
71 -1.1814584196144984 0.8159118255791827 -4.696302855071731
344 -12.313228017540414 5.590269803220673 1.666779960480293
346 13.918934053777951 37.42763289815705 -6.097732110614406
368 1.336554806486398 -4.053777702616721 0.9481087623550097
381 -3.976352195068352 0.5795377005248014 -1.2901945288011378
400 0.5256651464840647 -7.390370251586148 -2.228772541142187
435 -6.114711241176564 -9.055232853297907 5.700961123843573
436 -34.219878166280346 -15.50560324229273 -0.578834715744857
675 -3.932033213235004 4.16929182035828 -1.525509989477401
345 8.728082056868661 2.8903939319313348 16.596874342740293
341 -0.5662763600830997 0.13574243721930399 1.2705671835485932
342 19.301550516020214 4.846998575603444 -23.97662635594058
343 8.262797536400768 -1.196466684855517 7.348709965500719
420 6.372246840579228 -1.2508399409019553 -0.4173406038434686
421 -8.156315640498905 5.909022344001365 15.596580978416846
651 0.2304769698028499 -2.9725726338845027 0.9066297129669157
445 -4.987104669302071 15.361837114632777 -4.3234784433439035
443 -1.404988133974777 -1.4062306353248497 5.221983866198555
171 -23.292263277096765 -3.0150265086847305 -8.152263099745436
172 9.66115574619788 1.8563305851203147 -8.46208028937006
188 1.9735958063145949 -2.2143393752013654 0.6406382354128436
201 4.860756619066178 -0.29061087977275035 3.1356559896581113
220 -3.7486770919831645 5.815202364659126 -1.7156769231474036
710 4.873414257913051 -3.271782038444584 7.139091089947262
698 4.433817932462347 -3.70615282153175 -5.780147451221193
163 9.489235705511794 38.336273393824925 -22.715896045073563
264 -6.335903824938743 -1.0457866498840362 3.2540775813193297
161 6.740709011701111 -9.089870891640013 5.244650056564945
162 -6.6196972753754535 11.926842316845038 -29.461168708238247
164 2.941724064999165 4.502412480173017 0.005266762708074905
165 9.26297718237815 -0.39379727436219697 19.469997834679237
263 4.3051892198800426 3.2198485877265 2.5915268601200547
265 9.103573123806235 -21.617872798530062 -22.715949929322765
458 -1.662805766777214 3.3791102556457324 6.2440223372925425
471 -8.235882818426496 -2.4646066953432997 0.7957774333396376
490 -0.9038900522924839 2.455665866853886 -7.171971145139187
446 1.9379029728913348 -1.1815516101948276 -5.25644340159321
447 13.344260063499965 25.730295780319096 11.130591899092874
529 5.615036162460772 -27.75859480990343 16.70517815602335
440 1.0046073708781917 11.386372996588195 -6.166160563653665
448 -22.887303759516445 14.08971459991047 3.198007997297117
711 -9.983182907077087 9.468596041021716 -25.491953607978928
712 -23.636250210065572 3.9279315797830603 -25.57881343160958
716 1.3893504819336324 -0.8934810565299207 -2.388702290600531
717 6.796065690622589 -6.465202881547845 4.188107986007775
718 -13.243022824337784 7.518092668351849 -8.274469947884313
745 -0.7957623008401542 -0.31707111040229385 -3.229290480591883
266 -1.5571661981921814 1.3289383024561015 -0.8595406946132307
704 2.5745434707430825 -2.3249508460248887 3.4195815605388478
705 -20.543759151668358 -4.095515150465991 15.341250003380562
706 -12.34097499417782 6.538138990082619 -10.746008677244399
728 0.09167466468974045 1.6966554184555527 -0.265764692856351
741 4.986422256523811 -6.833292315056118 -2.0956084204379737
760 7.679775499366592 2.135588835424178 1.0165476964874953
255 -20.663504120508815 8.390330284158155 0.8984427956504787
703 -17.774732293981266 5.754826970043187 11.889346224344926
702 -38.80012757277723 13.301067010606333 -21.6885491962698
701 -0.8841176915011593 -6.4447024340445696 2.209360572820127
803 9.783374639833186 1.4729605576887919 -4.861907147283276
804 -6.390532340654773 10.532377457468645 10.812735282560492
805 -8.195235441246108 -6.129290615172037 -32.40276015439557
240 4.927863398531449 1.4678328528520372 -6.348745427809757
241 33.60979666216337 47.33846642985612 27.472370902058113
251 5.7328796332497305 -1.82737270830116 -6.956028252359474
252 15.851697683377283 16.705498107083883 -8.151155190448932
253 -8.436231543339835 7.381366273199406 -9.435525757083248
260 12.278781563348522 -0.18286267759828992 -5.937332702767398
349 1.625405558722248 3.681917963742619 1.4405106353520603
531 10.641279180278694 -7.852105395525484 10.531244027131324
532 -10.394175041110458 18.928764429878058 -2.0472761564602013
295 2.0263426994293154 -9.37535245040684 4.083306079580935
495 -1.2525115774661495 0.9206972650691655 6.632792943910725
166 -17.201318771298297 18.18160313879931 -17.928368356242668
523 10.930827257923404 25.267914883309174 0.6944295604240937
524 6.756830951864671 -5.411086885510801 -11.422307556416122
525 28.636676193201353 -5.841942262002982 -5.7647687286995
526 21.288263078799297 23.249713325066054 -8.288194821870858
536 -7.9099620504052695 -1.749224923355794 5.318211379462709
537 36.282661859516566 -17.295944697146798 -12.185492964133541
538 6.8973850600779745 19.40797820062643 6.808673715715102
491 -3.755754635176791 8.975104069666648 7.630825276873267
522 -40.69782194617997 -13.014855185973063 -0.009893190213498352
530 5.614070697504728 -3.999907086058853 -6.145412274922947
511 45.49132519292033 20.425646738500664 -15.667206817650266
625 15.27001397303761 -0.6079598994027805 -13.180844025777322
794 1.8508273440730534 -4.1204161266160595 -2.540677964925398
795 -18.81319067969656 2.6242678268179493 -10.498226829777522
796 9.077660718574402 -13.178725010171643 -0.2761822153574917
801 -16.60712999501076 -26.89490676315107 -1.5953552721615007
802 18.58699587213769 16.59414589240226 -16.46781898939
806 4.185172396779172 3.3792168189608245 -8.728533508579863
807 25.73860388976865 11.58352376549028 3.542719329559172
808 3.6642365134513013 14.655261379248833 3.6487350432093475
793 -26.04145202682599 -5.370286392794125 -15.896354772030044
254 4.443701219483762 3.921929843259466 9.088264281558523
268 32.29801111811783 19.21925478292085 -17.790556128860366
781 16.2419836527406 -3.2205566330983944 -19.02369170864153
21 2.062754382088412 0.8724726594865195 -2.1836727781139604
261 4.976962819773271 7.961206536907002 -19.506388092100984
262 9.890044535512782 -3.5963646755707117 -35.00445940924866
792 23.59043686451504 31.09720309204426 34.05649887899168
800 -6.101205199429417 6.96859292346624 -1.010935238039675
225 -2.72091266429662 3.821226032754615 -13.413958222288773
267 5.392585600613042 16.400475477199024 -3.6127492374845227
256 21.246607930962725 7.768514478182964 -30.538741738923285
77 -4.820352128642215 0.09159850290681747 -4.809903807008386
78 38.45968431138939 -13.284934420574826 12.345786917263494
79 -4.228411198666963 20.75815773981487 -13.64037408431744
273 -1.8080645369369168 -4.310551315144724 0.060031193124670444
302 -2.29429871820415 -9.791678510261212 0.8171102292518678
329 3.0963576576517555 -4.337315466528289 28.45213710837424
338 -7.853626803435268 2.6179149468126472 -6.453682266089097
339 -4.986581572434381 7.575804300857253 9.659243428175273
340 -2.5894402776981287 13.462222223671258 10.176516806394039
588 4.139198010681762 -1.9535246573373943 -1.3689197681101455
284 -2.1138634541534027 -0.4044442971151446 2.290124176177726
543 -0.8774806055209734 3.396565745499732 5.82824909461084
547 -5.143444003961232 -2.029572094987877 -1.8960775003449974
551 0.5207742478978236 2.7391557235683783 -0.07141853054100376
564 3.870738997848057 0.24216123896748468 3.9219644404226806
581 -1.1083824942425147 -1.829573654606106 4.3677604489503645
584 8.9494692478481 7.235961051445164 4.282051212594474
598 -4.765227386715158 0.21244246972020384 6.830265784800854
572 -1.9900865294069667 0.11469633973644101 1.1444717379572245
7 -4.559655815500947 0.8200129620187501 -2.112596343441137
11 5.218383176117895 1.6093620305463785 2.5134573925740242
24 9.094079625496825 -2.0084064684191407 3.2271758806569175
44 -4.57333276297017 -4.113958422189655 -5.660626794227901
48 -0.3792556235858547 -1.4345738281487044 -0.5060026237877406
610 -36.03946306680664 0.8212270878317908 -18.172624407630412
617 7.104913266178791 3.1203512591546345 -5.168618778770409
618 -24.984942889020633 15.629667601136962 -8.802003040786708
619 17.336469562489253 -4.890171326115134 -5.961266890102901
36 -0.3742440783793578 1.7970386786536543 -1.3401520084706484
142 -4.059567998255876 -2.437563769111812 1.7630490899570606
352 19.756017195498103 -3.1268952314839153 27.724155772938076
41 6.176685984925962 -0.6159548573933246 0.4739912864002583
3 -2.3050930316828135 -0.01801125925714245 -4.0453452059988635
58 3.9280895526335016 4.031499526976032 4.234248640945767
59 -1.2133330168707057 -19.306179753627106 -20.937191204293885
68 7.480740563867708 0.4960624134507635 -0.10207644688163409
70 4.055014546258575 12.447971691033846 20.479211630268093
318 2.814298006994901 6.3620235090966375 4.666640352623261
281 -3.6405899834703233 -4.406729933315699 -4.616638784043743
174 7.67440489321309 -31.80961640683758 -36.968086218559854
69 26.841207969734857 27.559529234784875 -24.46840761966526
32 -0.5240097128590483 3.4266851535726675 4.561299411067416
277 0.7018180888773764 -2.832513072314647 -1.5430287037067631
294 -1.0245165482801393 3.4472502614676053 5.015790182799968
314 -2.0167474640877647 -0.29731353179005277 -0.5769959402431158
328 -5.137171089441037 -7.236522761013056 -3.1565682984212473
412 5.2705833912683495 13.44210722304606 -5.129445530620243
306 9.43763668228115 0.2730069580012223 0.6431386401178422
633 1.4918888063108846 1.140466935031344 0.0019410922990068908
662 2.436249007911903 2.450026640002401 0.9688972790390207
626 1.1838589664529897 0.524177086287502 -7.7138765632149635
628 -1.3392578412384297 -3.17608431980051 -6.64759740082071
627 -12.725130041590688 5.5093238977599235 -11.251704621461885
658 2.72174204048229 8.862717562902034 4.291526248740052
97 -2.9957649432819857 5.797440869609229 3.538518069290439
131 -4.362167600632352 3.663677728929085 -7.491289703851807
169 -11.224069948738176 -9.110863481167874 5.438928869336703
441 -2.359787765870898 5.844725765033313 12.771337150924746
168 -6.711958369613171 -24.434679309096783 -12.459779945546032
167 5.399295129626496 2.6911915105706257 -1.3610717502849699
93 -3.154838689656606 -8.577208574013397 -5.20374269941934
114 3.6601353083620407 4.685818991935103 3.852722551056191
118 0.5502739498063528 -0.7124207370721896 7.41070801427494
149 -0.7955701760612035 -15.238722251592622 9.267675739064217
158 1.2781990997771313 2.230324409350873 -9.065558864335776
159 20.680843963699687 -4.3194371812877375 -21.26649716584129
160 -9.339843033506002 3.3129013029345495 -8.63977594123633
109 -0.9406303877711876 -0.9286327498400879 -0.03305695898269414
122 -3.638281833493052 -1.028678174627657 -2.011295345981662
173 4.2010538067398615 6.254385236993957 -3.236747133105211
363 0.2672036187893882 -2.9607368614311835 -0.0956734480331764
367 -2.30722346280271 -7.440589042583028 2.47002954173368
384 2.7635888997140667 5.326877122820548 6.303304074184703
388 0.9101139117222672 -2.682541959204908 -1.3289398162676112
392 -4.363970313326623 8.72626314498869 -8.80521074872642
396 1.447276362853525 -0.2914959102779231 7.78823342037571
401 -1.2384706399577474 1.4979389296660452 3.043752266326477
438 29.772496504365943 1.8694129538348068 -15.683324696294713
428 -1.104498269482371 10.185536954819565 -2.346273480726
429 -13.834350576110896 44.217392172435886 7.677235564200627
430 5.822934646777056 -19.87654188110219 -15.066411680988056
437 -3.5631759625814263 1.9275537137721106 2.5727664335846874
439 1.4269575785198017 -14.663126790704297 0.14587648129671074
637 1.7769827962537115 -0.44803875727687315 0.3385276424278192
666 -2.7926628673136102 -0.23364062234931146 6.036471468624829
654 -11.036392588443324 2.2499355055727754 -5.05338276483245
444 10.127285844619962 25.285329226008425 -35.092030329546866
678 -7.13263442758316 -1.6339916762916276 3.6084720648162323
379 0.11914269895873518 -1.8964873045397523 6.8890948344933545
671 -1.707509099717147 -2.090647335027577 6.686767157626224
688 4.128053647843703 -3.634827993116107 8.289971203543763
101 1.1543237856624748 0.0693083535416987 0.1999944358062903
134 -6.72859461239156 -0.8089793696870048 4.873476671128061
138 -2.3091503367681367 -4.498037738307961 -1.9143876639005766
183 0.7074131002996772 -2.0083395430088093 -2.78728975424509
208 -9.558837307664287 1.105991561742664 -4.402309798575494
232 -5.316574440506674 -5.825540266667569 -2.101934994300306
257 -1.0898822745309025 10.52267073215553 -1.3737025724673795
258 23.47825253516016 35.33576986990276 -9.20703991258001
259 -5.029383242752868 -5.642615181637037 4.204520636866376
689 -21.591229959159374 -3.0156262233892868 14.467710303722598
199 1.7517199175386835 -4.4950278987771375 0.5432465820603392
250 -17.52688097048078 -7.139783019256309 -42.25494219781876
148 -3.7504832226897054 -1.3908404466299826 -7.005969711593368
248 -5.918515310448722 -5.579295421066628 0.740432103325032
249 -8.305119857393118 7.079291711225093 25.414103979587207
408 -4.276026064775216 8.565424443163444 -3.235691286471872
453 0.806278005588799 5.166190857243501 0.42529884067192153
474 4.055973182267735 0.06746861112803285 -1.5534661447864717
478 0.6224244694186393 -0.2635936892314839 6.4663951682839995
486 -0.4324501822206427 12.997091287388614 -3.350370917369584
527 -1.5050924746823038 -1.6350141767874689 -5.32609009023094
528 4.9333685460209455 11.32632540351225 12.526103919515107
482 3.502809317404613 -4.437397427351116 3.001855878419332
104 -1.6803887166423535 1.9520202902145776 -0.8154868435923218
371 4.699391585273352 2.185652389450113 -1.3361938750062152
404 0.9452364312720362 1.039813346536109 -0.6908291599397093
418 -4.461365604785942 -8.566272165460186 3.3410182724120863
419 -24.78802298812353 8.659940478306307 -3.870443145357908
502 -3.7150554448780695 -0.7267432657067434 -7.189440552582594
533 -1.8384650716723545 -9.980213721171888 0.8166148822229471
534 -8.894504878467437 -21.971997408251784 -1.9859702710259828
535 -18.837365502999273 5.510319433515434 -2.6295972839640025
756 0.4177544853977445 0.37017570842446057 3.534563268582797
518 7.73109012448998 3.323975949865873 -6.135986026438117
519 -2.7564905119110303 -17.263061230942114 34.49717645431545
374 -2.758791805519763 -1.4841360960847672 -3.3858781866217007
469 -3.6276597192362443 -0.7691150037681727 1.6455705992060663
641 -1.8464819145421545 -0.5339914266052117 4.399142226352422
674 -7.110039582668655 7.75673771812241 -3.953702719363202
723 0.10331905056139763 1.5510684626578901 3.9363869255030934
744 0.8681226010422927 6.600515722977154 -4.103961791626474
748 -4.537844444909167 -5.017658359150216 -1.6296330220998811
788 4.5592247363530145 -5.586152763129812 1.1137026340015475
797 6.231584137154433 -7.256479511607396 -2.8960489024086633
798 -1.698339511117412 38.06131917261155 -14.300960201678308
799 -14.367875558350287 6.2173533812352 12.965358786542634
790 19.435235860364607 1.2372875077057284 -1.876767612908241
752 -4.719526676815315 4.352411106330975 8.62038301843295
772 -8.476004855467538 -5.597781158737074 3.110852886905312
789 -13.088308853163216 1.7916166774845175 6.992317936454203
204 1.0801937697617148 -7.604599637452582 -2.4191758800394627
216 0.35261651986589726 2.888424455206771 1.1927273319132787
347 5.858428854132753 -7.427200107747853 -8.572851204526888
212 -2.033364320856452 6.838449258011009 -6.1412402217036846
348 -11.192812610851654 -10.699783866656375 2.141267112844386
238 -6.7178365250427605 -1.6658360881775767 2.9221473264000966
239 -27.46251769001795 3.669085814689202 23.887438458719124
194 -0.9822740522653373 -1.219014110763624 0.5117592024778227
298 1.9414433781488925 4.341385108030353 -1.4449641406257168
322 -2.168033568470491 7.30580315397944 -0.651135951266041
457 -1.4110258974423002 -1.7166121647442656 -3.2536944044794356
461 0.0782248308110699 -0.06072092397564333 -0.20824113321588764
494 -0.4049958110709678 2.093768130087813 4.668925489396166
498 -2.4583705686069774 -3.0919737297120395 0.6422652406218714
508 -2.6740283264977687 4.166335401103541 -2.467882822206048
509 4.061457033230478 -2.809684888661816 -34.80909391698472
576 -3.0304546510323025 -3.81675775264895 8.706334298726665
520 21.988307127990872 13.824922117761213 -14.611373745424013
568 0.7033005758897026 0.5520059239092958 -1.9925784449130242
731 -7.113842913090295 4.261416186440981 1.7653545102236274
764 3.53982216898253 -0.6524366480841978 7.54396333345428
768 1.3216130391405256 2.793908590387438 1.1669151235612736
464 -1.6694182653795848 -1.8629762823075695 0.42839940706474045
592 5.428805264429035 4.113499571675046 -0.8709760573451018
28 -0.2140525254233557 5.545044563711324 0.25047005059150146
608 -1.5472828034305433 -0.24596528923776798 4.609478373082413
609 -5.197468463243366 -12.00104506602475 8.218837301967516
727 -0.36158590526539947 2.537878639778422 5.554699756096158
761 4.811943693585081 -5.342153490575789 6.377415659502506
778 1.0589590493138121 0.8980543376013184 -0.44966151301345203
779 -27.750009450231097 36.57917901837301 4.869126787514953
228 0.13150824996281993 -4.643757373472304 7.719205930697981
187 -2.952916985878173 -1.8064269435927347 -1.139520605195563
191 -4.248118335284876 -0.010868417060594108 0.5267558252517732
221 -5.974275396866375 4.673015481973765 2.2841133623988816
224 5.520231879759825 -0.8682482527633303 0.2724137075451364
52 -3.660271873527829 -1.480013886637842 3.6915519093679197
272 1.1654549130978038 0.24137320053494132 -0.33507490479163504
280 2.076746696440851 -1.0744911082769812 -0.3359572459683842
285 2.7191348748191597 1.4418386202551758 2.8946583435577766
289 -7.1686449418328895 -3.927259665858265 -3.077061406506077
297 -4.0413028059566765 -0.7620784196429699 -3.237471385820537
313 -2.058264153686375 -2.970156372265569 -4.568047183382715
317 0.5311708782438032 2.448098584839772 1.3752178112444984
391 -4.501859242412428 5.539627275974684 -1.6852766581760865
321 1.32755664397672 -8.084846695130047 -0.6208708472833002
542 3.0382668536138233 -4.269872206769988 8.472281492516371
554 -1.7660785755776327 -3.9052747856494645 -3.5172862337674253
555 -1.599372533344947 0.775837152564587 -3.845163766116242
558 -0.25304945917439386 -0.4222430000211207 -2.4268935438972092
575 -1.949866382942799 4.467416005756114 0.20498866899152496
596 -4.9810067096131805 -0.4272975623383368 -0.5902620898644423
605 -0.48677627389618694 -0.5395664887303694 -6.043348548833328
606 21.61987439453465 -26.828187787422856 -25.1939504328018
653 -0.3158267820294905 -5.100218439333436 4.563032161286637
18 1.266473456828648 -0.7150584450688482 7.414320817338587
550 -2.3122379803836313 2.6620656361504027 6.716322110780646
559 -4.258337343328891 4.166552782826345 0.41944596162559405
567 -0.37380896162980803 -0.9823263187161426 10.84190767190512
587 -7.960748106631598 3.5603241593293675 1.5535476704101492
591 7.013645263040302 2.3705221335599744 7.60966885176678
661 5.78818957550634 -4.560982161816734 5.946664899145279
15 1.6639053212793111 6.35306635712621 -1.3009987087721773
56 7.7156625808190284 -1.9053317236143783 3.308727119197118
583 0.49482756537542233 -4.895032778071757 7.348128178963593
831 0.28417302727880894 5.565395095772942 3.1872995099235273
19 0.5347741467071652 -3.2288534066162713 -1.9490939356621608
2 1.471859648809907 -4.955592517177437 5.05005024938248
10 -2.91963020003335 -1.2602426059944516 -0.5748742424685216
14 -1.7854464410363393 0.5930855805614493 1.4911795071290286
27 0.5298853558158718 0.4308787037901352 5.132159138127779
35 -3.52532023622324 4.110942274599274 -2.1798418208366797
43 -1.8271594913781406 2.2076697967354315 0.6371572996078005
51 2.0863542273799043 -1.634905817020124 9.660090947288614
121 -2.1729371409126927 -3.2367271843979273 2.751537955130977
47 1.0780606776603439 -1.7639851148121135 -0.9072916993034758
288 0.9877215123804047 -3.681974738908985 -0.5009307129516422
305 -5.605297590433415 -3.1283810951919055 0.28765814853968735
383 -4.675155952745498 2.010272767207688 -1.2170119821985776
645 -1.8451470307893072 -4.507301583166733 2.285445378562805
126 3.5773093115001235 -3.6661835179412545 1.122049005437136
682 -5.094638256312218 -0.02440277549292299 3.207535271787889
640 2.87396133120986 -2.6275672948497744 2.681197337365519
649 -0.990435712473659 -5.467196067710367 1.952020014492466
657 -5.32964636865634 -3.5426181657705462 -0.9818386919994837
677 1.6671584370290353 -9.298533385338535 -1.0233096158231052
681 -6.808553747547912 -0.03454553464035263 4.402184384891231
673 -7.531799539281076 -0.5404688767749061 -2.5860540489726453
100 -7.913925018383373 -3.55028718990903 4.05359295665442
105 1.8115301586403412 2.1733226081772687 3.8770734564192346
117 -7.136747419195179 -2.144290825616685 -2.4907111965839355
137 -4.219992999068125 1.5894763228138071 6.25831662619274
125 7.661380506255009 1.3172171652969746 14.412262559046997
133 -5.281096173825437 7.21610674414589 7.871493369754596
141 -0.028395588856723133 0.27816035440154924 -1.3258938542835752
375 3.1537187444207677 1.7408751091677863 3.8489590984739457
113 -3.4989185661643925 -2.3985279451617694 7.2950656799932805
416 -0.15862149378811186 1.18008805088586 3.5931759724212853
370 6.69868347469879 -2.0686169767669864 3.4005008925404616
387 -2.6612767886957225 -1.813249956521921 -4.466477259583974
407 5.520656002054691 8.477757568543122 -3.3198303423895923
411 -5.545487982208258 -7.835558509719437 -0.7346737844260874
403 8.159108539125492 -4.383909060021902 6.089068776592037
686 2.236958736037971 -0.5805275050163037 0.9512177645841821
687 -13.31580513502685 -16.62226000424853 10.697833396415461
644 1.2617171792927937 -2.0893334029746176 0.392956535871717
108 -2.211936708323834 -3.198345242095056 3.721718175847359
195 0.849082518722552 -7.270923420935062 6.175988907694178
227 2.8023193602373127 0.4705427644923285 8.039994153536282
632 -0.5416609006187354 2.0007132361005997 -2.313460643631094
751 -7.855475044104956 6.498108488964567 0.4391292756555355
190 -7.8640847142671015 -0.6291733796042969 7.378120642377069
218 1.5803335187983372 -6.484519058878711 -2.0183916273548297
92 -4.3675616311936185 -2.2811702231109847 5.683940821792239
211 3.827345123534823 0.5346975045405319 0.6450398444721385
223 2.434768209105276 -0.8740463274372423 -0.649438364908789
465 2.734989720221551 -0.06473816923938562 2.117071098966734
203 -6.286451847800509 5.499486405307959 0.5833639781594853
362 -1.981837955270844 10.659635377860267 6.313491654777516
378 -1.3479220276522839 1.523470349310169 -3.9977989167776427
395 3.320792211989318 4.911503014208563 3.958017675038483
460 2.461942122048853 1.2519929510757104 3.345843689032483
493 5.481057838051666 -1.1040515379897755 4.428919729037946
497 -2.771310115674946 -0.36361033439424834 -0.8511260715295369
456 -4.886515983805673 -0.45409777986410393 -0.4377417033371621
473 -1.0193758932617651 5.284730281796302 -2.774802494140667
481 4.3449757661237625 1.6296682582804505 0.8037742337653481
648 -6.63277691016379 -1.9933793165997364 -0.18653267442163943
730 -3.1068507075788103 -1.2301541647857588 -3.325612083405304
735 0.7242209253329103 -1.2934195093342276 -2.513490112465543
739 -3.666639437519845 -2.195006958966073 -2.5866127330235833
767 3.585957382010668 9.895823255534241 -2.6269532412568948
776 -14.66298269545795 -4.30481742073301 -0.6908044439960903
763 -0.0799836149455265 -0.8215201246896964 -5.297662937867306
665 7.477466034295494 -5.703408701505361 -1.8813227308891787
743 -5.047522287779503 8.4110678477417 -0.4531381628981623
236 5.758933436595949 -0.27539215840708087 7.492945685608943
31 -3.122320561540622 0.6229776328195521 -2.8776499823191237
182 2.286223491971445 1.3775214735334185 -1.0754150088672714
207 2.9947283585197457 -6.095542960263153 -0.47547790859873357
23 -0.6110690726961293 -1.2199271909104632 6.361491176922186
231 3.3376187654496032 -5.360483790575884 2.931496260098438
293 3.8581114418270666 8.385689394370223 5.902459385720974
468 -4.152296885580219 -0.11797971697964461 1.024965409983662
485 1.9083589144411366 -8.576331758051843 -1.7663428537452135
301 -5.206391811429276 5.80882319003159 -7.170177718540319
452 -2.6814489370945798 4.02026890594846 4.203139988566798
477 0.9903283190683576 -5.258758592208226 -3.9314974901596966
501 -2.2981455416022096 -0.15070858299412448 0.45084127891357534
738 -1.879597271910577 -3.6365351225522122 -0.482439653013852
785 -3.5451579169544782 5.121998622014286 -2.1264834618354245
786 10.867242665402308 12.630272595783964 3.316380441565207
787 4.76060561426248 -15.240672150447246 -31.87523291269057
571 -2.564834282246443 -1.0334412658048804 -0.7977145839745299
722 0.9145057291013203 -1.050125822430267 1.889046669855733
734 -0.723277452062487 -3.73843824906461 -0.8080527617544909
747 -1.2541289464762069 -3.424340674208674 -4.167526861083013
755 0.8171241439578569 -1.803838828975698 1.645129219167369
563 -0.5000604208712297 -3.923563522473608 1.9846203350312173
771 -0.5212322928953549 2.096045476507073 -10.418308627728868
198 -4.001638421518403 0.5219248251019194 0.07064272603681503
215 -3.5663568100195633 0.6555190557944506 6.705759373150258
245 2.885025021029512 4.179882582079023 -1.4695882678920535
246 14.717419537253123 -7.815208301223011 -4.383896755262774
901 15.073804544483632 12.917848432260643 -4.123543182134806
902 -7.116091071194823 -3.1738927463858673 -3.5671399719422943
903 1.115521147794185 -1.4719397161557528 1.173274992357605
1000 35.66174881685072 -13.36606400235394 -22.515145427167845
1001 -10.204444733021388 -1.0758647233639551 -8.541179526227683
1002 2.2245135481990146 1.316872436594123 -1.4902232573632124
1462 -29.382190286903413 -13.435284088378413 3.9312537520414694
1619 -23.139496852132226 -17.56471048753826 -20.827688071368616
597 10.227084068464235 -11.533497624282266 4.08546805175006
607 23.57168560890908 -13.76237225565468 -9.617899636867497
1816 32.515710285063186 -2.8216236162955752 19.876801949666962
1817 -21.062672222669097 -16.793423316598915 -0.06438560917349359
1818 -0.626629765531272 -2.3563363952775784 5.16734335089693
1999 -7.737722181931772 4.414195679862373 -16.58876457868228
2000 -15.289438931172374 -14.628693672681825 -7.281511143540765
2001 -3.5714405917760357 4.1665925049167 1.1523018503911493
973 -3.2255858364602226 24.259791670884695 35.344518618403484
65 -0.01955142641340034 -0.10970281095958052 1.5986217631015254
829 17.920148954395945 -20.223845012722798 11.288298315294622
1777 -2.6795005855759477 10.563038460826954 22.010923539726214
1778 -13.913925430718384 -3.3537106804805985 -25.621462882268073
1779 -6.577078288772825 4.973902732759925 -5.474686629409741
629 -6.915616222295952 -5.076350256143498 -8.956945795700678
66 -13.40865707469514 0.1445848016366489 33.02348732257642
67 23.02394620267269 11.497860323198807 -18.61025830954263
335 -4.675823609446321 4.500758867003462 -3.4472528887156595
336 22.631860192893285 14.661272113156832 -3.613028904748094
337 10.975682905416404 41.42501480332572 29.14822239720718
1083 -5.502644179986097 2.574132119068631 0.5236424826311725
1486 31.892131578992306 -19.631894130234393 14.29667415430569
1487 -32.631774742542916 19.572812832145573 9.301592770557203
1488 -0.8158548938298438 1.801163986636267 0.994275504593836
1523 17.20598905765585 25.808626420557363 -19.127584789139803
57 13.54748020431307 15.70953606530878 11.696566501548515
1856 -4.103842666221483 5.4061225533315085 -11.10235747968943
326 -0.15971955343668395 -5.601410923892825 3.58465286890919
1082 -16.964765108615985 38.554021649102644 5.490446920875078
1396 -0.3909393418004998 11.23826673608967 6.540936097627732
1397 2.739276679764313 9.15104855882389 10.207785969482776
1398 3.4636232222528442 -2.002845959101166 5.2312940793871086
1464 7.112149997272587 -2.744639815386205 -4.647865065478978
1205 1.3904298265706219 10.564653318479317 24.339233726844835
636 -4.088271641943864 1.4421205120679017 -3.2573389328736075
668 -1.2197115112155599 4.633908514311495 5.302439527818733
719 -0.7624222962558318 9.004166789477352 -2.863244834457619
1564 -27.7777805637785 20.517813847626336 -16.742562072107447
1566 -5.60059488554724 4.31410000760624 -0.3493077658209004
1892 -2.6619463758071498 -14.976700677346162 6.065873852883078
146 9.13867037849168 -1.7676209007584627 2.8756213048442962
147 -0.8403842902582348 20.35215343110748 14.813751741872778
830 -7.185146309088021 19.85320624558023 -1.8415513296976933
989 9.721837858580676 -5.24597127336888 -5.300019421859911
990 5.979675451754964 2.4539776830005633 1.2908315269786386
1342 -3.02366879027516 -0.7031051362713198 8.634687919104822
1343 11.867926392342122 -8.217384621100589 7.001316198336343
1344 4.3194974556869505 2.2787123878809346 4.254231812254306
1624 10.628047997890322 12.123426356264293 17.781016381798995
1625 7.836112839709436 -9.182116512034572 8.358677641549036
1626 -5.5399759995583935 2.995633664497698 -1.927928850195784
1003 4.998444444339562 -18.20837278928892 -22.65005199225519
1594 19.118667082189805 2.948154206646466 -0.22566114631849818
96 -2.3877718354116624 6.247579988456532 2.1386746751230037
128 0.9811309911506276 -1.4417603198950204 -0.5707717717874828
179 -5.758313777651474 -23.448923670915008 -0.11678146956222137
417 1.3632552253127959 18.52400006843168 23.610551701548882
985 5.6362770542216785 -0.8479865288965484 -5.753305269062678
986 6.3148707411638005 -2.7790080208358234 -7.669036649896274
987 4.33675503667968 1.9509819412221912 -7.559396587312038
1524 -4.974660507901457 -8.534139285684603 -1.2671349261904348
1598 -4.429010968272428 49.4963600350885 -1.3491637348269419
398 -1.0283872831671852 -0.10115006080923901 3.4719076755307765
449 3.301010139452831 2.8663336696338324 0.6060549013127914
366 -2.7160622922662916 -2.7921834516149513 -3.7796642124418915
696 6.749512677999112 2.6287520597781113 5.313521510556446
1480 -18.280883485209934 -13.281132509802175 0.43145608271378744
1482 10.452375974802456 -0.3359304849517174 -7.066821541118763
1493 -1.168332757007419 -14.792678990148424 26.921379652873064
1494 -0.3374333225857497 -2.1394940242069125 0.4941528450913284
1522 11.644340555806638 6.189039669469989 2.8447513480006457
1206 4.100977249156606 0.4111729873287458 -1.0960784496078049
1204 12.456896331784503 -27.52629436562634 1.9145195911575272
237 15.318893199040293 19.505851930891957 -4.192491294949803
269 -7.888721311990026 -20.042469807406263 -16.261059335521335
1099 -7.457401980465543 5.031043659634754 -11.463193836833002
1100 -6.223814309795538 9.76858849157125 -22.818952470881133
1101 7.159122453524226 -4.547517369121489 2.2063172493712084
1565 7.391828817556428 6.709775502309397 2.2674391275285455
515 -4.631498393270154 2.8987500291957224 2.3714653208778267
1216 8.948180552804725 -9.066240380410605 5.292577864126099
1218 4.891903789070182 -0.8347909860952258 1.1986727302935714
1442 32.062520642268474 -0.35634953352346754 -9.696419602576091
988 -30.710465203078158 -10.675419406489874 -26.416582298353372
186 -1.6207263830530299 -5.388913782672834 2.8052564397730437
506 -2.873432008863348 5.442628084528927 -5.306302833640128
507 -28.437896039374195 -26.366067285817543 7.729615920794225
425 2.7864408638848603 8.16560536195226 0.7711335128487435
426 -1.9604287161673133 38.75220670785411 -16.95950565577483
427 -6.309440871504056 10.575866248616208 19.382020716533564
488 -5.983835445285246 1.6403437262290197 -3.258319672775736
539 25.26073565855785 -28.328911747634375 8.339073057493785
1552 5.146506510737802 14.135027254135302 15.905408789402067
1554 2.0805734367925113 -5.793439431295569 -4.84761611297678
1645 -1.301859342629294 10.792238079781567 18.341861333414126
1646 23.621783273091314 11.863670984013236 20.7038294280424
697 17.15822658840415 1.2060055996226582 5.58576642587781
1553 8.199976830860862 -7.652523213611802 2.341547671503715
695 -1.3697543453939898 -2.4710625161123363 -5.143616872065447
777 2.618300867843008 -26.698109704050562 -4.8222705234215
890 3.8700021297041207 -11.69987188410972 8.836837077854714
891 -3.4547435746101924 1.2009588340910395 0.026651972576716913
1153 3.0632404336479935 15.216989862274305 10.044382266828258
1154 4.998126194889527 -21.299064813512025 16.608711017452315
1155 2.5398559728041836 -1.9328837192267123 -8.410865310598954
1481 -27.80802098493755 -1.5487985897231793 -3.7789430695496296
758 -0.18238686462103834 2.4690131752936124 6.174552873470698
809 -26.074499650973024 5.677313748477514 -5.333425289515574
726 -1.867556112600562 -4.839661297005232 2.543254374784262
327 20.467523316243717 -6.793508085337448 -4.303670495648308
898 1.933438911861008 -7.792436959605541 -2.1842822956326615
899 17.92431863798226 7.452768324207754 -3.3619423110413282
874 -3.1421080400925336 24.050259793983077 -8.754775511359146
875 -2.9650152237216356 23.884897790313957 7.388214534720743
876 6.904142769227979 -1.8966846643385782 -0.8656368806471312
900 3.503715627159959 0.8746644988792512 0.9143477634641146
1390 20.987515859117387 6.489213461030927 -0.9325790970516307
1391 -9.369090037182804 -10.004177237127246 -11.259519382140072
1392 3.4615310019371286 -1.9762909198712248 1.532120045114069
1195 7.681931708164432 -5.2969093404105685 12.571060470296983
1658 15.319681961977814 4.467801411802724 -23.363807153209773
276 -2.027283385992824 -0.900336639722531 3.1249115824344282
308 1.3921779739144027 -4.023798180150312 -1.98664493528954
1642 -2.7358853395612632 9.778659454473269 -25.95855679917697
1643 28.563981301131175 -3.990967267978008 16.54352625983597
1644 2.291003835088266 1.0727558594333215 -2.2885074373154457
1657 0.8489712864021792 -10.647378586991868 -0.5307964413995178
1659 1.3863035349879578 -5.045257281298791 -4.456380278739297
1197 3.178881220807235 5.641774307772024 2.235767784320585
359 19.921114407011984 -19.106763646604 -7.162984403608574
1102 3.1030105541676742 -12.186947293267673 8.883690854891247
1103 10.38127738815512 -8.265880927231885 -6.661512874914408
1104 -6.005599397211107 2.438406662193647 -1.1947347745574706
1501 -21.125933350974908 -3.8302218720531913 14.499358184488482
1503 -3.120888657664845 -1.0576045695504626 -6.1156672441352935
1502 11.023442635725416 -8.48637669679495 2.293878205438776
1673 15.436631170247226 15.953505295616521 -10.036860508536762
889 -15.79797409009165 -17.392955472093515 -23.874746843399034
1436 3.625861002951152 43.22540622855027 32.49865779200657
546 -11.328687981873825 1.1437987198616946 0.8475975247808296
578 -4.223161468122127 -8.266792167190662 -2.140552202433421
944 -5.817997511508757 -9.80047193816136 -16.218763551227088
1372 -16.017018021013612 -14.194581270480064 17.26861209236739
1373 30.472545531616422 -14.011263685707302 2.6736448323288595
1374 -6.316458458915367 1.243946755844099 -1.925316679659318
1435 -0.8173731960912414 17.148605853796084 -3.1799628521909296
1437 0.5761289149074698 2.1834953118716385 -3.1101987482060767
247 25.869095267043182 8.294545839453896 -2.3645616210323306
945 0.8150760204805763 -4.1994073823673235 4.242462754984751
6 -3.3665353229432404 1.6702930235185662 -3.15706346822072
38 -4.3938610350930345 1.6301386645476483 -1.27763633988521
89 0.8907054298315266 -8.884486524380245 11.406516809900516
943 -14.568216644542328 21.296119125695657 -19.30192034716315
1855 -2.778619792314638 -0.922995562095013 4.424871351783206
1857 -3.207556776063511 0.6217015009031401 -0.3949946302933626
1027 2.8298897757199537 14.963415834540964 -1.5941484995441104
1028 1.3226053515157206 -2.145238998495233 4.090228609183903
1029 4.608377653005619 2.729937928280405 2.9309651269163335
1618 16.49721898773635 5.545294065238392 -15.60736303466019
1620 -3.9899166225217955 -5.295978246322471 0.9285165491939757
1046 -4.644646888944822 -8.599997587016487 -12.415400883550063
1175 -9.17455047260322 21.050738410063424 -0.3197673466950108
1176 2.871486467537152 -2.638273632275753 -0.5390743022545905
1253 -6.150225498093156 -5.629947511053149 2.855232696123162
1254 -6.5143494250817495 1.1910269971873304 -3.73322786700929
1387 -6.779548828579145 -27.700705589600982 0.7888729723899689
1389 5.799570612625568 -0.9296208808724632 1.0520958714871949
1933 3.97149457800335 5.22820884240553 -8.7521214275384
1934 20.679551783940024 14.95795357029001 3.2690461323422833
1935 -0.3485686198795685 4.96316741448282 2.880681014198884
1547 -6.384979441145748 1.5048082119397013 11.963355236382545
1388 8.16440269377691 -2.1201880770774086 -39.97036705854052
1174 -8.727186322642261 29.688182879996642 -1.3901940872937746
1252 1.8896428993659324 7.65350261306723 -26.267462837953424
975 4.174308794925329 4.870239080816738 -4.759154020350194
1449 -0.7806721803185259 -0.30177555527375405 -1.554349471681081
1264 5.917249220740185 -32.4360978083767 5.702587444229569
1265 -2.6382274140813697 -6.955604495406793 9.55010827737393
1266 7.149652648937358 0.9343166294331238 -3.9588186322968193
1514 -21.540856053408756 -6.559471917931506 -24.164606552654163
1546 10.695153535452496 16.800830443357796 16.050066809650897
1548 -2.0470080485450484 -0.8890386900004904 10.602197009901417
1515 2.120717959672293 -1.185118484825799 -3.093943386408395
1669 -3.640630792879082 -4.371131373979359 -5.560136455577509
1671 5.201418436327308 -1.4747976250390167 2.9775546019679386
982 -11.73053540545802 20.963010602323774 9.238644717433663
983 20.564583707588305 -4.190381562328101 1.568203060932271
984 6.223496282334919 0.34495940440626943 1.6797904483285468
1081 -25.117766234087075 -23.586157654385552 -20.020566379194296
1670 32.554162676043745 -7.849441949030736 -33.878929656479116
1831 10.94032234413127 -18.590775012206464 -0.37470528335002673
1832 2.7036991801749504 -20.859492112536607 25.680287819517908
1833 -4.2594875675912 -0.7562108506414007 -2.657291869742022
1957 -5.386431287562612 18.772914131233346 7.6159461526454315
1958 12.5678348324642 -16.912192159525205 23.05440122083024
1959 6.25802949862417 0.655125214708496 0.9100396822977147
1048 14.009472066199404 10.609411663528805 -3.4884890699712807
1050 2.8200650901791557 -4.6349533030945596 -1.1772029253908967
1885 6.714538217590833 -5.768968807407453 1.4999197969098979
1886 4.921606633172707 20.082902705477654 33.09145957558659
1887 5.344443253204613 1.0471972463125778 -3.539001253838451
1463 -8.38493840661555 6.659596790847479 -47.31005756803193
1051 22.32725091736737 10.518085760769276 0.9025154030234471
1402 -9.086698305567488 5.978425323641289 -23.65053656822403
1404 -3.739067689583416 1.5282087100316726 -2.0624452914363127
1499 21.55887680031896 6.404475113463265 -10.491121002700336
1403 18.844967641396526 -3.7529150378411904 -7.658648303512706
1498 -37.71056803580524 8.775161963275046 19.026432580165615
1500 -3.110031231844027 5.262242523772048 0.09275257083231615
155 -1.1583958759665067 -3.5624154761441096 3.4560673009699636
156 -10.541044919047403 25.46518164745477 12.05707394580198
157 3.2018446113823575 11.58518014782185 -6.269411981395529
1298 9.566432773364577 -13.992893447284809 39.44083222417252
1891 0.6319760969045793 11.957832613712709 16.147366800312646
1893 4.833717416021135 0.6700919577053531 -0.2657895014495744
1429 12.4643130744519 16.63077466801854 -14.946708195279959
1162 8.689493161268512 24.477766927403348 23.575563282690503
1164 2.266025256850253 4.273380618892999 -4.670544557342911
1004 -12.69093563481422 14.672525147491868 -26.641281226596412
1005 -1.266969344687925 -3.6600105803050953 -4.704021498293634
1117 0.3219212805734873 -32.435698770361654 -15.683522285510923
1118 -21.16905667174147 3.9641174299591273 -0.528366117249109
1119 -5.775802981753088 -0.34521660486421357 5.624215577826051
1297 -8.566434044269501 -18.968035469650832 13.402424442781545
1299 5.868412766743512 -2.2919823875058416 -2.109543419082311
1416 0.18920353265614956 2.5455438829386083 -5.018269649042516
1595 -24.531617619435888 10.467421130029376 -17.521599875916515
1596 -1.5292358721270296 1.6549598847255187 -2.1070347983238302
1599 -0.19144734230038993 -4.973151746784377 -1.395968816308399
841 4.90585821154509 2.968223712816099 -8.033326248214234
991 1.9842163616352706 12.32221871093324 4.604355160615949
992 15.25830201586482 -20.273191923794936 -16.41499459528663
993 -1.0439726604721873 -0.298888478967335 -5.557618253857947
1093 -13.638192134090147 -11.08336693649352 -1.768283553401662
1094 -2.9897597277062427 -9.808680858630495 1.104156296120003
1095 0.02625117518805936 -0.6260081449222616 -4.461302842246883
1219 22.041406334519593 -20.348806461252245 -19.431897951434223
1221 -11.5297674133156 4.437374294759945 -10.74833170968039
1597 10.648807987967887 5.869784358808503 -23.413280266928886
1652 11.481918099940117 8.043701188001606 -4.5598579196864195
1163 -9.423202050965369 9.890303764289364 -5.233359023795952
1653 1.2721675694253576 3.8937138941718827 0.2719897330693584
1049 -10.657287421318957 12.119277255851834 5.807227381345476
843 -3.415919662483825 -0.39419193994781065 -2.8332663522894572
842 28.427626933837672 -4.235314680626788 6.5310565097726805
859 -19.34986728876136 10.65497482667786 -0.5357819717650942
860 -4.9369998958135834 -13.406506885152261 0.7712633906499801
861 2.2090048428414257 1.1748783912724279 1.285309013829079
1492 38.2394684223221 4.0653024399363265 8.081076847934884
1636 -1.2209465869437135 10.642131315221844 -0.2628705193631989
1638 -2.3865086104936055 -0.6631169047693128 -0.08298872260541339
1637 20.56855601630831 18.70070636316712 -18.561704946732934
516 -20.280380709060168 -17.544211911117284 3.9716807088292487
952 -16.009862948713312 12.515386467274288 1.612547198045511
954 -5.8309024228471005 4.337983141917104 0.4341830476899405
1217 -5.504623664975334 13.148163036614227 -21.362998977098965
1306 -2.8853696884314948 -6.203970151891349 30.349297913863193
1308 1.1394461443427466 2.9827448411750472 -2.3083342372747673
1733 -9.474871230816422 9.244343393048753 -13.110206625752689
953 16.92699345706667 -24.372133411111797 -15.108358494013302
1734 -1.7523307263585939 6.01733675076937 -5.537358863750383
1196 -4.00294273345169 -2.6843692919187507 1.2599976882519968
1378 1.8679603489801984 6.893023254267902 -10.62747133448873
1381 -25.273038743083713 5.885772811793579 -15.132717340013258
1383 -7.684494666190538 0.3816533826150007 4.026847988693573
1415 11.060725672161126 -4.217778395312326 0.5920298473232296
1441 14.360506091094479 0.7482952439829598 -6.895485365544529
1443 -1.1303883046322996 -3.082572924712319 3.716956043756177
1525 -15.84420180110002 -11.832984417252316 0.5618118860559506
1526 29.989551048166838 24.911242012549156 0.22302686265984062
1527 0.2368107051995708 3.5605147640037376 -1.781654067387454
1382 -1.7795685378306365 -12.4567706636295 0.09434875022334373
1007 -8.525938342160853 -6.2850580298661605 -5.826566110332178
1651 24.1286604417195 -15.296637366296514 35.63068090420571
1096 -20.52233448110185 2.577974940184822 -7.987903497770161
1097 -20.713501911464686 0.6830300830739745 58.62143428326389
1098 0.30435336922260403 -3.1255117247962394 4.211944181736227
1220 -18.041790726071778 6.724191457898099 -0.9048201083357854
1631 -17.93434001809414 -4.380510839046355 -7.074249390892965
1632 2.403785866709212 1.6607292615230738 0.506047623052389
1647 -2.650893411379162 -8.258392145817252 3.509599141244125
1226 1.7911140738585947 22.646640550429108 -0.5812965532484454
1227 -2.6724010391399675 4.885457119466036 -5.7837955506974685
1798 -10.771832529658047 6.814929662137589 18.503643848845964
1799 13.783500719153794 -0.341150002791603 -13.18604775585323
1800 -1.5524030996206368 -0.16664017152563074 6.182707006554088
1930 -2.834723572151505 1.7922838962382013 -7.448687042123833
1931 34.49600979763851 13.301561186117288 1.3491794566805417
1932 0.9761985565859862 -2.535422030242185 2.1930596599156416
1945 -23.28394581234424 3.9192473056208197 -9.034697789328959
1714 20.936128838246187 -4.350144993244422 -30.153079590603003
1412 19.827799108443042 -14.989323802415848 -11.48603362252106
1715 8.47765925234145 -1.4313849245514814 -15.34561148384855
1716 0.8876512061008305 5.413027483356673 -1.2198429428301913
1106 -16.979225546953504 -17.114867774813852 -4.352428951240933
1413 0.8876280265752077 4.828730767237877 -6.898065235304915
1055 -11.680196053486437 0.5065833626758891 10.964881975086964
1056 -5.554918089741521 7.062641949855131 6.6649215066212015
1868 -12.615863551510916 26.159121520428158 7.707910205330836
1869 3.132454759403761 8.612958809853284 1.0136102914394025
1310 -5.724312606872773 -1.0128841773311719 -6.919170523708711
1380 6.089744523086351 7.139123568225172 2.469972640000515
1311 9.097311754799252 1.8071840632506648 -0.2445604461747455
1837 11.792409115552116 -8.164853713446552 1.4519104928051103
1838 8.406677202244367 -7.973940338053062 -8.492220396309671
1839 3.1481444414272417 3.64191272572623 -5.540271766218675
1888 -14.157591869773453 7.827593469098335 -13.843173354335017
1890 6.197552403589638 1.545720591614409 5.709898725356227
1309 7.366640744884188 0.17071568967779438 -4.32737811295157
1379 28.138718987093696 -27.53075454746625 -17.491289620359613
974 -4.317772832342491 -15.649382953429614 -9.010314533843824
1663 -4.940891886438508 0.2835754596631704 -2.983845062944606
1664 6.143237980481762 -9.418570505029571 18.616066315378447
1665 3.3717693605467076 2.715181552847916 2.0072533079287265
1672 -1.9589344641327666 -0.4350583258244123 17.026318389142155
1674 -3.2829067834126473 -5.628016564478797 5.42729211882461
1889 19.872544206858073 4.79934507003998 -2.2287061936734367
839 -0.14163511335288048 10.625145215036087 -3.4870954059326316
840 -4.7999484069314455 -1.3628627001138633 4.104014387818887
1262 26.882160986301137 -29.274841407253785 -12.800561300959881
1369 13.744167610151036 11.17507198427838 2.3868861632525826
1370 2.0106633751021286 -3.7098175538706935 -9.611607936822448
1371 0.7681678302804696 -3.2365354042425007 -3.5799431478063126
1744 -32.0507491191508 -2.3150232557129002 2.660980848365516
1745 -20.487508879181807 22.388855797406553 -7.899413010738977
1746 -1.0121463981228918 -1.7770415881180597 -6.358553969340438
1946 -11.44387476451443 1.6891853384313866 -7.292155121239043
1263 4.156198147155835 -2.0500312270411207 1.1265174991137255
1655 17.59054746323869 24.375158247358847 3.2866865247538857
1656 1.5486291485267742 6.360807431138157 -1.7421958019238293
883 2.5289342999164903 -20.65738001851415 -18.976797332585512
1867 -5.037831575670954 -10.575645662402557 22.51066805930155
517 -9.900195373099848 -1.8004142065073099 -5.625446889315523
1508 14.882951084372296 18.233538330172433 8.290855910635
1509 1.1533417629842768 4.047308327444502 0.5346695339641963
958 29.870157109066046 -30.444940038193177 -24.034090050476877
959 13.26419420404316 39.18146267285788 32.110752180877206
960 -2.553594517049253 -3.3314179528341064 -2.3851322488371993
1261 7.5829673284101755 11.193524173532703 -21.53331344165718
1654 -6.016629032287916 24.317058789223093 -4.876205431794406
979 -2.9154609342668443 7.268898405587309 13.394245217227578
1045 -5.2325356244654175 -7.39784573984714 -0.23036732296176154
1047 1.9002088739186607 -0.7230657759580158 -3.633778902538144
1789 -2.5576249064661774 -13.763713534393528 -7.9742919044202
1834 -39.34211045596881 14.252206918140839 -34.06858533664377
1009 5.498588363665179 -10.625910743944555 15.491068918118492
1011 -0.12927742890387933 -1.1177877993404803 5.736188464069142
1835 -21.79830182245713 -13.90989678224961 18.46505999472983
1052 -1.3784815778979231 -5.8462419768655645 -15.16727847009581
1791 -7.416649734384712 2.1682138093019905 4.2744833066569665
1229 5.144776201318521 15.5491163156156 -19.16171663715277
1811 -5.954403389771909 -10.01835841228012 -27.533200234836304
1810 -15.446822112493866 11.345067743145338 -0.09988606368825244
1448 -41.66690229259037 21.54591992798368 18.16747019482402
1228 1.5156735042624039 19.124098815319943 5.76080332676717
1230 2.874933524312359 -0.9621034455340114 -2.149365326348813
939 1.2190348854460835 -3.0474795593735653 0.9200050254730454
1447 -0.8779340093969953 -6.961623194471684 -0.7703149125006047
1790 -1.6985500202334887 -21.03529610029309 2.4136382819678777
1861 -9.947731991015537 44.692132727011455 17.945235344228426
1862 -8.970142607120438 13.383415967823929 -1.622776498948613
1863 -2.427369602979565 -3.6404479770110747 2.0004530825313056
937 19.866496576018545 -18.509102812118904 12.004515912271087
938 6.291160014169104 8.534139415145617 -15.247600543793874
1513 23.24291318979549 3.2072701739179212 2.755085943122947
1660 13.979620073453063 -15.245067289696904 -20.947056612505882
1662 1.3933822257353168 -0.34307479490910275 -2.537774401609036
1724 14.170132395579055 7.609580340474563 13.122457888265048
1725 1.1305180061651463 -3.455751228988723 3.4777339376201355
1753 28.04706912136893 -17.628973674760992 21.487843629373383
1755 -2.1216601080578585 -3.8581475744863245 0.721483910122178
884 5.685826287464551 4.609096116707625 -13.300758202430824
1661 -8.340505665220011 -1.0721236035837676 8.16259991296357
1367 31.9731054505106 2.7924545964177585 -3.2357946692744943
1368 -6.606782621222876 1.2747106763130125 -4.24149793404544
971 -16.782656103426284 -11.155098653419008 -1.5959053356907127
1366 26.263530213994255 1.8358774851053035 10.079131119067203
1519 -6.843053174283854 22.675963825640057 -15.97806821497546
1520 15.792257958725521 11.046371298457965 1.6396433476567762
1521 0.8963288226460808 -2.0119965466202947 1.034312011853444
1577 -18.3246044894587 -17.92498053268568 15.630442443976545
1578 -4.696841766781607 -1.8176991446633688 4.045362471504417
1723 8.458551664259637 -4.449253553477024 0.325388725651008
1743 2.484786135348496 2.4261604734263327 3.8793930583481213
970 18.29761784735146 3.1914642171007843 16.616874984828783
972 -1.5479429932541005 -6.986000837473326 1.4390215709203633
1010 15.192903674280535 6.068328511403714 6.884375867039752
1836 -3.96135774534701 -7.419846604520303 4.353585801216328
1053 -4.157340454306358 -8.13608187113632 0.729586404613712
1765 25.43098003431935 -20.7099416144107 30.41380000324869
1766 -18.094665657492964 -5.916695318675657 27.67982642699393
1767 6.1973643705809405 -2.617021368425671 -0.06223526060955616
1018 -13.009372344075052 13.479868819562169 10.292358137740395
1019 -0.9717538670224791 10.290541799268633 -12.423533820590324
1020 -0.5273738418008996 -3.3434711634713437 11.63389967542103
1430 46.412727807140406 -18.264139197324635 -0.3709871006232349
1431 5.011810824742823 -2.0403064819143024 9.963872916296314
1783 21.64261720608036 14.36260604332682 5.231032672224798
1784 4.800198291631356 24.869700086484688 -0.21053226249375473
1785 -4.969942665772885 0.6942555572237838 0.5125109317490977
1952 14.523527735468832 0.0037981044289174953 -14.004753890877689
1732 -4.123597310344086 -6.338407455703818 11.613425264953454
1414 -8.031159917425768 20.72552307022126 -9.141612747743824
1688 18.519119022535612 -15.036883509106069 -19.269408616933344
1689 9.865889981582649 4.505716181837132 -9.064588936205798
1613 -26.230802039513936 6.853984599114797 -5.359443784989677
1687 2.4127115034354105 19.80247974222308 -12.45024785429213
1693 12.68235109253931 -0.7515498106229461 -10.303084158221958
1694 7.597881625807358 -12.113051931593098 -1.9892355287172216
1695 7.489238195201051 -11.368048326392861 -2.175498851206102
1754 2.1112327022192274 -9.425304728852566 -8.777437031803677
1212 -0.8649450520213412 -2.320473618582151 0.514149795395282
1016 3.457244649620137 -29.910062586069554 -3.0851900149709683
1017 -3.52737735593352 1.7865508372621128 3.651968918303493
1393 -7.25027445674527 0.009850874989708746 -15.859308592248668
1394 -5.453619563437603 -2.732213270497991 20.137927268364777
1395 -0.6865403726857198 -1.0035867136882168 4.404507578398931
1996 20.345264375638884 11.50304230844002 -12.991143603269865
1997 -0.5695517215351146 10.718522525324333 31.075720316606237
1998 -6.340694985948331 0.28777516009159565 4.919243609088864
1843 22.856192526792363 7.7127443992021245 14.907431086238875
1844 -19.187222600833092 -2.5015056046647475 4.365431519942993
1845 3.6740640984217716 6.261593830018877 0.1585388855023919
1015 3.9587459396908247 -2.5319115593005734 -9.292142062762833
1510 -8.149795892788696 18.830489174434206 9.786772012019533
1512 3.614793275513135 5.419261528928251 3.0440017554290404
1903 2.3611297134116858 -3.3709689226592743 -9.815241001513767
1905 -4.491058757336452 -2.203891275127685 7.647706357078524
1924 -10.448837831111959 7.442547375626944 5.915118618816202
1925 -7.236319497959882 6.022238775923349 3.8140581196698013
1926 3.653722875994747 2.416566954528386 0.23615141436978046
1307 -13.722332003066017 17.518877108855676 2.8052998118698027
1456 -7.989714608889205 -2.986586168807171 -1.1251366131244778
1457 -15.672740576923475 4.7381726771911765 0.45594654093766396
1458 6.161524173105762 -2.2278098756279703 7.153588152326877
1518 -0.7804328189903893 7.993909776811315 -3.1194651875889634
1951 10.45598518538458 2.4736241177829896 6.014410752675157
1953 -3.6671312558117988 1.666768214056481 -1.9334743752611419
929 7.55806205324247 11.185144203205756 39.64682252626448
1516 -4.001821381036359 1.542506461101156 2.2580156740952875
1614 4.189358111040435 -4.948614682733314 -2.826489400044928
1006 10.581836987271505 -26.86252530825022 -15.697287159966415
1008 3.8977747280954183 0.9804990895359126 -1.2441662378628662
1345 -7.460812321197012 24.739111023147572 3.2222354619130376
1346 -33.84652848528874 35.84402169894639 -9.028160838547482
1347 -1.6079999784283008 -3.5484715224881587 1.3629900314153283
1612 -22.06993695449482 0.5766045170106678 -13.158283553565296
1823 8.018226245496598 -7.448752864148319 0.35505714859942994
1824 -0.22645610009226316 0.04721992012706187 -7.015074997614691
1630 13.872049390956288 25.420208342883335 4.315513767601013
1249 -10.453598069364528 -22.288804488313293 -3.5728930515101553
1250 -35.63073380339078 13.282866485536763 -12.868456273627745
1251 0.7075615217842712 0.1675371686277142 7.8791262391582935
1684 0.7914423787161559 -7.591061443453883 20.126167284011238
1685 -19.71573864309524 12.041511021214951 8.039842870357708
1686 -3.6053955876464197 -0.412465226156354 -2.755240692893394
1819 -3.299527407448568 -5.750084102308813 -16.275368985658147
1821 1.2330916294260084 1.8335799811720472 4.585481633277451
1820 18.40944407413525 12.853339204398925 36.42582606565355
1126 24.581057949702615 -11.991463108216301 16.409793015654913
934 14.198870881971363 28.188177378579294 0.2539849265843885
935 -8.458797609813098 6.344013822639622 -5.081585847501698
936 1.6335815910463574 -3.2180613797289372 7.839543475283022
1127 19.620545519064482 13.53246198397289 8.032312890928793
1128 -5.2413055340902375 5.824626320802956 0.23802642778313343
1225 -3.4679569611973955 -6.523767487874361 -31.80554767648961
1904 9.6146845693021 10.589885316001707 0.2652785250782819
1960 -26.255510445073725 -11.862566958649921 37.11361772597473
1961 -25.88136755821189 -9.42093648831763 -10.845089195870344
1910 -0.6514899280858661 3.0693643090121685 9.79883476927011
1720 20.36469202537382 7.41722381057842 4.301521466432671
1722 -3.734849171185334 8.0180872878595 6.102791010492904
928 9.573216244737223 -2.3675520963711656 -6.814792642038791
930 2.802012354825978 3.2684325577288718 0.1427656510478857
1105 10.084687425750744 -14.497708137726686 -5.501109267336419
1411 -3.783941967603807 -2.245382519811217 -11.950983124999638
1054 22.568013883264836 -29.228482613773703 -12.611163673165073
1468 5.268345102150309 -8.22007313186971 -38.50305665668493
1469 19.088802255185996 -3.616138501168938 0.6105190735194067
1470 8.470557399215044 -2.5424343972661267 -3.8435580245347194
1690 -16.820363070962596 -0.9767339873716666 18.36872023366303
1812 4.3881140224990265 -1.481150227721634 0.8597354073985032
892 -6.172598826452095 16.390738807778423 -4.900595758055684
893 -4.277550733337492 -14.00735172407542 2.661183382886238
894 13.511701108052398 4.060640922027175 -9.332198971646202
1240 4.191565049015521 16.916042683463612 28.753344129738586
1241 -8.139444078628133 -3.6213321295236396 -14.01960202481316
1242 3.870494796094822 3.907114226094933 0.7309847172333189
1822 9.58745455118419 11.747978566037215 -23.705828930250227
1874 -2.293190677689938 -21.321132544644115 5.119452106326387
1990 7.793848639469253 15.850932025928232 -7.853675545499836
1991 -3.1240504273019147 -5.371822466349388 -17.464301106691654
1992 -0.10848170641880991 -4.6372428463868705 -3.97523248537746
1947 -2.8770269707641845 -6.519223100390557 -1.4952993520478073
1875 -2.1749313270885073 -1.0165372989694965 -3.9490719968696966
838 -19.67790187925981 -3.1150259532544093 -18.0641864673904
1031 7.13057285494273 -6.837283252668172 1.6370590424434923
1032 -1.2184178845406364 -2.4776317559260934 4.410366833451774
1558 -14.3676850664009 21.222434459662814 2.791999948872938
1559 32.40374002435493 4.204390623042315 32.61749066264112
1560 -3.261826315077157 -4.381902218015176 -1.0216533775118033
1962 -2.0847867697349542 -1.7994662069874274 0.16169224347977135
1909 16.10031624340292 0.12914686707452822 7.907792867698593
1911 -4.325554913492708 11.466042445462646 0.06064895858392194
885 2.270917066573099 -7.147041989128777 -1.0367869697528045
946 -7.823474339595477 25.10354252486899 -1.6621630405782841
947 -21.26086814922512 -19.182276219623482 3.0506732273862234
948 1.5303257351404447 -0.8039701006066275 -6.565240582659822
1139 7.101270331865051 -20.002632497824816 -7.295121446224007
1675 -39.62240900824999 -13.474698886504276 -24.72304666591957
1676 0.6074374395801874 16.32040741732375 22.264628603984534
1677 3.1103798137319574 0.9304356654443606 -5.136163429795223
1363 5.011067948781552 1.2772883962422747 -5.829348734588835
1364 29.11143281415329 -2.4356279456656567 -12.936231095670003
1365 8.164400107803946 -1.333967858393162 -1.9128553478932504
1507 -1.8439082464167507 5.632197263726446 -0.4216563525045122
1107 5.251850985926307 1.8717328354100335 -0.26129015462796773
1057 -3.4992519641762057 4.46852308749785 -20.52535172522606
1058 -18.31578154323012 -17.097454645733208 10.207536069453397
1059 4.035264830676398 -1.4878708487442487 -5.448068483950241
1340 12.379328593938418 6.9463232627858 20.976896782296773
1576 -2.0894128339236167 19.968212936956707 -7.500564616392527
981 -2.2223890671229616 -2.578501884402104 -0.7936429711807691
980 -21.590737923824644 -18.83389445353689 -7.123692292914194
1034 -13.812982368534051 -5.841750907988247 3.2474343677821373
1108 -6.994039389243591 -42.24137867869101 -24.006186696378126
1109 11.020652945434513 42.30877353003323 1.887824977441711
1110 -1.6193153693811033 -4.0366285078686035 4.161247137752143
1504 6.133675284119312 7.957673255658494 5.095303775476569
1506 -1.7116269532029322 -2.0735782283373836 4.624690520991996
1035 1.1596036533195835 -0.48882933176097887 5.185355954285025
1312 -13.935341812568753 -21.180043254512327 -3.387936541703048
994 -13.349590048877031 -3.365653127255468 -0.5823350794866938
995 -7.831493132561452 1.8924622882762363 -31.60373918032805
996 -0.4906824462766544 3.569653813168592 2.9471777334532963
1168 -38.39467579235505 2.7543133955859185 15.26308026878213
1169 27.14226558758111 -17.499037253948668 4.908747601232371
1170 -6.0803773876701515 -1.9360082525569247 -2.579190807365336
1313 0.6127818835540074 9.504105853188848 -32.13828873664321
1781 -6.39539712666943 20.100281383943088 15.813804286131738
1976 14.03980399998992 1.0978544166583313 22.057566401748804
1977 -1.5221057997544738 2.2971965775779606 -0.013116138717065464
1314 -9.725239501682767 -4.245546527600591 -4.479446519429361
1975 -9.136762148743031 -15.400209968404315 11.599338167157914
1178 -12.935062546227318 -10.29896902161637 -0.9861731035412095
1063 -7.9768588744575775 7.408181536465879 9.128237210305386
1064 19.171009370506997 7.402811470462482 -0.3555859903241137
1065 -5.518661781704933 -0.4454799563107694 0.3736298826414174
1115 -4.9849529311931144 15.023100291874664 -22.68291795784871
1116 1.7746236502753168 1.8740068521330115 2.7612621902239116
1177 17.336996482164864 -8.548317010905038 -0.8954272797434331
1179 -4.167815536812407 0.6662071655156464 -2.6063414869070503
1192 5.192330190221166 13.21824297373655 -4.0168246877606695
1193 9.842992953567064 -19.840683500503065 -4.676746582248852
1194 -0.3052224106501499 -0.8183966561608272 0.023146059596495214
1076 -0.23961667325835206 3.1107278332112482 19.446471220594173
856 0.15965025957122392 -6.577965738416918 15.481683032710093
1114 1.9637915301780389 -18.397897544509544 4.185767387120013
1330 15.955212283136328 9.125508175238414 20.898146733943957
1331 -5.638136804772895 23.783056949194563 0.5860833517982166
1332 0.59263830985743 0.7769977145468406 0.3020212185541205
1742 -2.0239217185665015 3.812146689995988 -3.920317178760631
1978 -6.202872177528238 -9.434537064963914 6.073010187625894
857 -20.07453008346187 -16.797893883240352 19.22726897671328
858 5.885296198515342 5.307237480582481 -6.118703414624473
871 -6.120371354292354 4.572713177551879 9.30683974929436
872 4.2816453678305235 -10.276383413600428 6.658430148726217
873 -1.862274141198004 2.8002455531770956 7.522914495564392
1070 3.956961149721422 -21.451287973613532 34.86410289059169
1505 3.7904524509279183 -6.5093559944131725 23.651857599278078
1069 -9.089494907297478 8.544019551784361 -13.814628969031753
1071 2.4697329042614613 2.670972627540957 -5.986806520416032
1033 -8.109841762056845 -0.5231712817782742 -6.283659015229824
1987 -18.149979286835922 13.850895538137014 4.944390526166001
1318 1.801049324614233 19.514169996937245 1.6276282181401487
1320 2.347189834603877 6.330115786585959 5.218412923050657
1648 -1.7699963651940598 2.1379914458567666 -15.15295923843695
1649 -11.08847836482678 -2.9704490802375805 8.525320244523417
1650 -5.318091423443017 -2.5727008264896085 -0.9116873171823039
1780 14.825881387806765 -0.7198531776053027 12.929452988419754
1782 -4.199928156437735 -0.7785689805357375 0.7337129864123222
1988 -18.879590056295577 -8.231615673592078 -8.505172218975037
1159 13.07533499446442 -3.5671392089551492 -6.347959887202899
1161 -8.12185442031141 0.8304682493070054 5.83885738374009
1989 -4.8881249056959115 1.8972956944247683 -6.83718377870734
1211 36.37823820811801 -5.7535720041929475 -4.337366557299136
1406 14.010206468194918 -2.7113938958002763 6.468256945416787
1075 0.3258917487882315 5.022062973904095 21.76564617119362
1077 1.171523198190328 -0.027031044437552915 6.561004749634507
1210 4.825776768981692 16.59236810545339 30.595595094411493
1600 -6.243977633824949 17.2378131202448 -20.05725989485028
1601 -5.915905499583364 2.7394678613989467 2.7972985122807184
1602 4.993616638533957 -2.416876595647328 -3.3929278963520937
1621 1.2286257150290134 6.4373764658143156 4.966841917148318
2007 12.496101991078225 0.7506461103599952 -2.484871511804236
1222 9.599544624025834 -7.597645135895328 13.433626756385545
2008 -2.337827920205315 5.0810093149421665 -6.6518239274110895
1351 15.279846261819461 12.000179931858703 20.924429205031267
1352 -14.293139231755635 27.28436321186152 26.575666563676812
1353 -4.3634455455067656 -9.12311020364771 -0.20220899135211232
1432 -14.448293624360993 -1.9131290472021338 -12.852916270710592
1433 -37.29660984093935 8.521467802230987 -7.128947515364127
1434 0.44612962621527674 2.6222497971579197 -3.156642056985166
1622 21.289340080760145 -24.671657383924884 1.9450945255456165
1623 -3.026697128634005 -5.228327277707549 7.09801889024384
1741 17.567215222662885 4.334569313661806 -14.664221487755015
2006 -2.171920959683711 1.9433446419402762 3.3276207047847017
2005 -7.016573015252511 -2.885883403084129 -2.0505325110624324
1772 -58.41776662586136 -27.432075195275797 -19.80552316689707
961 -17.080828435840477 23.778973378059586 -11.199594658126435
962 -7.79539021012115 6.478025100574036 -17.011387113779477
963 3.237066127339021 1.6636051769692337 -4.095634817907002
1350 6.621332484908393 -1.6085097537193698 -0.14880593181011745
1511 7.390808133825715 13.331721042228658 1.107954240432438
1160 -1.0390976361196935 -10.974949574727052 -10.114665322963683
1864 -1.0551930263006128 14.85090476711919 -26.273638650076496
1865 24.207631183664926 2.9668685779017974 -7.446092584986342
1866 -0.07547552814518316 -1.207176876399921 0.7674205750796702
1870 -26.18590362300063 22.427245435426624 -3.7548546655869606
1871 -10.701205958455692 2.2859540882479616 15.934902064802067
1872 1.84338216603992 2.854023735759223 0.682349567892173
1358 9.846414979769872 4.741393912916524 -8.435899154138443
1319 -7.730000759520425 -3.3348771654743423 17.85720565379989
1223 -10.273968313519848 14.43900671775381 -29.914165425294378
1224 1.416505157671358 0.815584932123039 -2.9133081268695826
1270 3.026908341390573 0.6668211099554083 -2.708359117323197
1272 -3.833496622157096 -4.595820821785245 -0.3836836099381116
1814 -2.0248415358771585 10.422593806304892 7.191789836830571
1815 -0.2817801064011971 2.7454082939093727 -7.452939175620311
1813 13.455256806653813 12.022185875349859 2.06082891941906
942 -0.5790512720305899 1.2886932448571604 2.444583138744937
1376 4.0899075473102515 -9.757011686548012 5.941316667132696
1271 9.310317415170285 12.276536510113829 11.882601547264576
845 33.19026927509488 -4.715396931292198 7.096004543475055
1739 -14.240764712633737 3.993014844594025 8.930545565463158
1740 -4.720618951158713 3.527797758602455 5.9607473079580275
1771 7.162348333648446 10.607317175400876 40.937173298325305
1773 -1.807583236897206 6.705116322354322 2.964851714170703
941 5.058878653026023 19.580984202567336 -11.812767999437662
1568 -27.775927379537784 -4.853991592865541 5.887590983235858
1348 8.600577260983876 -5.6645403163837145 -1.3040202159148142
1183 11.335786311523902 18.71328081814474 -23.765426575040106
1184 -0.47058403156964135 -9.352517021841626 16.84350334497801
1185 4.306849825296005 -0.7949504314054259 -2.874191273556798
1738 -15.731712861283455 -3.3991596323221063 -7.858216555205536
1721 -3.4175887937906104 -9.573102435865524 9.479726651713001
823 12.84598142006199 6.620238165655913 2.121232281434478
824 7.866441160340011 22.810693517764978 10.612616065612668
825 10.727233598924544 -2.31706130471568 6.374606759306729
1037 -10.935561700069487 3.2465809695802723 0.27049382418258094
1994 28.403584796422592 -7.884319413006077 -0.9068812008985211
1357 -7.537622053595441 42.12683050629239 -10.807295101292304
1359 1.521178529294703 -4.2273636071347145 -6.565498050960961
1517 -39.563098873302906 1.088846538605285 -3.216858379651628
1062 2.125672242109363 1.3787667352581283 -6.552118758174005
1691 11.774215534641147 11.621734595193578 -12.208480994912074
1692 5.936485857346753 -1.9861982802675664 4.978401454787566
815 16.002756213054862 2.147429133252059 9.666621842587114
833 24.045406358881735 -26.387469065348306 -3.2295386025371964
1060 6.966461305518478 22.75932305963691 0.4332176627265624
834 -6.325639143873785 7.976601146481215 -2.670481030970913
1634 10.149041994534 15.746875219894253 -7.67570220016366
1150 -4.268402762799673 -19.404906682554305 11.77534416910772
1151 -30.77051970791467 1.5496532149553124 -5.987356055360939
1152 -4.4101139629264114 0.7612737964646523 -3.0456826181033727
1633 -23.77127328049407 -1.7499531086199631 -4.145030017679062
1635 -4.11571518690071 3.0319736978666842 -5.911042901640205
940 -16.56033356081284 5.298950592895803 -10.006391364486168
832 -15.37864781037623 8.830482550643657 10.246181914325073
1964 -8.036530139088265 -36.839679628316794 -13.551234759501552
1873 -6.353080657690854 20.38767384527533 -2.074450546663025
1030 18.12727096715987 18.683312882332395 -4.794214688775692
846 -1.1341387973617092 -3.4452674153987166 -0.9407887984828648
844 7.895300916496097 -5.459534203251184 7.124133400058373
1543 -2.2186111291166126 -0.7987744316746472 -5.8572937223033055
1544 8.85326497135084 32.29765905562781 -21.10967847290565
1545 3.409747436645265 0.5346258998534726 9.510891712580085
1729 -11.707168613471836 24.646272633500296 16.944156340972885
1730 -3.8751764084560962 10.18057291792372 20.86962692767019
1731 6.649657229123113 1.0508950844694096 0.6103444719940584
1132 -16.126770353037035 15.663160548355652 15.416836930977185
1993 19.14356743766973 -5.557383921631365 6.647437898970302
1138 10.637386009211035 -12.690143084090266 -10.30975183368536
1133 -14.43400932295704 7.158077694869508 9.830077805967614
1134 -9.352450525324564 2.6614169955103546 1.8112261529884979
1135 8.818668081321784 9.955033944511944 -13.271862904699013
1136 25.202127329259305 -5.648668741449991 15.006940778334355
1137 4.4071410825867305 4.053867632449559 1.1190697491533534
1140 5.962672941352187 -3.169481111017192 -1.795686440308435
1144 17.208767017224755 -3.898448089700112 12.822342383221065
1146 -3.139743658691557 -1.2466264674673653 0.04981720760456663
1995 1.6122488572927411 1.9765394301025194 -6.453346680111815
1341 3.789202896500258 -5.1618366041455195 4.35024931895204
1061 10.619323968381321 27.917038154885216 4.854124339536283
1237 4.9429434871420925 -19.359688261641487 22.374026091284335
1238 -15.275825941538356 0.3213610741839968 -28.218613822167946
1239 2.7670780739867307 1.3307545059353174 -3.659661455435333
814 10.524648634924361 -1.7313124583102235 -0.024779469583913815
816 -3.7970631643579495 4.200168371033565 0.4044109797905579
1145 8.135161930514174 4.549374739216223 20.061465331327742
1339 7.260007391530192 21.12401520533221 22.350360211243284
1979 12.731738046298164 11.586192811903071 -1.105129756984085
1980 -6.041262842571509 -0.6558603528500395 3.6959166113948188
1736 14.722011154435602 17.448803490271246 32.37217240258025
1737 -5.472618243045795 -3.0928548903708326 1.9006034541133427
1795 0.534937050365443 1.066805539395609 5.8078793711316505
1797 2.266002368729293 -2.8878789670724943 0.8853252568863841
1967 -3.5508983193483874 0.5849397685762504 -14.547383753001911
1796 5.0119943007377685 10.190730759643344 16.268661981035425
1072 4.705660487416505 -14.501007270096926 8.234718892988548
1438 25.6878654443906 7.212716987086808 3.598846328136424
1439 1.5148298183751534 -12.403668755586338 -10.747181104302467
1440 1.460428400443938 -4.182367218702435 2.4896331701790513
1474 -10.357389451673225 -23.6441585672505 -17.638818804460808
1475 -12.551187992750332 2.341313732922118 0.5476718822999467
1476 0.09260688168904209 -1.9570415634603342 0.32132535847562566
1588 -2.014787119148682 -20.77902830814086 -1.7241287723354615
1590 1.3141791241182976 -0.6440545649597665 0.5260833436440727
955 -13.149121661070668 -5.314531217836594 -18.447538920890885
956 -0.666802902924358 -13.140893732604713 -27.984363459930965
957 -1.064438349948789 -0.8519837838368071 4.1803954697679435
1405 -10.266963837890716 -0.9736998822868628 -14.747290807155684
1444 8.806263938032194 14.921821434542679 -12.410642207050241
1445 21.980238386964214 25.324712071062823 -6.33383168904125
1446 6.668289729874167 5.757535323290522 -6.841096380984167
920 34.1162212675437 -3.8150979736113184 -5.470483327682854
1592 19.170467512819986 -13.781540874601449 -11.762294750804578
912 0.7442202992375855 1.0154484112782465 -0.6983145711791671
1419 -8.092413928490172 3.9508020928086913 -3.2609947907818895
910 22.81491295744839 13.008902225230344 11.79551457118943
911 16.64925487759926 0.14358423729031747 -14.151909133620622
1121 0.5563034309255875 -8.838280452559308 -13.582009347696209
1122 5.002771362255214 -0.7436365714510368 2.0294157325140016
1187 11.483076788007223 -3.9400037695094996 12.084879520437962
1768 2.1915106794559316 19.369482158184006 -7.372002718745359
1770 0.3933275195175466 0.3398746828169712 1.4222271871761998
1417 0.021658429282866036 17.817678650916193 -14.423166628358663
1418 -25.025739911236634 7.0092658310964175 10.509564169937835
1120 11.922030318287348 8.785694844512307 -5.922703357119158
1939 7.939132194807851 26.221156794314332 -0.38198793403351466
1147 17.613992384216413 1.4592921956336085 6.187278739105855
1735 -12.470394070941849 7.589053002654326 12.755141045286559
1879 -17.750752618509118 -2.1193752860842894 -12.675953159499871
1880 15.484118680404514 -1.4337396619351344 0.04257881031080974
1881 6.083701683958857 -1.8471059665220833 0.17485605345210212
1589 1.9207792873143468 -11.653551234526427 -14.905780947784491
1336 13.74029496360781 -12.409134603451388 15.503418864963763
1338 7.450308394775295 1.8060234265193114 2.8750178605752197
1706 14.209169569572264 23.278150376707238 0.5292944771003594
1707 -0.7580659341951809 -0.5449874669691153 2.1319492327539398
1826 2.172388033021476 8.801158121212529 16.697054176096017
1337 -12.083254508130862 14.559700839367201 -20.952541334548947
1407 -0.07480288869623142 -0.021659410121822462 -3.483824293984991
1465 -12.102790344692588 25.592320881315178 29.694940122564997
1682 -4.736344134517666 -0.516809749220638 6.487582439679769
1683 -7.996698297715102 -0.4479590214299173 -1.805785925064571
1827 -4.91812807459906 -0.028363613685098633 0.552979174902602
1828 -18.695084717684317 -6.2839660496740875 -9.413680487471673
1829 -22.359367861653233 -15.923325428076753 23.224620987233482
1830 -1.8448721546652331 0.25134536755014786 0.3123214152645987
1825 20.7608655223495 1.8663344345202737 5.460924303997542
1681 -23.923188496986167 -15.46194334025147 15.796635009906312
1084 2.4346800281409187 23.161408842491124 -8.331478702313307
1085 18.344920518177464 -21.45323396198066 -12.5424199336135
1086 4.097425090796444 1.6863076846105847 1.3806306583297105
1296 -1.8367987396614553 -5.30622382843511 1.5265606680591903
1696 -4.614878502016989 2.5284746682846584 27.258164030073033
1697 4.200261796197822 20.854560700667943 6.960624828928667
1698 4.085260457362988 -3.7281365349978155 -1.8836877391682803
998 4.0244000237366375 15.36364731922478 11.765088156569744
1294 -16.042348536022846 -26.907922807112364 7.756777756280007
1295 13.34569221190497 -3.3919481124990085 -11.43905375689687
1349 -3.4517850319064647 -7.305623590763809 11.182145472194915
1900 -29.01805932572562 16.545547770219994 30.133017370560804
1941 0.3995201333363453 -3.453007191604587 0.5739284869599142
999 3.943818284400673 -1.7620035467359918 -2.259360583731685
1201 -10.54648480625617 2.8418212702332957 12.610157533155409
1202 -7.877315006228857 10.459818755791876 5.050720980369295
1203 -0.17764586154847417 2.7621730228433035 -4.5246057364139185
1940 12.27369670242059 -9.719261525436849 1.0843708030358885
997 -2.4683615492670965 13.42431343313326 11.822880425501564
1303 -21.163937459940353 -3.0611370442587873 -19.62352745142966
1305 4.007315978854925 -8.902918227326722 -1.826668783988459
1282 -20.114850480178895 -21.899071177871015 -3.9478372507984747
877 -10.433546553120195 -17.50418068258999 3.186376422222018
878 -32.690672581535466 10.962250624918036 -17.235227103308876
879 5.913395623303399 -0.9567184543945857 -6.735040883195025
1112 9.51934301261681 -0.30506381166557023 -30.2618820642298
1283 13.746809601208923 -0.31302995806222544 -24.098568769482554
1284 -0.4492751861310835 -2.5098855777431086 3.6193443708561577
1304 31.509077538618666 -19.74511014937981 -20.96598661059724
1550 10.476698361408891 44.25333849385348 -20.566055424350502
1549 6.950274755604521 -1.2234607013967596 -42.822984351379056
1551 -0.7690435297480849 -0.7633214018422201 -2.5408139939432655
1726 1.070661851275005 -20.6925339700238 -16.077147637968555
1207 1.2385099189349293 -13.336004076786612 1.9829537950157472
1375 -2.9483880159446003 5.256723976576709 5.044302866456999
1377 3.1726685354420483 -1.3401541292163384 0.9734702318011944
1628 -14.661864346632257 -4.518412561213792 -8.45968401608701
1727 -4.4979730648642615 10.47289644385957 0.14513369897826692
1728 0.23443909569803717 -4.897623043492118 -2.591845554427434
1208 -14.80311881810451 6.77311629507832 4.461467688323187
1627 -10.22237776384888 9.534256667508698 3.5908619489867823
1922 -6.8320414748240434 -10.109866764076477 -5.138406977618663
1921 15.040960438011314 -3.6607178913265237 7.8165886529774555
1567 -23.994473734884668 13.019413155983642 -1.2715124898418577
1569 2.142389748150731 0.19577664658205776 -2.1444929127177854
1571 0.5262893611357194 20.04114853837653 -25.076979588176698
1846 17.11013506676165 19.41061594674238 -6.654657618535048
1848 2.894527201386183 -2.4059156207706134 -0.2703104079248716
1912 21.389065796333472 -16.472709119593727 15.673035958189757
1913 -14.485364707437265 -1.0507540324839995 -11.043081827112232
1914 -2.9588371955031456 -6.436863650026413 -1.5599509697523488
1847 -2.849534682622495 8.704150177622791 18.51352678107852
1572 7.568664883303844 -1.0475579339094632 -0.3416748347238927
850 -3.184430983969811 -5.46409452221255 19.08491261282052
851 27.65126477983658 6.865365020583381 10.339811757254898
852 2.3626282772662437 2.1975794202788523 -2.153195710244812
1036 20.70891448608733 -0.6261709565308176 -2.698208405894324
1038 -0.5457859516492087 3.4159110207769166 4.343622969914802
1333 22.250492197411365 8.029418997935874 -46.30809584868759
1334 26.117498570889833 -4.300908374368066 -7.663472634048293
1923 4.406609721865168 0.7722214936768936 -1.1351453577159731
2002 8.606076194382629 7.4832582466723725 24.00471875130846
2003 25.83520910844244 -15.177221604424568 7.022548402061837
1329 4.177877593862729 -5.830346689287029 -2.1457551310030247
1570 10.596984451155336 15.086028156270633 4.7864744249586995
1335 1.6077514283395598 5.0124683894041535 5.473074782928475
1111 13.634387898769186 13.277996395553151 10.884971720729952
1113 5.667622323601113 2.301288745865024 2.753118445207396
865 19.132401821123114 8.618796980713867 11.63048012495934
867 -9.474528830911668 -2.4955058952506173 2.1397815108242697
1471 -9.50329326500596 -7.21592594909427 8.184990104921756
1423 3.9595914943295343 1.9062125787294346 17.60610911943076
1424 -5.476861968321349 3.9130023476633844 -20.381887769848028
1425 -3.60588023971514 0.36925769421657495 -8.404757199162848
1209 0.8548270593273013 2.358061748876079 2.137271616029076
866 -17.308407873867207 -10.674609164494052 -24.873612693219137
926 20.214773247117694 14.514501651470338 -16.114284923937287
1073 -27.70849393723929 -0.8368812156891591 4.421458708089907
1384 9.191535279000185 6.462718018927902 13.339860385447787
1385 -15.45999615207868 7.340236635792081 -9.316671988020895
1386 1.1351982334508357 2.9682647715187214 2.3589938146919707
1963 -16.425942313060737 -9.593371945274333 0.5872342608076306
1965 -2.928762657082342 -2.5295127023626187 -5.001487781065198
1794 5.5866733823819095 0.10843420054460998 6.198820781705792
869 -11.581876264641645 1.8969957198099126 7.376168258094428
1074 -2.8785441771341382 -2.9485607525607547 -4.772809154981512
1198 -14.197139498563445 5.780036182445882 4.455799124118919
1199 8.380632985744464 -9.390343664983865 -5.986272153597497
1200 -1.7769968355926127 2.312624999691517 -1.6456163702669884
1585 -22.410720914986175 22.510888479309934 29.83810390829938
1586 5.6162662365530975 19.458797590368995 -32.81503055594722
1587 -2.1262626164774305 -1.8237773861074134 -0.7934423225674391
1792 -3.0757745667480205 -11.437595002323283 18.875730302736933
1793 -3.834133709629638 -7.806025420414251 -20.518122528472073
1942 11.144523916114723 -1.0428207452928764 -3.8084715255034993
1944 -5.615776263922355 -1.9106456259950173 4.002835416518394
919 -6.250763548014073 -9.397928016123588 24.612353069609917
921 2.8003352340829184 -0.44418578702709305 3.437125074379975
868 5.0121826273276175 0.03191689744242359 -11.526466165611936
870 4.630860259561275 4.197685157464465 -1.706423461704886
1906 1.6249515832580543 -3.6636835441786606 -4.76129142645432
1908 -1.8434015788334865 -1.0029240532666226 -5.265367055076886
1943 2.3903179837434685 -33.957914937746615 3.4203161931442265
1852 14.700612727332286 6.090444304689161 -0.16022556682407488
1472 7.286323864058159 -1.4437719126606365 -22.164577638729742
1854 2.1141414470102733 9.195032611598483 -3.6739433372055745
1853 -16.15440944548945 2.2761247249978402 -9.413299584686879
1300 16.807643891881984 42.79958564609472 2.6590757913157064
1301 -8.503999488089399 11.95025034021425 -21.997423888297646
1302 8.631589933139198 -0.22245597798228448 3.021345434153652
1409 23.13064148259064 -11.463732067264628 19.1182526859288
1473 -4.7798050809997354 -4.137607341992785 1.759811550500023
1410 -0.14292088006938045 -3.757002863792489 -0.37752882286790623
917 4.3169469927180035 0.25190703030156925 -5.561725697336732
918 -4.3062091709715045 3.0885097301730555 0.2410030355362523
1606 9.251955089948277 -3.556033471270621 -22.27261464139702
1607 -3.1611933016848397 28.567405720774868 30.8968763524787
1608 -2.9561215844336735 -2.1449363072191425 1.1056589657936333
1968 4.302316529959558 -6.3917131224102235 -7.988314579667679
1966 8.538647602888213 -5.263340817251014 22.232741084136524
1274 2.801307622552324 8.308605469209311 18.83113984194588
1496 26.88238353677128 16.152597888063177 12.968582294701635
812 20.815303132390145 -8.808972345996963 -6.801083888214724
813 9.395423204388761 -0.4958687663496576 -0.23910668685009004
1273 -3.561512121015769 1.846428381140445 -4.435375910456835
1275 1.0921428568697924 -0.44741020829773903 -0.7658332415913008
1495 1.360236693737923 8.365346138161552 -18.977102019862834
1497 3.006316903933266 -6.220715437659823 0.03316102571586722
1841 -3.851597978272836 31.75108695650009 -14.423211395909252
1024 -1.4596181746889625 11.900622466125931 15.718399480196856
1026 1.6677124736990019 -6.416970273168993 5.672273805373018
1315 -14.626466151186834 24.932743733493492 29.180078909425035
1316 14.857995118386613 -12.856308475604514 -4.929914726806146
1317 -0.6342433059282105 -2.987161324537688 -5.282107705647714
1591 7.399759398688845 -2.184909721589782 -5.703487877722274
1593 3.164606785902002 4.938811957677364 -1.6785079456847793
1711 10.455877676995357 14.977008878461794 10.729266993389388
1936 5.6964836919132935 -17.22693931801258 -6.6825674200513845
1937 -2.9705536850869114 9.036469806042462 12.352953680644928
1938 -4.524128817669741 -7.248945038480966 -0.17169330391811766
1025 -29.278875510432105 6.553299467790672 -4.056885115993432
1188 3.140339528692544 8.982928844936405 10.39927368856709
887 -7.65195264207812 15.663258777978466 -6.043331913501474
1186 3.537465042336855 -1.418648219312644 7.707976713018811
1291 -3.3083938772361305 -5.562708335665546 -28.73806601566374
1292 7.346261602550524 13.40091955967034 7.754546793770153
1769 -23.53223343886297 6.410353751376631 18.423465029555455
964 6.19649149010199 14.696271637163658 -11.21771770529103
1954 -4.760411625527942 -39.88887458926675 -17.29591659931693
1955 -21.814397655340265 -1.9690155849265703 21.526823067810426
1956 -4.798065970700077 0.3057810932825326 -5.068577879835192
1066 7.44816471414452 9.388785427983597 -0.8793137852011751
1776 -3.404378320868607 6.583319988874738 5.907355174727147
1067 2.1097287632149504 2.2027105121875548 -4.118604259875047
1068 -1.265085484924807 1.7400353533968473 4.2211607596023635
1148 -7.717376009596491 32.726830546144434 -10.11062614403952
1149 8.627334093839504 4.85894046584917 -0.2855704138817965
1573 0.7390796015604278 -30.91537392162075 13.766680876468781
1575 0.29752170163383646 2.855619866502435 1.0969450282304933
811 5.170272189138576 -18.07495100467635 -10.409888986305278
977 1.1076786137087011 3.242222096816218 -1.2689401352760643
978 -1.4491148918449 5.984123983930168 -0.8229815467959747
1181 -18.34356249818509 4.379754575783802 0.7564960151056052
1182 -4.18060119194019 1.974375655110325 -3.4928923329084083
1705 13.417885909776905 -10.155406550494337 -0.6584993879341564
1180 -0.5208606285250068 3.4733561149991807 -8.318609053378237
1289 -11.089561179574822 16.829125107253155 -5.424846365944918
1290 -0.35586407503687884 -0.7633439354062658 3.625878089265958
1466 -17.20085999544034 5.868263946594989 -21.94517471809434
1014 1.564406478133428 -1.852487716481656 0.6540142817495868
1467 2.724052100600109 6.135458437719276 -2.7081458035849373
1849 -5.101364206485063 3.928579609512784 -6.676211148082259
1851 -1.4743339400198117 -4.509913445437038 3.658671111496614
1876 -20.199906921591133 -6.384701922345195 1.5735883181994283
1877 -10.873868300261172 -3.62330333204654 2.672653140896238
1878 -2.406780899334816 1.6889270462916333 1.2939267117191466
1288 -6.572234523607394 21.064522315508775 9.537527128129765
886 7.199765435667712 5.070716768572433 16.205297196235556
888 9.199744434348515 -1.2234455705443286 2.463091718912039
965 -23.970078642485436 -9.202746019101488 -36.854888401992376
966 2.5895190196188556 4.1212650407294475 -1.3100224687450122
1528 7.076665703749257 9.133792647043528 -8.54769682030039
1529 -0.1509957561423544 0.32404382149513294 -28.0292744268049
1530 -2.6087429880001047 5.572676934327255 -1.9413895948298856
1902 2.2177222096251863 2.4756872368511917 2.0930808880023575
1901 -9.31707708025868 11.31652863422108 15.594626529454448
1574 4.368341903842508 12.278613011547577 -19.97976756903099
1666 -1.9261014732885422 16.476364068992407 -5.505634795318223
1668 5.570749740630218 -1.2301893424575308 -1.6627884195744913
1802 6.523349766900827 5.256214825423093 -3.280574664904995
1803 -1.0548361067163734 2.079798323164511 -1.0587169496148598
1667 -3.453486666408958 7.485187367456042 0.6753982827753725
1328 15.108805871844059 -16.009267951089907 -20.836202235213452
1639 -12.367161576330702 -7.9475235733777065 37.16697427605837
1399 -23.582785607763935 11.146970677355911 -6.8369519715421205
1276 39.80353138234201 4.160208517431644 -4.03572671229242
1400 27.697837898269942 -16.403532090186705 7.677542871286258
1401 2.6664788407412705 -0.7569541735759961 -5.253790518115129
1580 3.5766034063831533 -39.33586913757688 -19.450130834647357
1699 15.706961066501876 2.5496198086610304 19.9318347685597
1700 -6.751825828319139 6.700410389347949 -14.779685363133865
1701 2.1729703934705342 -3.6572127909283627 -2.6814536811778686
1747 7.472483746989702 4.061088166625805 -0.3610880726596304
1629 -0.4044359413868833 0.9106701862420236 3.9375243093825705
1278 8.751746606044613 5.889133119021518 -8.778632150443253
1277 0.7501995913894455 17.463318056060128 -11.694995754231073
1603 13.209041484555856 0.3833328846920738 9.855280762864036
1604 10.810002846397468 23.815085161334576 -13.605699650207542
1605 3.8231887810324054 -3.941680295444216 -7.084166375366664
1748 16.824004887129316 -4.967729219515747 5.72641124590279
1749 3.2289987464790073 3.0207175917801843 -0.999280193451826
1542 -1.3764528540931942 4.060920867800168 2.7665192747931533
1541 12.016932089769906 -1.354451103615434 -1.33465901306419
1450 37.739773192640484 20.256402281695376 15.891238554846838
1540 12.41392599229233 6.537810225977945 16.5904301308549
820 -9.225884142775287 -19.147685966939875 2.940220005814931
822 3.030924286432748 0.41202924464999197 -0.909052678740356
1451 2.332529404410858 19.70591442981281 4.784456999259927
1452 -3.252041536699948 3.753861816594688 1.5402944269013437
1708 13.113996057953253 -5.4538603125467455 1.9009430850065476
1709 11.713206076082107 7.804616519019136 -19.75891832165236
1710 -1.2693310143178276 3.1603684193364883 1.6643794536238663
821 -20.670618412887645 -1.7954079926744582 -15.904873494387992
2004 10.508116201290054 3.9787078831743834 -0.6111929399153
853 14.82191942783976 -8.61891708348532 -7.892542249987181
854 19.516433126829305 -7.981754546229018 -11.137171132738036
855 -0.3066391439915953 -3.287925207983143 -6.473242736176764
1327 30.409383323043087 1.9049516164772422 -4.967865465546856
1453 -5.243448719489779 -14.903565540156002 13.797564167536036
1454 6.789440456336164 9.421208066711134 -5.907529552844729
1455 0.8985191924795874 9.275141226130538 -2.616711641625792
1532 -32.15313758153454 12.887542705539362 10.669987293803171
1801 -9.98073546870769 28.311569065981796 12.13280823829902
1533 -7.58799283618308 1.1619178267921857 1.605600771076578
1882 -10.530805444309731 7.027385448906686 -7.491767202187521
1579 -15.086721981811161 -6.621351536412754 8.742159158237005
1581 -0.463247402741759 4.6992471104627205 -2.514022863133455
1883 13.72920149097345 -13.010955391709643 5.755827693505344
1884 -2.0903459164399334 -5.29975843445039 -2.808884044567732
1534 -20.398616699450077 -18.53136112908444 -13.507681450513534
907 0.19462089317998615 -13.791380545836864 -7.326579557575515
908 -7.205348907659393 -15.982677179013491 -7.1244768705593495
909 9.19268808870067 6.8259925886893615 -9.392258059546368
1536 -0.9754821883882636 0.16939838522649076 0.22683182929519613
950 10.72435783952757 -0.48512817020779564 -5.695895136405193
951 1.3195101091420454 2.7009242742529422 -1.9676153348798633
1535 1.7173770946592362 -10.162934053334586 -24.684800338005807
1247 3.89635814355773 -7.245943755630639 7.312744972660495
1246 -29.29909748800597 -13.912780876021456 9.56393307227483
1248 -0.6800119188854914 2.9461181178890863 5.778074725278904
916 -24.43181056256492 21.400121112660603 12.377485201402841
927 4.669397686671521 0.10468007937455259 -6.651003085398431
1984 27.562807083566387 2.930955680893426 -1.5464954579431032
1985 -23.642822696159435 -20.292363650305816 15.680871098577917
925 12.330672504066374 6.88569139454999 19.382283722057284
932 19.582114245304744 11.063644584722358 3.9166091494803585
933 6.255297131499843 -1.090369888349035 -8.37756293640841
862 -12.87612334671572 -15.618939199304323 18.64506097767692
863 -2.659913649304285 27.505235859330117 0.16495241586930373
864 2.1114821012078573 4.1928207322100475 3.018125609929852
931 1.5431809541406745 -0.7504962015572852 -2.382374458976137
1268 -17.04801943230082 7.234412543289118 -5.472615457203927
1927 9.081163940421314 -31.634637518852298 2.9047999457996903
1928 -12.367099765954391 3.0915895683797654 -6.824740928556978
1929 -0.7205413367900985 -3.8976889843712725 1.5468829691621775
1678 3.1339808545708308 8.983433830676638 4.765553677788994
1244 -1.098795586912436 14.97602800909415 -17.696623139198376
1245 -0.6838541405938131 4.997160240066107 6.6569258179500475
1562 1.150019119512497 -30.883593703619066 2.623093097910924
1679 6.150402541180468 2.585025350866134 -8.012150252314061
1680 4.867495718666205 -6.0971121263894545 -1.083410458680114
1907 -18.027835829282303 10.222135072961057 6.987520087818472
1752 3.210162418868451 7.676175454444563 -0.06799327787976087
1561 -7.298502378811025 -21.944738868802048 12.440916264988374
1563 -3.812537752070186 3.354382243196043 1.5237525995600902
1408 -14.564770494098534 -1.9868368815359958 -1.9861057751688351
1750 0.5717784213600258 -9.015366535366953 -3.510336642928182
1751 -9.88024161891852 -29.282895649689134 -15.163648877424839
1787 24.991739582154118 7.681361434000233 5.828490615968756
1609 4.054681400988775 10.308031070477256 12.111958618433999
1079 -3.068271073102925 -15.266800373351616 13.375865694761998
1171 22.895867864538637 16.32032417939273 -5.244709470732818
1173 3.9210132185018893 3.4968813755276655 0.7169488237601769
1259 2.896305939221599 2.0199791934828046 -11.594134315222892
1610 -4.6698379268126855 -1.577597493043338 3.698477535303662
1611 4.03276016609223 4.157750306291334 -0.02798891172155
1172 0.08762497200632782 31.71738393268865 8.757285415430934
1078 19.852692648126165 -23.591384638942927 -15.208021878172088
1080 6.43122118986111 -3.8008943744701424 3.2592702863408913
847 4.247297254261843 4.912734836139124 -4.467213622102053
848 8.76091412096006 -5.392728065254367 2.585827774355511
849 6.54637012249266 -3.0846273895963114 3.264673660656028
1234 -36.26493292200591 8.028948983987712 1.637205152769456
1840 -16.726761162135833 -20.512266680928075 27.41499290679199
1842 1.3442070696127408 -1.1770004684641338 -0.12002828418744879
1713 6.945359791027553 -3.189510809229545 -4.746059456599736
1712 0.3305782942381385 -14.127311404222125 -1.475278228439446
1479 3.130582777280225 -1.5095421481934095 1.424686905446099
1021 -29.22853645571597 -6.36169685454786 23.146400468078234
1022 34.63092492403512 1.7158481797018674 -20.902958821396307
1023 4.720673857403933 5.4142796170279714 -3.9591343803484733
1165 28.109366839780044 11.91983636237196 -1.4054225415540924
1477 -30.27563413695409 12.44983029466845 8.167836169071373
1478 -5.493338405167148 -2.9355909522697754 -9.662927053586928
1703 31.77913527457707 6.2085657339257265 -14.926815705938987
1293 2.459086071350262 -2.028866327006121 0.2196078147051341
968 -6.414966786556589 7.803420888575974 -5.900985376812193
1189 23.472578781244813 -7.417573987213893 8.254125982508981
1190 -3.7740786688027605 -8.476050109219175 10.228160498871741
1191 2.7393111587114163 -0.6697102080165394 -0.4408001036343838
1537 -13.67148757064451 17.92532695260592 3.524236846831384
1538 18.425896122313944 2.6913925323578396 -16.490648875365267
1539 1.2802328700220849 0.46267414263552015 3.160644113284412
1141 -7.700972337013854 -15.10132922406933 -5.010937347356131
1143 1.9719218307146824 -3.430605402121834 0.7568290079486226
1213 6.687993011918186 1.9150961216580396 11.53410959072929
1774 10.917337632810883 -16.04135438963134 -21.506177614161544
1214 -5.778836620220266 3.784421669131901 22.21835931881718
1775 -9.610494967833969 -24.607130654488653 8.487349207774232
1215 -1.3080458168166624 0.2522141056971693 4.147380665326376
1123 14.740329009476897 -11.751616078343396 17.11713992533374
1125 1.5073919466449965 -2.0405978171133476 -0.02382950076739203
1124 -8.065314675980797 -25.4526667311785 -0.9815165753382258
976 21.04685118751459 -23.897728519325515 13.427659777918075
1459 -2.1403169856618467 13.837758981864566 -38.92393844463737
1460 4.756806057336947 12.4005801044975 3.6373276778613217
1285 -5.838149172906121 -15.284107328463138 5.933801296652063
1287 1.898182920117636 -8.36782427019203 -1.8172199383319285
1461 0.7097579845202824 5.557735265897644 4.997968923741736
1897 5.806638021750518 -7.270141780860521 -39.56471759873563
1898 14.183675024536722 26.469414757135137 -16.2992672978739
1899 -7.545289229754929 0.4246047684360427 0.14248574597896857
1040 21.460661975050257 -17.835756641173496 7.346277927320437
1012 4.9580050595069505 -11.27836976399445 -27.849007503773787
1013 5.7699507036138975 -0.29766872260710237 -23.265095028680246
1850 29.345651726682714 33.96290630761123 16.767767398089962
1919 -7.972756382318487 -17.58047572680432 -22.39770122699171
1039 22.432650664977757 -7.983187496814163 4.269770227959132
1041 3.136383405270163 -0.17646967324561194 6.037711830401888
1156 10.261605637294847 18.640254668509 12.503045415839331
1158 -2.1921765139168152 3.532612664191897 3.4133147939299517
55 12.635279666281566 -4.015251833138201 10.72348639304698
1157 18.814959542730456 -40.10274259908948 -0.14402705184865416
1360 5.838670764421321 1.2745750858925902 -35.31074613364104
1361 -3.500552165881447 6.774983046798254 -31.25967802276162
1362 12.551479469809804 0.9230296896735376 3.1926189899969444
1420 36.43707612082561 28.85784994672536 9.136466246456447
1421 13.132663992709528 -13.453899092559379 -13.175873388970832
1422 0.7478220097497972 1.8157001516330942 1.830582057043962
1918 5.336112963592321 14.34229446131821 -0.4400241577921125
1920 3.5781596605684713 -5.962975360321251 -0.736433097086938
1087 2.7060764134939106 -1.9865137317258028 4.686302351027336
1142 -14.45807467132135 -15.894789372843544 -28.998785637767142
90 -16.52327616703274 -9.951431792831324 27.23632737078717
913 -22.635934775267224 19.90659154673695 3.5177282175929356
914 -14.375032628313006 8.359961529070747 -19.588339512393667
915 3.2621651240949623 1.3498269623905954 -1.1333150602910658
1280 -15.189940885275963 6.854615290153687 -17.4350682190831
1281 1.6133682021135933 1.3663935003097865 0.8394138146583147
1972 -10.675954971023069 0.11465549217555672 9.853111096482518
1762 -2.678167690969929 8.693999869982648 0.36987653959696803
1973 -4.247763591797055 3.943774831456879 6.9314550694853905
1974 5.971985889646623 -0.5635546676511148 -0.9649784401222774
1555 -10.274598560849943 27.436338447498862 3.6015727369670563
1556 7.951192107626411 -2.0879793795244264 2.6104565126915493
1557 4.569840203107084 -2.7606482410668827 1.3498764355407886
1640 -35.58104296739424 -20.39957985429465 -15.191365172094272
1641 -2.071925422383679 -6.104661299889691 -3.3980402319208864
1279 -32.00152047809981 3.417815125738639 21.732170303310017
880 -13.445229226308795 -24.537817681588127 13.583428595890448
837 3.3128157266122806 6.052321411428936 3.8710111329418533
835 34.07284013131519 -34.339165050895055 22.87575942711226
836 -0.18336053369739921 9.44516251938333 -4.366195990069516
1582 10.928852706467687 7.578113308643272 -18.163897486706144
1759 2.588105506182869 -22.13723731455541 7.364036777202097
1761 7.353000267934584 2.3533034402793693 6.5652437550252944
1806 1.8754589308354097 -1.649942129783117 6.574750903805118
1804 17.806556253714483 -7.861166942402739 13.986021817574663
1805 4.444878134725537 -13.82355600050664 -8.092711337060738
1584 -0.19910749250716916 -3.187567886830742 -8.63900496904646
514 9.65028835911506 12.786621565042719 6.509043593727257
1969 21.0493509400807 -10.283005466607742 -11.075563965150813
1970 -6.138858030244411 30.83496946782355 -7.20420983526183
1971 9.660403815354549 0.7947354788255214 -0.67341620584389
1760 -5.62608108941559 8.017929315250532 11.782036640065277
180 -6.731099355677767 -1.358597555401211 30.75475151458372
1756 -29.074323159339237 -25.61502835310982 2.6743287000621843
1757 30.10603960192485 -29.97976557258433 -7.025401209875396
1758 3.132534654989974 -2.7881723021410223 -4.1801504106170535
1089 0.03322109278468326 -3.7552606466129843 -0.266926824813021
1088 -9.627420934009168 -12.293817558340768 -13.860968051005353
1129 -10.889628923272465 -2.393168161684875 20.836493643501132
1490 -34.21238742266873 -22.95177171891685 9.594298471689545
826 -8.797908806142855 -4.30321238564796 -27.198123050888565
827 26.118483956250092 -7.418789743461996 -32.97164876098793
828 0.5783245201711612 0.15037191526445629 -5.872984471718515
1130 0.5573518411813871 -26.833072222225816 -3.5385269662889356
1131 -7.446831656884047 10.209746880565174 0.19907591098132815
1256 26.422772193602732 -1.6800462271249992 -0.6140661200402704
1531 -0.8687198564485659 0.08681240619783326 -15.82022395489336
1257 6.613962376861424 4.2895226175728896 -2.8919899779985765
881 -10.919725410918426 -35.46956182840302 -12.987848253732869
882 -6.399688243338758 -1.436811783851475 0.6119372266419487
1232 18.279021450757543 -1.2711042406538604 -7.530524725408514
1255 32.76214866136835 -14.269281431614035 -1.536684031965359
1426 20.33811032186945 19.022669375906528 -0.5075661895533677
1427 4.919155631969207 -6.217157187616838 -3.0357595990137587
1428 -1.9888083167533328 -1.1126402721277786 2.6969911322925073
1950 -6.905827576844432 2.329374041024442 3.117016120397153
1231 7.781003335765562 10.275035354894603 -5.098351598950655
1233 -0.7058645211490394 0.5297423060947388 0.7068415039215767
1949 -12.487442335366685 -5.525490160269034 7.344944362296494
905 23.972087463072704 -6.734832863980219 0.8428025901298726
904 -14.128005564465946 35.60061721580457 13.212708707080797
906 2.0954695084978243 -1.6093449577553116 1.3120409924092717
949 33.62482231258432 10.33729113021641 27.050917187291798
1260 -3.1706139117757166 -1.00509091094985 -6.934904649089075
922 10.539718273212776 -18.874852667257223 -2.446843903234071
1717 1.1731767070354278 20.331139025899255 -5.092218172359088
1718 12.390917412466068 5.764976294255508 3.173755008679518
1986 0.23169795677440583 -2.080226357507134 -9.655735426003737
540 10.230364900805442 2.72029715574588 11.688043522593198
923 18.32771399544949 7.866126632891587 -10.122548089678908
924 -6.018588039159023 -4.637870321651691 -8.477705654273981
1258 9.008252371987519 3.8297644825450416 6.234581577836106
1719 3.084029416733007 -3.9925354608753643 -2.4838233467394084
1915 -2.4561544248981546 -6.652594643288277 2.0654769761261975
1916 0.6357397924833582 4.327498343269957 -1.2735758507537218
1917 5.31816710012414 -4.483617628361806 0.3437851194960125
1235 17.504425938272995 10.884702553758691 -10.918578991996599
1236 -4.185478567805022 1.3547575046729128 -3.6040563204156912
1269 -3.8550045231615138 0.04465209880437309 -2.1160083698804333
1091 19.63496126759214 -24.693026399945584 -13.42018512607467
1267 13.062623756259027 -2.038934779828984 -5.71448047826084
1704 9.667840731355993 -1.682373915859199 -7.308395695087187
1807 -8.486394931665812 -0.505701553051257 -2.5191359636978046
1809 5.429116409085083 -10.778561887720945 -0.29303435455609333
1858 -1.9760569080386177 -0.7878686963206081 3.2310614378755695
1859 3.242842575617767 4.865366090578504 5.328997071792798
1860 9.146342874098218 -6.222876396698735 1.0508803476065314
1243 -17.519923431952865 -6.699974736927621 10.7257215127163
1166 5.022616631377525 27.59612038150338 -22.87988067005223
1948 24.102907360381263 22.77957476336876 6.200936205344079
1808 36.51003457543144 12.533464306663351 -8.041119033499978
242 -2.259043322856918 3.265877799664463 -6.0122394351508746
243 4.550172677550894 -16.454534456426025 -21.202578525148486
782 11.842009582484602 -3.0501353181336537 -2.756299391083478
783 0.01936697629441847 -1.6374658620387876 13.442282866366169
810 6.6739099756342615 24.024712773721497 3.974551688380757
1167 3.305229294890205 0.312442438499761 0.04892184671128685
1702 -23.75967211072622 11.077776902242512 -12.528021768432092
896 -2.08417434079665 -1.8163966785114016 21.485886636890896
1583 -1.4843776610458317 -16.901516534374455 11.271549693125626
784 6.119508031990165 -7.361084163847804 -17.47305041862628
244 -1.1783872795157622 -24.64800617017709 -36.5515521367347
895 5.071332595648137 -3.1807487214466246 -18.272783263736656
897 -4.276637987784603 -2.8358900277533774 0.1676520483126876
1786 3.1490441848092416 -2.635491200740996 5.458887680412983
1788 3.360284645714198 -2.7804045856738093 4.750850593113629
